Na4 Sr4 Ga4 P8                          
   1.00000000000000     
     7.1094056649121180   -0.0000021688121737   -0.0696033270637015
    -0.0000024759273500    8.8535117715463834    0.0000062257329120
    -0.0393760620569444    0.0000053707701849    7.3571440223702380
   Na   Sr   Ga   P 
     4     4     4     8
Direct
  0.3697103248249584  0.3869094390898913  0.9182506586710223
  0.6302925433479032  0.8869066024713409  0.5817491512231047
  0.6302910177813512  0.6130899658280615  0.0817496206173995
  0.3697077152403327  0.1130934527500720  0.4182514128719144
  0.0063215080072252  0.1180286900241816  0.7393438821677800
  0.9936805207737810  0.6180243693431162  0.7606537388129276
  0.9936801938368334  0.8819728900821142  0.2606549940573978
  0.0063200539073418  0.3819741287309504  0.2393460029958412
  0.6277328349815465  0.3655559983141665  0.5742435640211182
  0.3722664800257370  0.8655552037993390  0.9257560631729727
  0.3722670613851717  0.6344434704206112  0.4257559000324131
  0.6277316339685833  0.1344451028223008  0.0742435845018027
  0.2490644938153453  0.8489689714510036  0.6066390276605055
  0.7509355962399029  0.3489713337310243  0.8933622507009210
  0.7509355250067111  0.1510304022406233  0.3933614034056336
  0.2490648151185679  0.6510289371452892  0.1066381045604427
  0.2830002574240097  0.3963306459105207  0.5571308309719751
  0.7169992867743198  0.8963343906227131  0.9428696615404228
  0.7169996229521702  0.6036679396885780  0.4428694778958687
  0.2829985145882150  0.1036680655341021  0.0571306701185429
 
  0.00000000E+00  0.00000000E+00  0.00000000E+00
  0.00000000E+00  0.00000000E+00  0.00000000E+00
  0.00000000E+00  0.00000000E+00  0.00000000E+00
  0.00000000E+00  0.00000000E+00  0.00000000E+00
  0.00000000E+00  0.00000000E+00  0.00000000E+00
  0.00000000E+00  0.00000000E+00  0.00000000E+00
  0.00000000E+00  0.00000000E+00  0.00000000E+00
  0.00000000E+00  0.00000000E+00  0.00000000E+00
  0.00000000E+00  0.00000000E+00  0.00000000E+00
  0.00000000E+00  0.00000000E+00  0.00000000E+00
  0.00000000E+00  0.00000000E+00  0.00000000E+00
  0.00000000E+00  0.00000000E+00  0.00000000E+00
  0.00000000E+00  0.00000000E+00  0.00000000E+00
  0.00000000E+00  0.00000000E+00  0.00000000E+00
  0.00000000E+00  0.00000000E+00  0.00000000E+00
  0.00000000E+00  0.00000000E+00  0.00000000E+00
  0.00000000E+00  0.00000000E+00  0.00000000E+00
  0.00000000E+00  0.00000000E+00  0.00000000E+00
  0.00000000E+00  0.00000000E+00  0.00000000E+00
  0.00000000E+00  0.00000000E+00  0.00000000E+00
