Li12 Mg3 P6                             
   1.00000000000000     
     4.3612412559971041   -0.0005815834692469   -0.0002591788892212
    -2.1811242943928111    3.7766567719495048    0.0002619884976351
    -0.0014812862212923    0.0008736519957927   24.1700787137604962
   Li   Mg   P 
    12     3     6
Direct
  0.9999846591054432  0.0000159325634271  0.7962929499647301
  0.0000203027562814  0.9999790186238127  0.2037019738125057
  0.6666588566648451  0.3333401725600132  0.1297514687186581
  0.6666800800009360  0.3333210362103377  0.5370252851583732
  0.3333133173830837  0.6666828883042094  0.4629723182539631
  0.3333486520523949  0.6666522651565869  0.8702448689508445
  0.0000250843000488  0.9999766764097534  0.5749859054183502
  0.9999656062621564  0.0000301871691480  0.4250124181943399
  0.6666937998325162  0.3333075686055244  0.9084695761645876
  0.6666413203258414  0.3333587597294890  0.7579812179259053
  0.3333650283178469  0.6666351239998721  0.2420157828459869
  0.3333112725971327  0.6666875364278062  0.0915267024126494
 -0.0000039133525244  0.0000108348184879  0.0000082164806461
  0.6666083108566354  0.3333911343484137  0.3333525857545513
  0.3333932480250161  0.6666076579775236  0.6666457649538730
  0.0000169083248792  0.9999839238484749  0.9018283856658565
  0.9999866872536463  0.0000121533819388  0.0981895512127907
  0.6667042993982706  0.3332960592999367  0.2352310156937825
  0.6666298405453048  0.3333668402212368  0.4315099325990178
  0.3333499314493142  0.6666510707171884  0.5684898526535466
  0.3333067079009310  0.6666931596268120  0.7647642271650203
 
  0.00000000E+00  0.00000000E+00  0.00000000E+00
  0.00000000E+00  0.00000000E+00  0.00000000E+00
  0.00000000E+00  0.00000000E+00  0.00000000E+00
  0.00000000E+00  0.00000000E+00  0.00000000E+00
  0.00000000E+00  0.00000000E+00  0.00000000E+00
  0.00000000E+00  0.00000000E+00  0.00000000E+00
  0.00000000E+00  0.00000000E+00  0.00000000E+00
  0.00000000E+00  0.00000000E+00  0.00000000E+00
  0.00000000E+00  0.00000000E+00  0.00000000E+00
  0.00000000E+00  0.00000000E+00  0.00000000E+00
  0.00000000E+00  0.00000000E+00  0.00000000E+00
  0.00000000E+00  0.00000000E+00  0.00000000E+00
  0.00000000E+00  0.00000000E+00  0.00000000E+00
  0.00000000E+00  0.00000000E+00  0.00000000E+00
  0.00000000E+00  0.00000000E+00  0.00000000E+00
  0.00000000E+00  0.00000000E+00  0.00000000E+00
  0.00000000E+00  0.00000000E+00  0.00000000E+00
  0.00000000E+00  0.00000000E+00  0.00000000E+00
  0.00000000E+00  0.00000000E+00  0.00000000E+00
  0.00000000E+00  0.00000000E+00  0.00000000E+00
  0.00000000E+00  0.00000000E+00  0.00000000E+00
