K4 Al4 Zn4 P8                           
   1.00000000000000     
     6.4978007355091734   -0.0003904575850566   -0.9455006297882115
    -0.0004626791610257   10.5711505444932019    0.0009796063476373
    -1.0273447583410233    0.0001926441042610    6.4796762931977341
   K    Zn   Al   P 
     4     4     4     8
Direct
  0.2337336206892667  0.3746743266359183  0.9848755712873400
  0.7664791209721300  0.8746389274750410  0.5153063527975220
  0.7660850453107941  0.6253384414430188  0.0148838314095775
  0.2336901538879354  0.1253664337897326  0.4848720895300312
  0.8810424377713443  0.1236335026845239  0.8485621310387090
  0.1189603776306483  0.6236211361648107  0.6514458546860353
  0.1189487192476570  0.8763831908480443  0.1514697300566356
  0.8810281288763664  0.3763991477279766  0.3485322488932292
  0.6073082818157151  0.3741054436560493  0.6222372776329341
  0.3926496682361872  0.8741073596026411  0.8777202804062927
  0.3926882224906952  0.6258888950755314  0.3777172831917603
  0.6073489946234697  0.1258889255619502  0.1223335859269785
  0.2642929557320103  0.8091970621202830  0.5143804363843378
  0.7358535401545219  0.3091971489395088  0.9856215394106196
  0.7358356991686711  0.1908017950834931  0.4857122677532720
  0.2640646773828501  0.6907771917244243  0.0143024498174933
  0.2466844536075662  0.4409095689751973  0.4873406926965586
  0.7532991863230204  0.9409217003023003  0.0127913555966501
  0.7532057208317510  0.5590798228320970  0.5126091770030913
  0.2468009952473790  0.0590699793574723  0.9872858444809174
 
  0.00000000E+00  0.00000000E+00  0.00000000E+00
  0.00000000E+00  0.00000000E+00  0.00000000E+00
  0.00000000E+00  0.00000000E+00  0.00000000E+00
  0.00000000E+00  0.00000000E+00  0.00000000E+00
  0.00000000E+00  0.00000000E+00  0.00000000E+00
  0.00000000E+00  0.00000000E+00  0.00000000E+00
  0.00000000E+00  0.00000000E+00  0.00000000E+00
  0.00000000E+00  0.00000000E+00  0.00000000E+00
  0.00000000E+00  0.00000000E+00  0.00000000E+00
  0.00000000E+00  0.00000000E+00  0.00000000E+00
  0.00000000E+00  0.00000000E+00  0.00000000E+00
  0.00000000E+00  0.00000000E+00  0.00000000E+00
  0.00000000E+00  0.00000000E+00  0.00000000E+00
  0.00000000E+00  0.00000000E+00  0.00000000E+00
  0.00000000E+00  0.00000000E+00  0.00000000E+00
  0.00000000E+00  0.00000000E+00  0.00000000E+00
  0.00000000E+00  0.00000000E+00  0.00000000E+00
  0.00000000E+00  0.00000000E+00  0.00000000E+00
  0.00000000E+00  0.00000000E+00  0.00000000E+00
  0.00000000E+00  0.00000000E+00  0.00000000E+00
