Na6 Ca6 In6 P12                         
   1.00000000000000     
    -3.5838730517666311   -6.9427244384599751    0.1076450215676042
    -3.5836119836682028    6.9425915050879592    0.1076707885947466
     0.1025180544325465   -0.0000251176411317  -14.9365855894983568
   In   Na   P    Ca
     6     6    12     6
Direct
  0.8289456958403524  0.5108595549609675  0.1748206932644143
  0.5108198244390917  0.8289787186315354  0.1747568508466553
  0.1710600643166012  0.4891348262445073  0.8251875734016627
  0.4891085653813904  0.1709811559315246  0.8252703124587423
  0.3871434153147596  0.3871178096196314  0.5864578393637042
  0.6128240681886715  0.6128514123072533  0.4135392956566599
  0.1847851676638270  0.5156221884507836  0.3178380277681658
  0.5156049394996245  0.1847991447791965  0.3178361507220141
  0.8152533036968072  0.4844021478851614  0.6821534938953361
  0.4844170649385164  0.8153007468198603  0.6821382957519559
  0.3654697289777440  0.3654501887478893  0.0758072575932177
  0.6345528856781687  0.6345001319364566  0.9241919392793163
  0.8967514756977921  0.5957548301461700  0.3485734972224439
  0.5957566395165464  0.8967537241309660  0.3485289416465256
  0.1032853198403584  0.4042714512606180  0.6514339680689193
  0.4042141871098915  0.1032009677499491  0.6514909826919291
  0.1394472289869075  0.5117741356523956  0.1265762577283239
  0.5118082613690798  0.1395360779619721  0.1265581238639639
  0.8605962945779958  0.4882656676020089  0.8734114109747495
  0.4882311692838969  0.8604728716191301  0.8734753648221683
  0.2464433375377512  0.2464309451660814  0.4195059464826886
  0.7535332650048494  0.7535559694836652  0.5804921138392808
  0.7947985544965391  0.7948105056453429  0.1009962758284897
  0.2051917258794448  0.2051731396402308  0.8989914112834838
  0.9791277377188603  0.9791428932989897  0.2696853387655248
  0.0209150736508893  0.0209072552433962  0.7302830773066181
  0.8542898640182083  0.1456102642730850  0.4999780271850441
  0.1456325944223255  0.8543577082400657  0.5000131086628081
  0.8321719322764394  0.1678647697330218 -0.0000014929239137
  0.1678206146766699  0.8321187968381808  0.0000099165491078
 
  0.00000000E+00  0.00000000E+00  0.00000000E+00
  0.00000000E+00  0.00000000E+00  0.00000000E+00
  0.00000000E+00  0.00000000E+00  0.00000000E+00
  0.00000000E+00  0.00000000E+00  0.00000000E+00
  0.00000000E+00  0.00000000E+00  0.00000000E+00
  0.00000000E+00  0.00000000E+00  0.00000000E+00
  0.00000000E+00  0.00000000E+00  0.00000000E+00
  0.00000000E+00  0.00000000E+00  0.00000000E+00
  0.00000000E+00  0.00000000E+00  0.00000000E+00
  0.00000000E+00  0.00000000E+00  0.00000000E+00
  0.00000000E+00  0.00000000E+00  0.00000000E+00
  0.00000000E+00  0.00000000E+00  0.00000000E+00
  0.00000000E+00  0.00000000E+00  0.00000000E+00
  0.00000000E+00  0.00000000E+00  0.00000000E+00
  0.00000000E+00  0.00000000E+00  0.00000000E+00
  0.00000000E+00  0.00000000E+00  0.00000000E+00
  0.00000000E+00  0.00000000E+00  0.00000000E+00
  0.00000000E+00  0.00000000E+00  0.00000000E+00
  0.00000000E+00  0.00000000E+00  0.00000000E+00
  0.00000000E+00  0.00000000E+00  0.00000000E+00
  0.00000000E+00  0.00000000E+00  0.00000000E+00
  0.00000000E+00  0.00000000E+00  0.00000000E+00
  0.00000000E+00  0.00000000E+00  0.00000000E+00
  0.00000000E+00  0.00000000E+00  0.00000000E+00
  0.00000000E+00  0.00000000E+00  0.00000000E+00
  0.00000000E+00  0.00000000E+00  0.00000000E+00
  0.00000000E+00  0.00000000E+00  0.00000000E+00
  0.00000000E+00  0.00000000E+00  0.00000000E+00
  0.00000000E+00  0.00000000E+00  0.00000000E+00
  0.00000000E+00  0.00000000E+00  0.00000000E+00
