Li4 Mg4 In4 N8                          
   1.00000000000000     
     6.0185643497492043    0.0000259468528121   -0.0893345326796244
     0.0000220340346489    6.8645774757029736   -0.0000196852025663
    -0.0571668488259039   -0.0000157466887572    5.8619368130948244
   Li   Mg   In   N 
     4     4     4     8
Direct
  0.3060306994509912  0.4131573059042675  0.8958852307255365
  0.6939991734908549  0.9131626528644670  0.6041226216569012
  0.6939892023996043  0.5868384749686327  0.1041177269267020
  0.3059891266247802  0.0868408944704545  0.3958756778372629
  0.0634520414214104  0.1586356350612763  0.7259010569551914
  0.9365552731522716  0.6586317822994893  0.7740915550296212
  0.9365495597424713  0.8413666825835454  0.2741056821759613
  0.0634518451588210  0.3413667933005242  0.2258955643334319
  0.6472986269420246  0.3501225849359029  0.5756897901718186
  0.3527039520408860  0.8501267274313492  0.9243042333816688
  0.3527001048023027  0.6498746941432240  0.4243091216580305
  0.6472977872226040  0.1498755355732568  0.0756946291588537
  0.1691359123451942  0.8691659551735775  0.5999824695841128
  0.8308497786437409  0.3691674402686843  0.9000199256859081
  0.8308688662898758  0.1308342082688521  0.4000156542479947
  0.1691418495076743  0.6308336199659027  0.0999788238612200
  0.2803837941859226  0.3560183001761365  0.5559101335368952
  0.7196050713544145  0.8560214489653994  0.9441001071112634
  0.7196107706749081  0.6439747389160106  0.4440966405572547
  0.2803865645492402  0.1439845247290327  0.0559033554043707
 
  0.00000000E+00  0.00000000E+00  0.00000000E+00
  0.00000000E+00  0.00000000E+00  0.00000000E+00
  0.00000000E+00  0.00000000E+00  0.00000000E+00
  0.00000000E+00  0.00000000E+00  0.00000000E+00
  0.00000000E+00  0.00000000E+00  0.00000000E+00
  0.00000000E+00  0.00000000E+00  0.00000000E+00
  0.00000000E+00  0.00000000E+00  0.00000000E+00
  0.00000000E+00  0.00000000E+00  0.00000000E+00
  0.00000000E+00  0.00000000E+00  0.00000000E+00
  0.00000000E+00  0.00000000E+00  0.00000000E+00
  0.00000000E+00  0.00000000E+00  0.00000000E+00
  0.00000000E+00  0.00000000E+00  0.00000000E+00
  0.00000000E+00  0.00000000E+00  0.00000000E+00
  0.00000000E+00  0.00000000E+00  0.00000000E+00
  0.00000000E+00  0.00000000E+00  0.00000000E+00
  0.00000000E+00  0.00000000E+00  0.00000000E+00
  0.00000000E+00  0.00000000E+00  0.00000000E+00
  0.00000000E+00  0.00000000E+00  0.00000000E+00
  0.00000000E+00  0.00000000E+00  0.00000000E+00
  0.00000000E+00  0.00000000E+00  0.00000000E+00
