Na4 Mg4 Al4 P8                          
   1.00000000000000     
     6.8886076236199711    0.0037912087258231    0.0532508646928270
     0.0050084560061660    7.6003284048922888    0.0000925798663307
     0.1043466961424569   -0.0011782666722265    7.8186808885541881
   Na   Mg   Al   P 
     4     4     4     8
Direct
  0.3567244324655141  0.4876203644234985  0.8556767460138537
  0.6512251290238212  0.9890906377884220  0.6435238893012132
  0.6430126953629403  0.5124018263753289  0.1443222054646822
  0.3576365055071873  0.0112478250601325  0.3560654767762602
  0.1229779438554326  0.1498938467621206  0.7534102768387597
  0.8769477704883128  0.6496180178565871  0.7468803308249709
  0.8769782569610753  0.8500806203634412  0.2465395086916430
  0.1225066021974765  0.3500688224084321  0.2534466424848653
  0.6574707812699464  0.3625324089373597  0.5210134564283853
  0.3411255519007930  0.8621915036636310  0.9786911448367878
  0.3410168065303400  0.6378093740361676  0.4791077233764330
  0.6574181517926271  0.1376418520181484  0.0210502505893972
  0.1962695754753987  0.8166230992259941  0.7021885233234896
  0.8020265643264179  0.3166068747746310  0.7979022570698350
  0.8020215702869983  0.1833997138068238  0.2978293046526352
  0.1971428676474437  0.6831491434953975  0.2020209103204425
  0.3142116980319184  0.3321154412823825  0.5331457361146164
  0.6846080605064532  0.8319653806649341  0.9668202434644142
  0.6845616477780563  0.6681468324207211  0.4669608100935846
  0.3141173885918535  0.1677964146358533  0.0334045633337234
 
  0.00000000E+00  0.00000000E+00  0.00000000E+00
  0.00000000E+00  0.00000000E+00  0.00000000E+00
  0.00000000E+00  0.00000000E+00  0.00000000E+00
  0.00000000E+00  0.00000000E+00  0.00000000E+00
  0.00000000E+00  0.00000000E+00  0.00000000E+00
  0.00000000E+00  0.00000000E+00  0.00000000E+00
  0.00000000E+00  0.00000000E+00  0.00000000E+00
  0.00000000E+00  0.00000000E+00  0.00000000E+00
  0.00000000E+00  0.00000000E+00  0.00000000E+00
  0.00000000E+00  0.00000000E+00  0.00000000E+00
  0.00000000E+00  0.00000000E+00  0.00000000E+00
  0.00000000E+00  0.00000000E+00  0.00000000E+00
  0.00000000E+00  0.00000000E+00  0.00000000E+00
  0.00000000E+00  0.00000000E+00  0.00000000E+00
  0.00000000E+00  0.00000000E+00  0.00000000E+00
  0.00000000E+00  0.00000000E+00  0.00000000E+00
  0.00000000E+00  0.00000000E+00  0.00000000E+00
  0.00000000E+00  0.00000000E+00  0.00000000E+00
  0.00000000E+00  0.00000000E+00  0.00000000E+00
  0.00000000E+00  0.00000000E+00  0.00000000E+00
