K4 Mg4 Al4 N8                           
   1.00000000000000     
     5.5721642474360555    0.0000385167047323   -1.2132823912229667
     0.0000271700553391    9.0309492946038237   -0.0001607310748654
    -1.1560900354538286   -0.0001100533433253    5.5376186326945724
   K    Mg   Al   N 
     4     4     4     8
Direct
  0.2296910320376239  0.3743384618141062  0.9863106940760500
  0.7702372287240600  0.8743362276670754  0.5135441710477467
  0.7703015538847343  0.6256673699316823  0.0136978416529310
  0.2297500990689195  0.1256547346508610  0.4864460751654373
  0.8734893648370801  0.1213464523494254  0.8382851838346597
  0.1265315389979016  0.6213511553407237  0.6617363414965581
  0.1265066736077709  0.8786507138600540  0.1617189794503157
  0.8734968941938633  0.3786437247516657  0.3382757596626769
  0.5929472039974589  0.3719655203566623  0.6176821632813438
  0.4070632879625234  0.8719519320652834  0.8823141199460380
  0.4070590139899739  0.6280316946862867  0.3823163761011624
  0.5929245357425360  0.1280466125078576  0.1176814945254012
  0.3000202199509689  0.7941165841666018  0.5403199014132761
  0.6999324051310893  0.2941313859872923  0.9596691526386661
  0.6999841327536359  0.2058932308024881  0.4596775614610206
  0.3000728562953743  0.7058689420481393  0.0403300387715924
  0.2548857111800955  0.4556752506589378  0.4719862153453517
  0.7451137679640174  0.9556892367817960  0.0279778617446419
  0.7451041304882895  0.5443220775015731  0.5280012013635544
  0.2548883491920917  0.0443186920714811  0.9720288670215691
 
  0.00000000E+00  0.00000000E+00  0.00000000E+00
  0.00000000E+00  0.00000000E+00  0.00000000E+00
  0.00000000E+00  0.00000000E+00  0.00000000E+00
  0.00000000E+00  0.00000000E+00  0.00000000E+00
  0.00000000E+00  0.00000000E+00  0.00000000E+00
  0.00000000E+00  0.00000000E+00  0.00000000E+00
  0.00000000E+00  0.00000000E+00  0.00000000E+00
  0.00000000E+00  0.00000000E+00  0.00000000E+00
  0.00000000E+00  0.00000000E+00  0.00000000E+00
  0.00000000E+00  0.00000000E+00  0.00000000E+00
  0.00000000E+00  0.00000000E+00  0.00000000E+00
  0.00000000E+00  0.00000000E+00  0.00000000E+00
  0.00000000E+00  0.00000000E+00  0.00000000E+00
  0.00000000E+00  0.00000000E+00  0.00000000E+00
  0.00000000E+00  0.00000000E+00  0.00000000E+00
  0.00000000E+00  0.00000000E+00  0.00000000E+00
  0.00000000E+00  0.00000000E+00  0.00000000E+00
  0.00000000E+00  0.00000000E+00  0.00000000E+00
  0.00000000E+00  0.00000000E+00  0.00000000E+00
  0.00000000E+00  0.00000000E+00  0.00000000E+00
