K8 N4 Sr2                               
   1.00000000000000     
     4.9305942082756218   -0.0016681231679230   -0.4317644754218406
    -0.0021795694589192    4.6498278377219924   -0.0534398907421859
    -4.1425721131062634   -2.5149028905475039   18.4250611223079730
   K    N    Sr
     8     4     2
Direct
  0.3523547686718881  0.6564036188385876  0.8323458076737212
  0.5971204948980083  0.4357708696251517  0.3257299617012058
  0.6485955589177315  0.3434704403494984  0.1675971813731497
  0.4008748055280510  0.5640637669416069  0.6738250011731686
  0.7631339321522284  0.2333265936607802  0.9726367898939157
  0.1216756355700431  0.9839260273040559  0.4025905985166595
  0.2385694171175587  0.7659769046574887  0.0273690568176214
  0.8752598785857610  0.0168077331204615  0.5975688977159754
  0.7253480495123155  0.8965965768739662  0.2587322263244982
  0.9058551289837155  0.6845993442775841  0.8815956224624593
  0.2748886315728074  0.1035394083359176  0.7411777705158799
  0.0956718408805777  0.3154634310322577  0.1186994291231643
  0.1499261945411370  0.8615692023754140  0.1990185010551159
  0.8507256630681626  0.1384860826072087  0.8011131556534368
 
  0.00000000E+00  0.00000000E+00  0.00000000E+00
  0.00000000E+00  0.00000000E+00  0.00000000E+00
  0.00000000E+00  0.00000000E+00  0.00000000E+00
  0.00000000E+00  0.00000000E+00  0.00000000E+00
  0.00000000E+00  0.00000000E+00  0.00000000E+00
  0.00000000E+00  0.00000000E+00  0.00000000E+00
  0.00000000E+00  0.00000000E+00  0.00000000E+00
  0.00000000E+00  0.00000000E+00  0.00000000E+00
  0.00000000E+00  0.00000000E+00  0.00000000E+00
  0.00000000E+00  0.00000000E+00  0.00000000E+00
  0.00000000E+00  0.00000000E+00  0.00000000E+00
  0.00000000E+00  0.00000000E+00  0.00000000E+00
  0.00000000E+00  0.00000000E+00  0.00000000E+00
  0.00000000E+00  0.00000000E+00  0.00000000E+00
