K8 P4 Zn2                               
   1.00000000000000     
     6.2624596810597888    0.1150462415819468    0.7041196792542112
     0.1055568391367960    6.2367409626851886    0.7557020404539559
    -1.1855181420662499   -1.0097748822397992   16.2019640544897570
   K    P    Zn
     8     4     2
Direct
  0.5625011803341948  0.8079976200337313  0.8284870396115593
  0.7932871044364944  0.5565848132100939  0.3284994276166415
  0.4377622856484109  0.1920297692776956  0.1715984083818682
  0.2063489396460341  0.4434163567254430  0.6714932760378147
  0.0283786138222553  0.2554444504459639  0.9303196321722140
  0.2497343208214176  0.0264172496308817  0.4296633960796825
  0.9717693230388136  0.7446913777427682  0.0696464007899280
  0.7501920683803434  0.9731295326573814  0.5702100259691676
  0.7471344151044690  0.0403368318642165  0.3741467036184218
  0.0485603208058407  0.7575839717707638  0.8732943153956967
  0.2526455077819989  0.9596822093808157  0.6258398714076492
  0.9516835314458589  0.2426407303998559  0.1267879831992431
  0.8903346752486385  0.1031106150717775  0.2512636967472872
  0.1096677134852300  0.8969344717886045  0.7487498229728331
 
  0.00000000E+00  0.00000000E+00  0.00000000E+00
  0.00000000E+00  0.00000000E+00  0.00000000E+00
  0.00000000E+00  0.00000000E+00  0.00000000E+00
  0.00000000E+00  0.00000000E+00  0.00000000E+00
  0.00000000E+00  0.00000000E+00  0.00000000E+00
  0.00000000E+00  0.00000000E+00  0.00000000E+00
  0.00000000E+00  0.00000000E+00  0.00000000E+00
  0.00000000E+00  0.00000000E+00  0.00000000E+00
  0.00000000E+00  0.00000000E+00  0.00000000E+00
  0.00000000E+00  0.00000000E+00  0.00000000E+00
  0.00000000E+00  0.00000000E+00  0.00000000E+00
  0.00000000E+00  0.00000000E+00  0.00000000E+00
  0.00000000E+00  0.00000000E+00  0.00000000E+00
  0.00000000E+00  0.00000000E+00  0.00000000E+00
