Sr4 Li4 Ga4 P8                          
   1.00000000000000     
     7.0399251441407564    0.0000004338160855   -0.0018971100639323
     0.0000004537659234    8.3934354553552843   -0.0000005834716740
     0.0316511409488733   -0.0000003608401204    7.1422228581673730
   Li   Sr   Ga   P 
     4     4     4     8
Direct
  0.3796935861475425  0.3825604843832828  0.9115448166820822
  0.6203067583817917  0.8825611312172112  0.5884550578972253
  0.6203066820541668  0.6174387483708204  0.0884553493403751
  0.3796937284989843  0.1174392601066951  0.4115446423804407
  0.0074258090238729  0.1251485362063444  0.7403780545567683
  0.9925743609078921  0.6251482115100976  0.7596219237487828
  0.9925741031619656  0.8748517044152725  0.2596222975051562
  0.0074257722958045  0.3748515233923755  0.2403782483332396
  0.6250946826177662  0.3655306388867127  0.5802026752094800
  0.3749059303690076  0.8655315725202319  0.9197988679843980
  0.3749044186986307  0.6344701206843406  0.4197966408286348
  0.6250938959065693  0.1344680846931725  0.0802002305326138
  0.2666267881466917  0.8651582495397311  0.5942876184808045
  0.7333730426515014  0.3651576462804733  0.9057126785043548
  0.7333730783977133  0.1348424299065313  0.4057127540557880
  0.2666268009455252  0.6348419041665170  0.0942873453992873
  0.2815757719814223  0.3875509084110641  0.5695640820322571
  0.7184244955941589  0.8875516587740468  0.9304362814753750
  0.7184246861255081  0.6124483299643260  0.4304364261109212
  0.2815756080934990  0.1124488565707392  0.0695640089420157
 
  0.00000000E+00  0.00000000E+00  0.00000000E+00
  0.00000000E+00  0.00000000E+00  0.00000000E+00
  0.00000000E+00  0.00000000E+00  0.00000000E+00
  0.00000000E+00  0.00000000E+00  0.00000000E+00
  0.00000000E+00  0.00000000E+00  0.00000000E+00
  0.00000000E+00  0.00000000E+00  0.00000000E+00
  0.00000000E+00  0.00000000E+00  0.00000000E+00
  0.00000000E+00  0.00000000E+00  0.00000000E+00
  0.00000000E+00  0.00000000E+00  0.00000000E+00
  0.00000000E+00  0.00000000E+00  0.00000000E+00
  0.00000000E+00  0.00000000E+00  0.00000000E+00
  0.00000000E+00  0.00000000E+00  0.00000000E+00
  0.00000000E+00  0.00000000E+00  0.00000000E+00
  0.00000000E+00  0.00000000E+00  0.00000000E+00
  0.00000000E+00  0.00000000E+00  0.00000000E+00
  0.00000000E+00  0.00000000E+00  0.00000000E+00
  0.00000000E+00  0.00000000E+00  0.00000000E+00
  0.00000000E+00  0.00000000E+00  0.00000000E+00
  0.00000000E+00  0.00000000E+00  0.00000000E+00
  0.00000000E+00  0.00000000E+00  0.00000000E+00
