Mg Sr Zn P2                             
   1.00000000000000     
     4.1769659565443726   -0.0000271241929719    0.0000518729910111
    -2.0885317418266727    3.6173304635573156   -0.0000518463765324
     0.0000859744208967   -0.0000495723507464    7.1723315500145235
   Sr   Mg   Zn   P 
     1     1     1     2
Direct
 -0.0000016726225698  0.0000017184332297  0.0034538008110560
  0.3333195832133887  0.6666804191293277  0.6221859511680313
  0.6666627871695583  0.3333371911228900  0.3748215865173823
  0.3333328704016950  0.6666671841186042  0.2694269923565094
  0.6666863718379229  0.3333134871959555  0.7301116991470165
 
  0.00000000E+00  0.00000000E+00  0.00000000E+00
  0.00000000E+00  0.00000000E+00  0.00000000E+00
  0.00000000E+00  0.00000000E+00  0.00000000E+00
  0.00000000E+00  0.00000000E+00  0.00000000E+00
  0.00000000E+00  0.00000000E+00  0.00000000E+00
