K12 Ca3 N6                              
   1.00000000000000     
     5.1677197638822951    0.0000345123847121   -0.0008663108688805
    -2.5838323432503580    4.4756681344653417    0.0007062174194742
    -0.0035975388204123    0.0012234369834768   24.6111632112985994
   K    Ca   N 
    12     3     6
Direct
  0.0001128220276598  0.9999380586710558  0.7945267189834126
  0.9998883803101819  0.0000235223522154  0.2062832216718462
  0.6667121987561089  0.3332606167211765  0.1271609631824617
  0.6666480369501286  0.3333318122318829  0.5387175745152248
  0.3340854999745702  0.6658296354966637  0.4584898873461967
  0.3333501076593350  0.6669735979605989  0.8745956254821721
  0.0001844459195368  0.9998708417452349  0.5824242460090474
  0.0004805115088047  0.9992945119620700  0.4177634196466755
  0.6661743531322841  0.3337973239265253  0.9158138004238481
  0.6667024223132927  0.3330545148378334  0.7506796114202814
  0.3333363029743523  0.6667081097853540  0.2493171457127161
  0.3337376922411082  0.6667783125567652  0.0839859495209367
  0.9999369749898435  0.0001925050959031  0.0012863286348122
  0.6665431965169546  0.3329678029388035  0.3322218743596181
  0.3337913627739582  0.6663370393625740  0.6665960718887334
  0.9979592295783632  0.0022685461677199  0.9100609948852991
  0.0000983206103911  0.0000643248487435  0.0916374910422277
  0.6663813368331475  0.3333041697370049  0.2418553521730615
  0.6668812204700671  0.3330297066778627  0.4234175249764434
  0.3334804191089518  0.6664785572865455  0.5732743573990646
  0.3335151653509385  0.6664964896374883  0.7598918407259418
 
  0.00000000E+00  0.00000000E+00  0.00000000E+00
  0.00000000E+00  0.00000000E+00  0.00000000E+00
  0.00000000E+00  0.00000000E+00  0.00000000E+00
  0.00000000E+00  0.00000000E+00  0.00000000E+00
  0.00000000E+00  0.00000000E+00  0.00000000E+00
  0.00000000E+00  0.00000000E+00  0.00000000E+00
  0.00000000E+00  0.00000000E+00  0.00000000E+00
  0.00000000E+00  0.00000000E+00  0.00000000E+00
  0.00000000E+00  0.00000000E+00  0.00000000E+00
  0.00000000E+00  0.00000000E+00  0.00000000E+00
  0.00000000E+00  0.00000000E+00  0.00000000E+00
  0.00000000E+00  0.00000000E+00  0.00000000E+00
  0.00000000E+00  0.00000000E+00  0.00000000E+00
  0.00000000E+00  0.00000000E+00  0.00000000E+00
  0.00000000E+00  0.00000000E+00  0.00000000E+00
  0.00000000E+00  0.00000000E+00  0.00000000E+00
  0.00000000E+00  0.00000000E+00  0.00000000E+00
  0.00000000E+00  0.00000000E+00  0.00000000E+00
  0.00000000E+00  0.00000000E+00  0.00000000E+00
  0.00000000E+00  0.00000000E+00  0.00000000E+00
  0.00000000E+00  0.00000000E+00  0.00000000E+00
