Li12 Zn3 N6                             
   1.00000000000000     
     3.6033059987399239   -0.0001442371569293   -0.0000514810956726
    -1.8017779144189321    3.1204825752313852    0.0000508925040915
     0.0000283033314561   -0.0000141958569219   19.0300169171578801
   Li   Zn   N 
    12     3     6
Direct
  0.9999950943818624  0.0000047787873658  0.7980430930755548
  0.0000066494408339  0.9999937021781521  0.2019593496554233
  0.6666628775257533  0.3333371250481912  0.1315835900813911
  0.6666701163571103  0.3333297973424299  0.5351763768239349
  0.3333282935114003  0.6666714912330680  0.4648242737627152
  0.3333365327320741  0.6666635197879991  0.8684193073380230
  0.0000029781736078  0.9999969043890502  0.5817904880738931
  0.9999957358740530  0.0000040902497554  0.4182078965247424
  0.6666689784850497  0.3333311001174942  0.9152494454930545
  0.6666653790649204  0.3333345140928248  0.7512443169319089
  0.3333371188721900  0.6666633091507939  0.2487564251362394
  0.3333300799131362  0.6666698349785868  0.0847420503933583
  0.9999996291784951  0.0000003824589650  0.0000017558174804
  0.6666586752466767  0.3333415741231119  0.3335542262629604
  0.3333420245603864  0.6666577069964682  0.6664467833097728
  0.0000012988572774  0.9999987677206285  0.9039230765339581
  0.9999981779879036  0.0000017802640911  0.0960743260939833
  0.6666717268985219  0.3333286950104136  0.2374635151809459
  0.6666633772704741  0.3333364154332297  0.4295351767207111
  0.3333353103697798  0.6666645756448817  0.5704611158126869
  0.3333299452984939  0.6666699349924989  0.7625434109772554
 
  0.00000000E+00  0.00000000E+00  0.00000000E+00
  0.00000000E+00  0.00000000E+00  0.00000000E+00
  0.00000000E+00  0.00000000E+00  0.00000000E+00
  0.00000000E+00  0.00000000E+00  0.00000000E+00
  0.00000000E+00  0.00000000E+00  0.00000000E+00
  0.00000000E+00  0.00000000E+00  0.00000000E+00
  0.00000000E+00  0.00000000E+00  0.00000000E+00
  0.00000000E+00  0.00000000E+00  0.00000000E+00
  0.00000000E+00  0.00000000E+00  0.00000000E+00
  0.00000000E+00  0.00000000E+00  0.00000000E+00
  0.00000000E+00  0.00000000E+00  0.00000000E+00
  0.00000000E+00  0.00000000E+00  0.00000000E+00
  0.00000000E+00  0.00000000E+00  0.00000000E+00
  0.00000000E+00  0.00000000E+00  0.00000000E+00
  0.00000000E+00  0.00000000E+00  0.00000000E+00
  0.00000000E+00  0.00000000E+00  0.00000000E+00
  0.00000000E+00  0.00000000E+00  0.00000000E+00
  0.00000000E+00  0.00000000E+00  0.00000000E+00
  0.00000000E+00  0.00000000E+00  0.00000000E+00
  0.00000000E+00  0.00000000E+00  0.00000000E+00
  0.00000000E+00  0.00000000E+00  0.00000000E+00
