K4 Zn4 Ga4 N8                           
   1.00000000000000     
     6.0373061716005045    0.0000754120233498   -1.1613162129068026
     0.0001029389082706    8.7679042600606518   -0.0000318260444421
    -1.1591485830290083   -0.0000339634569295    6.2030966344698157
   K    Zn   Ga   N 
     4     4     4     8
Direct
  0.2757121026127826  0.4419562488712216  0.0004156003491481
  0.7243347606389448  0.9419486955760749  0.4995991545046162
  0.7242723239787641  0.5580271415973010 -0.0003794535265989
  0.2757341475256957  0.0580262780859382  0.5003693998176022
  0.0037070362981153  0.1555741831654193  0.8903249508853819
  0.9963174773815886  0.6555673513946917  0.6096752465440165
  0.9963255244670695  0.8444160910516448  0.1096602459967963
  0.0037079897720000  0.3444233813041129  0.3903390942430365
  0.6111353344056736  0.3568697963776081  0.5376568175253755
  0.3888583283531807  0.8568344103547033  0.9623596983072429
  0.3888564340338186  0.6431941938888114  0.4623800528189448
  0.6111433366020479  0.1431430982186160  0.0376438400059854
  0.2818328893688465  0.7463062350852242  0.6783658814122683
  0.7181193515660235  0.2462943391686100  0.8216164102016096
  0.7181111240475713  0.2537013438933855  0.3216207148746887
  0.2818636611752408  0.7537028452818876  0.1783648443455111
  0.2865557016292166  0.4266871943563035  0.4392550269163442
  0.7134205321950067  0.9266482500113087  0.0607342437951443
  0.7134160123420856  0.5733527194723101  0.5607636056688523
  0.2865759316063342  0.0733262028448270  0.9392346253140348
 
  0.00000000E+00  0.00000000E+00  0.00000000E+00
  0.00000000E+00  0.00000000E+00  0.00000000E+00
  0.00000000E+00  0.00000000E+00  0.00000000E+00
  0.00000000E+00  0.00000000E+00  0.00000000E+00
  0.00000000E+00  0.00000000E+00  0.00000000E+00
  0.00000000E+00  0.00000000E+00  0.00000000E+00
  0.00000000E+00  0.00000000E+00  0.00000000E+00
  0.00000000E+00  0.00000000E+00  0.00000000E+00
  0.00000000E+00  0.00000000E+00  0.00000000E+00
  0.00000000E+00  0.00000000E+00  0.00000000E+00
  0.00000000E+00  0.00000000E+00  0.00000000E+00
  0.00000000E+00  0.00000000E+00  0.00000000E+00
  0.00000000E+00  0.00000000E+00  0.00000000E+00
  0.00000000E+00  0.00000000E+00  0.00000000E+00
  0.00000000E+00  0.00000000E+00  0.00000000E+00
  0.00000000E+00  0.00000000E+00  0.00000000E+00
  0.00000000E+00  0.00000000E+00  0.00000000E+00
  0.00000000E+00  0.00000000E+00  0.00000000E+00
  0.00000000E+00  0.00000000E+00  0.00000000E+00
  0.00000000E+00  0.00000000E+00  0.00000000E+00
