Li6 Mg6 Ga6 P12                         
   1.00000000000000     
    -3.3476314494196338   -6.1711127410841371    0.2356361378358909
    -3.3485653524710757    6.1715234277117030    0.2353619109437760
     0.6604855555355815    0.0004342548157069  -13.4442630973754635
   Ga   Li   P    Mg
     6     6    12     6
Direct
  0.8056976797098979  0.4815763760844836  0.1952299326058717
  0.4818903428880982  0.8050014322904065  0.1945726967709956
  0.1955702578055986  0.5183693247646648  0.8055127904997181
  0.5180838308392739  0.1939595197896403  0.8053413116466906
  0.4103727501976245  0.4100935561169379  0.5820047031300003
  0.5897712912076449  0.5892828526338972  0.4179280341003380
  0.1617086497313626  0.4955823097360606  0.3361760674262008
  0.4953783773689976  0.1605254367817024  0.3356000017417355
  0.8386514453980556  0.5032556447268548  0.6647319045422507
  0.5042088432119702  0.8383657833353125  0.6639842617529766
  0.3861667405614402  0.3856506984072085  0.0670956935800083
  0.6152090043116306  0.6158312569655193  0.9333033302146860
  0.8515851054392556  0.5185437857597224  0.3704111229855769
  0.5207263580115552  0.8516770541399330  0.3697947383402381
  0.1480051336772939  0.4790006115891107  0.6304578426140236
  0.4794382498990756  0.1476484084259842  0.6301766438042020
  0.1102102525223851  0.4513920855608428  0.1427043033185745
  0.4537789942617962  0.1089605566039666  0.1412540466243837
  0.8910553121714939  0.5457606210383411  0.8591355412575008
  0.5496319141154202  0.8901441884028665  0.8571893757598033
  0.2136948331622224  0.2134145505612397  0.4115342176656681
  0.7860745711427152  0.7854299911225452  0.5883246864982313
  0.7674488618320995  0.7653011985353013  0.1138460511822446
  0.2337496744631037  0.2324245444543163  0.8865972496717920
  0.1030991823379865  0.1031027112867206  0.2217364637273713
  0.8974874829298392  0.8974944281851479  0.7765550417275865
  0.8457145060868204  0.1530605368203435  0.5002544097294243
  0.1519849483121927  0.8464252211289642  0.4998048607967715
  0.8501960416810732  0.1593375562060581  0.9979597524813348
  0.1434093647220697  0.8533877585459078  0.0007829238037930
 
  0.00000000E+00  0.00000000E+00  0.00000000E+00
  0.00000000E+00  0.00000000E+00  0.00000000E+00
  0.00000000E+00  0.00000000E+00  0.00000000E+00
  0.00000000E+00  0.00000000E+00  0.00000000E+00
  0.00000000E+00  0.00000000E+00  0.00000000E+00
  0.00000000E+00  0.00000000E+00  0.00000000E+00
  0.00000000E+00  0.00000000E+00  0.00000000E+00
  0.00000000E+00  0.00000000E+00  0.00000000E+00
  0.00000000E+00  0.00000000E+00  0.00000000E+00
  0.00000000E+00  0.00000000E+00  0.00000000E+00
  0.00000000E+00  0.00000000E+00  0.00000000E+00
  0.00000000E+00  0.00000000E+00  0.00000000E+00
  0.00000000E+00  0.00000000E+00  0.00000000E+00
  0.00000000E+00  0.00000000E+00  0.00000000E+00
  0.00000000E+00  0.00000000E+00  0.00000000E+00
  0.00000000E+00  0.00000000E+00  0.00000000E+00
  0.00000000E+00  0.00000000E+00  0.00000000E+00
  0.00000000E+00  0.00000000E+00  0.00000000E+00
  0.00000000E+00  0.00000000E+00  0.00000000E+00
  0.00000000E+00  0.00000000E+00  0.00000000E+00
  0.00000000E+00  0.00000000E+00  0.00000000E+00
  0.00000000E+00  0.00000000E+00  0.00000000E+00
  0.00000000E+00  0.00000000E+00  0.00000000E+00
  0.00000000E+00  0.00000000E+00  0.00000000E+00
  0.00000000E+00  0.00000000E+00  0.00000000E+00
  0.00000000E+00  0.00000000E+00  0.00000000E+00
  0.00000000E+00  0.00000000E+00  0.00000000E+00
  0.00000000E+00  0.00000000E+00  0.00000000E+00
  0.00000000E+00  0.00000000E+00  0.00000000E+00
  0.00000000E+00  0.00000000E+00  0.00000000E+00
