Ca Sr Zn N2                             
   1.00000000000000     
     3.8633432623345390    0.0000241766546098    0.0000042947746039
    -1.9318165956799607    3.3456687329078312   -0.0000043469072165
     0.0000123320666465   -0.0000071912181146    6.2064648688744999
   Sr   Ca   Zn   N 
     1     1     1     2
Direct
  0.0000014380459400 -0.0000011404860084  0.0217919138935656
  0.3333305878722062  0.6666692288569156  0.6343817185087619
  0.6666589195586939  0.3333407148247713  0.3727188716221665
  0.3333489345242419  0.6666514476773543  0.2519852733546140
  0.6666600599989130  0.3333397491269601  0.7191222526208944
 
  0.00000000E+00  0.00000000E+00  0.00000000E+00
  0.00000000E+00  0.00000000E+00  0.00000000E+00
  0.00000000E+00  0.00000000E+00  0.00000000E+00
  0.00000000E+00  0.00000000E+00  0.00000000E+00
  0.00000000E+00  0.00000000E+00  0.00000000E+00
