Na4 Ca4 Ga4 N8                          
   1.00000000000000     
     5.8934647729726208   -0.0000240567221674   -0.1819569101173498
    -0.0000288669199567    7.5914101924142487    0.0000261223529684
    -0.1649557769754858    0.0000220783158103    5.9719982971350278
   Na   Ca   Ga   N 
     4     4     4     8
Direct
  0.3501909541960460  0.3850727687905871  0.9380611533551722
  0.6498113412652169  0.8850589108853997  0.5619499999331451
  0.6498332465039907  0.6149505308729331  0.0619193311256268
  0.3501762040349144  0.1149531793220847  0.4380669307628312
  0.9899110568843918  0.1140397803600924  0.7559528907266260
  0.0100933547578128  0.6140493549132171  0.7440487475226097
  0.0100824036547868  0.8859571838469797  0.2440894387848240
  0.9899047646139973  0.3859537957064246  0.2559212867092402
  0.6275883634671999  0.3674562643859622  0.5823670037916969
  0.3724118254130828  0.8674575813180683  0.9176475119572380
  0.3724454502516929  0.6325365091319751  0.4176188236656811
  0.6275516535957982  0.1325331398626419  0.0823812097788163
  0.2439562784595855  0.8391615957113356  0.5998291561855690
  0.7560468144532989  0.3391538685882088  0.9001685892103166
  0.7560553861779157  0.1608217309773141  0.4001650573727921
  0.2439420078962576  0.6608339413387885  0.0998365696523582
  0.2852631220974656  0.4053981260319400  0.5511496721960006
  0.7147381990185452  0.9053882827963504  0.9488522230428593
  0.7147542203499690  0.5946087818639249  0.4487943812282476
  0.2852433529080484  0.0946146732957718  0.0511800229983489
 
  0.00000000E+00  0.00000000E+00  0.00000000E+00
  0.00000000E+00  0.00000000E+00  0.00000000E+00
  0.00000000E+00  0.00000000E+00  0.00000000E+00
  0.00000000E+00  0.00000000E+00  0.00000000E+00
  0.00000000E+00  0.00000000E+00  0.00000000E+00
  0.00000000E+00  0.00000000E+00  0.00000000E+00
  0.00000000E+00  0.00000000E+00  0.00000000E+00
  0.00000000E+00  0.00000000E+00  0.00000000E+00
  0.00000000E+00  0.00000000E+00  0.00000000E+00
  0.00000000E+00  0.00000000E+00  0.00000000E+00
  0.00000000E+00  0.00000000E+00  0.00000000E+00
  0.00000000E+00  0.00000000E+00  0.00000000E+00
  0.00000000E+00  0.00000000E+00  0.00000000E+00
  0.00000000E+00  0.00000000E+00  0.00000000E+00
  0.00000000E+00  0.00000000E+00  0.00000000E+00
  0.00000000E+00  0.00000000E+00  0.00000000E+00
  0.00000000E+00  0.00000000E+00  0.00000000E+00
  0.00000000E+00  0.00000000E+00  0.00000000E+00
  0.00000000E+00  0.00000000E+00  0.00000000E+00
  0.00000000E+00  0.00000000E+00  0.00000000E+00
