K8 P4 Mg2                               
   1.00000000000000     
     5.1555475732133544    0.7212560680738012    0.2206542685378463
     0.7116636108844213    5.1651019132099592   -0.2379280566757171
    -1.8469760534418855   -4.0632718726036181   20.1377107954604639
   K    P    Mg
     8     4     2
Direct
  0.3929640110302930  0.7336513783760437  0.8417105649855290
  0.6020464818256909  0.4591974317264369  0.3414765819356781
  0.6069017843774993  0.2666791906160589  0.1583485679403765
  0.3982071161631283  0.5407073914772872  0.6585533318918826
  0.7790736383635479  0.2094063143117549  0.9257104207469247
  0.2134973325102686  0.1552443109010930  0.4256831200572140
  0.2213973045835008  0.7898668632001089  0.0742953470004284
  0.7861491254756175 -0.1548751161907332  0.5743043508052311
  0.4771479757984023  0.8704755529728637  0.2381527445322749
  0.8759228609758748  0.7524812930641732  0.7384214817049612
  0.5226252566294188  0.1297846302891459  0.7618458406232957
  0.1240617290372955  0.2476779015790869  0.2616065924894463
  0.0127810735444617  0.7711903400067224  0.2497229465710458
  0.9872243096849929  0.2285125176699652  0.7501681087157106
 
  0.00000000E+00  0.00000000E+00  0.00000000E+00
  0.00000000E+00  0.00000000E+00  0.00000000E+00
  0.00000000E+00  0.00000000E+00  0.00000000E+00
  0.00000000E+00  0.00000000E+00  0.00000000E+00
  0.00000000E+00  0.00000000E+00  0.00000000E+00
  0.00000000E+00  0.00000000E+00  0.00000000E+00
  0.00000000E+00  0.00000000E+00  0.00000000E+00
  0.00000000E+00  0.00000000E+00  0.00000000E+00
  0.00000000E+00  0.00000000E+00  0.00000000E+00
  0.00000000E+00  0.00000000E+00  0.00000000E+00
  0.00000000E+00  0.00000000E+00  0.00000000E+00
  0.00000000E+00  0.00000000E+00  0.00000000E+00
  0.00000000E+00  0.00000000E+00  0.00000000E+00
  0.00000000E+00  0.00000000E+00  0.00000000E+00
