K4 Sr4 Ga4 P8                           
   1.00000000000000     
     7.3665035880847229    0.0006016846517999   -0.5068227742518204
     0.0007836267515450    9.9775882426556990   -0.0004653099112972
    -0.4752016628278470   -0.0003702200285502    7.1671289578596635
   K    Sr   Ga   P 
     4     4     4     8
Direct
  0.4109035633172434  0.3834276948729218  0.1203726425264313
  0.5890527246472849  0.8834046769294416  0.3795632498359236
  0.5891124207270383  0.6165617967301193 -0.1203553632430341
  0.4109128179218923  0.1166041313130644  0.6203887303403892
 -0.0408973297306000  0.0921294015960021  0.7580061475917524
  0.0409101998448574  0.5922141668014921  0.7419895108630048
  0.0409001062923999  0.9078719793201683  0.2419880452554299
 -0.0409028149035376  0.4077913512899842  0.2580254870412686
  0.6338993764104360  0.3706667719711644  0.5676505569961519
  0.3661090959620727  0.8706888254903528  0.9323440543630175
  0.3660961564562360  0.6293277946659506  0.4323591361963129
  0.6339046417462243  0.1293139211433650  0.0676382311463399
  0.2450556350119756  0.8223654731405557  0.6105893840548546
  0.7549111828683386  0.3223207823637755  0.8894175202354012
  0.7549424122751014  0.1776361099181803  0.3894170599831130
  0.2450850669241054  0.6776743076739827  0.1105979685495090
  0.2997196674692441  0.4157300901556596  0.5545231783852784
  0.7002784632581429  0.9156869991647592  0.9454612618405126
  0.7002710709124763  0.5842735671222729  0.4454969948625105
  0.2997355425890615  0.0843101583367784  0.0545262031758404
 
  0.00000000E+00  0.00000000E+00  0.00000000E+00
  0.00000000E+00  0.00000000E+00  0.00000000E+00
  0.00000000E+00  0.00000000E+00  0.00000000E+00
  0.00000000E+00  0.00000000E+00  0.00000000E+00
  0.00000000E+00  0.00000000E+00  0.00000000E+00
  0.00000000E+00  0.00000000E+00  0.00000000E+00
  0.00000000E+00  0.00000000E+00  0.00000000E+00
  0.00000000E+00  0.00000000E+00  0.00000000E+00
  0.00000000E+00  0.00000000E+00  0.00000000E+00
  0.00000000E+00  0.00000000E+00  0.00000000E+00
  0.00000000E+00  0.00000000E+00  0.00000000E+00
  0.00000000E+00  0.00000000E+00  0.00000000E+00
  0.00000000E+00  0.00000000E+00  0.00000000E+00
  0.00000000E+00  0.00000000E+00  0.00000000E+00
  0.00000000E+00  0.00000000E+00  0.00000000E+00
  0.00000000E+00  0.00000000E+00  0.00000000E+00
  0.00000000E+00  0.00000000E+00  0.00000000E+00
  0.00000000E+00  0.00000000E+00  0.00000000E+00
  0.00000000E+00  0.00000000E+00  0.00000000E+00
  0.00000000E+00  0.00000000E+00  0.00000000E+00
