K6 Mg6 Ga6 P12                          
   1.00000000000000     
    -3.3158301399081749   -7.3324361065202304    0.4201689055809799
    -3.3205955849010653    7.3352893713524772    0.4313883235476080
     1.4844771103593333   -0.0119240470059667  -14.9995605662530682
   Ga   K    P    Mg
     6     6    12     6
Direct
  0.8353977016905358  0.5359564834628180  0.1851864490215259
  0.5381820987908472  0.8343909877214659  0.1849684916723550
  0.1647880324424229  0.4641652476040673  0.8148511877821758
  0.4619308916235428  0.1656626051543961  0.8149869125036077
  0.4203227714070561  0.4204257226316191  0.5902460004974635
  0.5797927680550682  0.5795337984749145  0.4101333264500245
  0.0507759159434987  0.3734692695727176  0.2991920873108934
  0.3758198714828105  0.0501903889635672  0.3001105013194482
  0.9497383146354039  0.6262311223804866  0.7004948234330268
  0.6245706361465200  0.9498118894705481  0.7001251271681622
  0.2859032742452687  0.2848512629539774  0.0813733528888231
  0.7145384326855891  0.7158399196087999  0.9186932591801914
  0.8511730709988165  0.5728572857294546  0.3561880469003090
  0.5732372135522398  0.8499491915033021  0.3560317498005015
  0.1487016268630011  0.4268173059037703  0.6437301385330431
  0.4263263165465933  0.1493593320282178  0.6438585040171421
  0.1365094596821129  0.5621937348320672  0.1270364548952990
  0.5625869758274997  0.1349380788366885  0.1274942721585839
  0.8636105220068826  0.4383094934524535  0.8728632525437244
  0.4374596704646354  0.8653184448880218  0.8725936217152159
  0.2360945192657528  0.2357992958270268  0.4340808691470175
  0.7638926520273682  0.7640972853695799  0.5661135306390565
  0.8168972441490602  0.8150958707044204  0.1416958711625512
  0.1834528631089091  0.1851503295917936  0.8583261632993556
  0.8917441794805361  0.8906752129922215  0.3123558737849262
  0.1081474562251196  0.1090819904025683  0.6876329612675930
  0.8813135728582500  0.1176547668492842  0.4998346301356364
  0.1177429307182034  0.8814201558628744  0.4998143947294194
  0.7743165328352914  0.2258343475560752 -0.0000140098076093
  0.2250324842411633  0.7749191796708172  0.0000021558505383
 
  0.00000000E+00  0.00000000E+00  0.00000000E+00
  0.00000000E+00  0.00000000E+00  0.00000000E+00
  0.00000000E+00  0.00000000E+00  0.00000000E+00
  0.00000000E+00  0.00000000E+00  0.00000000E+00
  0.00000000E+00  0.00000000E+00  0.00000000E+00
  0.00000000E+00  0.00000000E+00  0.00000000E+00
  0.00000000E+00  0.00000000E+00  0.00000000E+00
  0.00000000E+00  0.00000000E+00  0.00000000E+00
  0.00000000E+00  0.00000000E+00  0.00000000E+00
  0.00000000E+00  0.00000000E+00  0.00000000E+00
  0.00000000E+00  0.00000000E+00  0.00000000E+00
  0.00000000E+00  0.00000000E+00  0.00000000E+00
  0.00000000E+00  0.00000000E+00  0.00000000E+00
  0.00000000E+00  0.00000000E+00  0.00000000E+00
  0.00000000E+00  0.00000000E+00  0.00000000E+00
  0.00000000E+00  0.00000000E+00  0.00000000E+00
  0.00000000E+00  0.00000000E+00  0.00000000E+00
  0.00000000E+00  0.00000000E+00  0.00000000E+00
  0.00000000E+00  0.00000000E+00  0.00000000E+00
  0.00000000E+00  0.00000000E+00  0.00000000E+00
  0.00000000E+00  0.00000000E+00  0.00000000E+00
  0.00000000E+00  0.00000000E+00  0.00000000E+00
  0.00000000E+00  0.00000000E+00  0.00000000E+00
  0.00000000E+00  0.00000000E+00  0.00000000E+00
  0.00000000E+00  0.00000000E+00  0.00000000E+00
  0.00000000E+00  0.00000000E+00  0.00000000E+00
  0.00000000E+00  0.00000000E+00  0.00000000E+00
  0.00000000E+00  0.00000000E+00  0.00000000E+00
  0.00000000E+00  0.00000000E+00  0.00000000E+00
  0.00000000E+00  0.00000000E+00  0.00000000E+00
