Na4 Ca4 In4 N8                          
   1.00000000000000     
     6.2119342375325202   -0.0001706874653608   -0.1195062005046501
    -0.0001983127094751    7.5505473391510298    0.0000782043154091
    -0.0857243220002210    0.0000582417626061    6.4702571317955186
   Na   Ca   In   N 
     4     4     4     8
Direct
  0.3574645049100153  0.4216533992450355  0.8874147633916337
  0.6425026602935120  0.9216663978618287  0.6125970936857734
  0.6425468980878879  0.5783549195724726  0.1126171359976053
  0.3574849301534103  0.0783504400656726  0.3874090875751351
  0.0626950718082428  0.1515255528254129  0.7211677943236975
  0.9373306250351698  0.6515454528459713  0.7788144843108860
  0.9372863365886492  0.8484381253397860  0.2788179560823799
  0.0627283034612931  0.3484321839116687  0.2211866714712500
  0.6525310775666867  0.3589406891460664  0.5588594359591239
  0.3474431896037311  0.8589045380827329  0.9411771614983936
  0.3474570914165849  0.6411124909496688  0.4410714547390950
  0.6525347224345568  0.1410949316995717  0.0588894571806384
  0.2045291149350330  0.8555307155251543  0.6163535577950674
  0.7954992069509127  0.3555212564840658  0.8836577165898308
  0.7954523969510061  0.1444585469894981  0.3836837315419088
  0.2044953637546456  0.6444561763293575  0.1163223584215223
  0.2898989220762946  0.3649975829880270  0.5374901333993652
  0.7101185182107326  0.8649719436957523  0.9624968400002634
  0.7101118858434465  0.6350557379270224  0.4624640650788731
  0.2898891799181958  0.1349889185152200  0.0375091009575499
 
  0.00000000E+00  0.00000000E+00  0.00000000E+00
  0.00000000E+00  0.00000000E+00  0.00000000E+00
  0.00000000E+00  0.00000000E+00  0.00000000E+00
  0.00000000E+00  0.00000000E+00  0.00000000E+00
  0.00000000E+00  0.00000000E+00  0.00000000E+00
  0.00000000E+00  0.00000000E+00  0.00000000E+00
  0.00000000E+00  0.00000000E+00  0.00000000E+00
  0.00000000E+00  0.00000000E+00  0.00000000E+00
  0.00000000E+00  0.00000000E+00  0.00000000E+00
  0.00000000E+00  0.00000000E+00  0.00000000E+00
  0.00000000E+00  0.00000000E+00  0.00000000E+00
  0.00000000E+00  0.00000000E+00  0.00000000E+00
  0.00000000E+00  0.00000000E+00  0.00000000E+00
  0.00000000E+00  0.00000000E+00  0.00000000E+00
  0.00000000E+00  0.00000000E+00  0.00000000E+00
  0.00000000E+00  0.00000000E+00  0.00000000E+00
  0.00000000E+00  0.00000000E+00  0.00000000E+00
  0.00000000E+00  0.00000000E+00  0.00000000E+00
  0.00000000E+00  0.00000000E+00  0.00000000E+00
  0.00000000E+00  0.00000000E+00  0.00000000E+00
