Na4 Ca4 Al4 P8                          
   1.00000000000000     
     6.8279564780853388    0.0000056806962909   -0.0960736073297359
     0.0000071569876629    8.7018564840247965   -0.0000062981511440
    -0.0664245837747223   -0.0000052680475439    7.1971406887995535
   Na   Ca   Al   P 
     4     4     4     8
Direct
  0.3589304743290279  0.3888545912258806  0.9221325900664905
  0.6410697153110201  0.8888551812053469  0.5778671337824509
  0.6410694482178595  0.6111447946479424  0.0778672992111156
  0.3589296685644920  0.1111449512781830  0.4221337643555521
  0.0046427024701593  0.1160258660124963  0.7411124966239907
  0.9953559888907382  0.6160267594305119  0.7588888547264665
  0.9953566308554419  0.8839736794199267  0.2588882881884864
  0.0046425955314599  0.3839738907674963  0.2411130280742300
  0.6286391666949662  0.3683903064254636  0.5725415756716860
  0.3713605819650105  0.8683904160239654  0.9274583717225405
  0.3713602239104594  0.6316098312695682  0.4274585746930558
  0.6286391449450462  0.1316097068403375  0.0725415282214754
  0.2412218463819814  0.8460023045015247  0.6086906384129944
  0.7587776491923287  0.3460022571276289  0.8913094679938596
  0.7587777084825632  0.1539978405059169  0.3913093078284251
  0.2412268709420408  0.6539977466094395  0.1086868230327823
  0.2722048872911452  0.3950677304691488  0.5576480439295884
  0.7277949599658833  0.8950675489158614  0.9423518987730904
  0.7277947420119079  0.6049323163483723  0.4423521973114063
  0.2722049940464685  0.1049322809749674  0.0576481173803118
 
  0.00000000E+00  0.00000000E+00  0.00000000E+00
  0.00000000E+00  0.00000000E+00  0.00000000E+00
  0.00000000E+00  0.00000000E+00  0.00000000E+00
  0.00000000E+00  0.00000000E+00  0.00000000E+00
  0.00000000E+00  0.00000000E+00  0.00000000E+00
  0.00000000E+00  0.00000000E+00  0.00000000E+00
  0.00000000E+00  0.00000000E+00  0.00000000E+00
  0.00000000E+00  0.00000000E+00  0.00000000E+00
  0.00000000E+00  0.00000000E+00  0.00000000E+00
  0.00000000E+00  0.00000000E+00  0.00000000E+00
  0.00000000E+00  0.00000000E+00  0.00000000E+00
  0.00000000E+00  0.00000000E+00  0.00000000E+00
  0.00000000E+00  0.00000000E+00  0.00000000E+00
  0.00000000E+00  0.00000000E+00  0.00000000E+00
  0.00000000E+00  0.00000000E+00  0.00000000E+00
  0.00000000E+00  0.00000000E+00  0.00000000E+00
  0.00000000E+00  0.00000000E+00  0.00000000E+00
  0.00000000E+00  0.00000000E+00  0.00000000E+00
  0.00000000E+00  0.00000000E+00  0.00000000E+00
  0.00000000E+00  0.00000000E+00  0.00000000E+00
