K4 Mg4 In4 N8                           
   1.00000000000000     
     5.8996142446462470   -0.0004891332662348   -1.1044522806914079
    -0.0013346338907427    9.5849629183817200   -0.0009837113795761
    -1.0681302297797397   -0.0004048660427001    5.8981123606556416
   K    Mg   In   N 
     4     4     4     8
Direct
  0.2299102561808367  0.3759468941654404  0.9846772523077642
  0.7703947221920658  0.8759436677987907  0.5153848938497548
  0.7701266052428694  0.6241708430546623  0.0151324347211615
  0.2297514697286373  0.1241497894623321  0.4854864501643930
  0.8943448701089407  0.1225892155920635  0.8610894077810199
  0.1056213160785434  0.6225825052398269  0.6390063155227605
  0.1055711870797416  0.8774107856772495  0.1394317692209184
  0.8942192656558571  0.3773852586726402  0.3596844754343400
  0.6060418842375201  0.3714828022999792  0.6467475713112651
  0.3940117941641972  0.8714461417537135  0.8531772926756254
  0.3940333667085128  0.6285456033749366  0.3529589586392248
  0.6059624848906729  0.1284860749893393  0.1473299631755617
  0.2309750026046126  0.8008523675770428  0.4892300844172145
  0.7687713454307173  0.3007927270994323  0.0105400855964495
  0.7694826885185968  0.1991971589624982  0.5110334140876632
  0.2308135385525379  0.6991533163020573  0.9891137717879588
  0.2449562246520780  0.4500555900475268  0.5003650090070286
  0.7550343572174505  0.9500790393336799 -0.0003532892887128
  0.7549976201714050  0.5498597159014785  0.4991271083633597
  0.2449800005842055  0.0498705026953300  0.0008370312252497
 
  0.00000000E+00  0.00000000E+00  0.00000000E+00
  0.00000000E+00  0.00000000E+00  0.00000000E+00
  0.00000000E+00  0.00000000E+00  0.00000000E+00
  0.00000000E+00  0.00000000E+00  0.00000000E+00
  0.00000000E+00  0.00000000E+00  0.00000000E+00
  0.00000000E+00  0.00000000E+00  0.00000000E+00
  0.00000000E+00  0.00000000E+00  0.00000000E+00
  0.00000000E+00  0.00000000E+00  0.00000000E+00
  0.00000000E+00  0.00000000E+00  0.00000000E+00
  0.00000000E+00  0.00000000E+00  0.00000000E+00
  0.00000000E+00  0.00000000E+00  0.00000000E+00
  0.00000000E+00  0.00000000E+00  0.00000000E+00
  0.00000000E+00  0.00000000E+00  0.00000000E+00
  0.00000000E+00  0.00000000E+00  0.00000000E+00
  0.00000000E+00  0.00000000E+00  0.00000000E+00
  0.00000000E+00  0.00000000E+00  0.00000000E+00
  0.00000000E+00  0.00000000E+00  0.00000000E+00
  0.00000000E+00  0.00000000E+00  0.00000000E+00
  0.00000000E+00  0.00000000E+00  0.00000000E+00
  0.00000000E+00  0.00000000E+00  0.00000000E+00
