Na6 Zn6 In6 N12                         
   1.00000000000000     
    -2.9613502454457477   -6.5382982839963795    0.5318397758010289
    -2.9611830049416152    6.5382823083455230    0.5325410118458922
     1.8912526203477502   -0.0006170969192286  -11.9417994830094099
   In   Na   N    Zn
     6     6    12     6
Direct
  0.7934355535627743  0.4762757049154192  0.1842299685267741
  0.4765057055104129  0.7932056540744103  0.1841769643853477
  0.2058292789104075  0.5249679734412451  0.8160377747292614
  0.5247676295396694  0.2059586598472273  0.8160649227235843
  0.3542024829992843  0.3543390095918333  0.5826947368317212
  0.6457785533508231  0.6457143603506280  0.4176675379048216
  0.1391715388927977  0.4857684390906312  0.3453282616605396
  0.4858184379964569  0.1390698557505824  0.3453365348248209
  0.8605237734371491  0.5154840338833693  0.6543600234654222
  0.5154665220841561  0.8605527619406685  0.6543863905370014
  0.2867951366061962  0.2866773479981005  0.0566263341569010
  0.7137100886557981  0.7137364136637742  0.9410135160830593
  0.8812295888779432  0.5763519774626378  0.3737643960623040
  0.5762429399196358  0.8809903962887725  0.3736989918438496
  0.1192105219914833  0.4249981041360869  0.6262837125845907
  0.4249948987173894  0.1195100926593301  0.6263543485783922
  0.0643917336452475  0.4495171537894879  0.1368165739793085
  0.4496935892579195  0.0642600739226728  0.1369101190133210
  0.9348594909403646  0.5528850823745316  0.8629125814020181
  0.5526940284157855  0.9349544318069656  0.8628437806873531
  0.2724062118224445  0.2723196695068348  0.3924539424912971
  0.7276894482696364  0.7278293149290531  0.6075449694529315
  0.7194743899436545  0.7192982787108670  0.1410571674602328
  0.2816837215661244  0.2818555240512218  0.8578718158096713
  0.0033594889956833  0.0033001155442939  0.2660309395966561
  0.9969025596314924  0.9970029306732764  0.7340385369687878
  0.8396830281330083  0.1609200924889087  0.5000974631527286
  0.1611919493385282  0.8400904026701456  0.5001166472907693
  0.8071655124419423  0.1851517509573704  0.0015776598607031
  0.1851221965457977  0.8070143934796545  0.0017033879358296
 
  0.00000000E+00  0.00000000E+00  0.00000000E+00
  0.00000000E+00  0.00000000E+00  0.00000000E+00
  0.00000000E+00  0.00000000E+00  0.00000000E+00
  0.00000000E+00  0.00000000E+00  0.00000000E+00
  0.00000000E+00  0.00000000E+00  0.00000000E+00
  0.00000000E+00  0.00000000E+00  0.00000000E+00
  0.00000000E+00  0.00000000E+00  0.00000000E+00
  0.00000000E+00  0.00000000E+00  0.00000000E+00
  0.00000000E+00  0.00000000E+00  0.00000000E+00
  0.00000000E+00  0.00000000E+00  0.00000000E+00
  0.00000000E+00  0.00000000E+00  0.00000000E+00
  0.00000000E+00  0.00000000E+00  0.00000000E+00
  0.00000000E+00  0.00000000E+00  0.00000000E+00
  0.00000000E+00  0.00000000E+00  0.00000000E+00
  0.00000000E+00  0.00000000E+00  0.00000000E+00
  0.00000000E+00  0.00000000E+00  0.00000000E+00
  0.00000000E+00  0.00000000E+00  0.00000000E+00
  0.00000000E+00  0.00000000E+00  0.00000000E+00
  0.00000000E+00  0.00000000E+00  0.00000000E+00
  0.00000000E+00  0.00000000E+00  0.00000000E+00
  0.00000000E+00  0.00000000E+00  0.00000000E+00
  0.00000000E+00  0.00000000E+00  0.00000000E+00
  0.00000000E+00  0.00000000E+00  0.00000000E+00
  0.00000000E+00  0.00000000E+00  0.00000000E+00
  0.00000000E+00  0.00000000E+00  0.00000000E+00
  0.00000000E+00  0.00000000E+00  0.00000000E+00
  0.00000000E+00  0.00000000E+00  0.00000000E+00
  0.00000000E+00  0.00000000E+00  0.00000000E+00
  0.00000000E+00  0.00000000E+00  0.00000000E+00
  0.00000000E+00  0.00000000E+00  0.00000000E+00
