Na12 Sr3 N6                             
   1.00000000000000     
     4.4047839184468085    0.0000273862298579    0.0007489314984333
    -2.2023697829942832    3.8202389937597778   -0.0056622718787414
     0.0032251066800206   -0.0409518696612467   24.3595177727838497
   Na   Sr   N 
    12     3     6
Direct
 -0.0000117945661597  0.0000674357163128  0.7980114498163555
 -0.0000477127500789 -0.0000767828716568  0.2019866860812516
  0.6662200510832929  0.3323987505827486  0.1321235533146033
  0.6671579032696883  0.3342522831445094  0.5345382175238764
  0.3333092017729853  0.6660985768382538  0.4654612775389376
  0.3337595101737320  0.6675944813623800  0.8678786629370948
  0.9998193298440443  0.9992661353536705  0.5717630745067874
  0.0013717136591086  0.0010076282456626  0.4282017681693684
  0.6666461299703139  0.3332589176620052  0.9049847126964863
  0.6663284483262102  0.3342795071488698  0.7614976557982448
  0.3324785721075152  0.6658042409301544  0.2384980692120014
  0.3333124660457539  0.6665621720755783  0.0950635448966121
 -0.0000012492317908  0.9998059199418797  0.0000059802155381
  0.6668586963390866  0.3335834072099244  0.3334918631210416
  0.3330075503594912  0.6662661041128691  0.6664981901227996
  0.0001161402448860  0.0001706733632401  0.8997849095304337
 -0.0001419116711897  0.9996400114352845  0.1002296325382755
  0.6662384317595356  0.3328000933982154  0.2335301604621072
  0.6672156169888616  0.3339207382673475  0.4334307242389449
  0.3332281540880293  0.6662776868040157  0.5665619685421481
  0.3331347521866979  0.6670220192787144  0.7664578987370912
 
  0.00000000E+00  0.00000000E+00  0.00000000E+00
  0.00000000E+00  0.00000000E+00  0.00000000E+00
  0.00000000E+00  0.00000000E+00  0.00000000E+00
  0.00000000E+00  0.00000000E+00  0.00000000E+00
  0.00000000E+00  0.00000000E+00  0.00000000E+00
  0.00000000E+00  0.00000000E+00  0.00000000E+00
  0.00000000E+00  0.00000000E+00  0.00000000E+00
  0.00000000E+00  0.00000000E+00  0.00000000E+00
  0.00000000E+00  0.00000000E+00  0.00000000E+00
  0.00000000E+00  0.00000000E+00  0.00000000E+00
  0.00000000E+00  0.00000000E+00  0.00000000E+00
  0.00000000E+00  0.00000000E+00  0.00000000E+00
  0.00000000E+00  0.00000000E+00  0.00000000E+00
  0.00000000E+00  0.00000000E+00  0.00000000E+00
  0.00000000E+00  0.00000000E+00  0.00000000E+00
  0.00000000E+00  0.00000000E+00  0.00000000E+00
  0.00000000E+00  0.00000000E+00  0.00000000E+00
  0.00000000E+00  0.00000000E+00  0.00000000E+00
  0.00000000E+00  0.00000000E+00  0.00000000E+00
  0.00000000E+00  0.00000000E+00  0.00000000E+00
  0.00000000E+00  0.00000000E+00  0.00000000E+00
