Na4 Al4 Zn4 P8                          
   1.00000000000000     
     6.6967349819719164    0.0036338259615528   -0.0218967602877826
     0.0041992814856939    7.4907479874902432    0.0023472743585817
     0.0109239015932923    0.0023955516427406    7.6143062138390603
   Na   Zn   Al   P 
     4     4     4     8
Direct
  0.2494206324983199  0.4925196294763250  0.8793675725857069
  0.7508241568841876  0.9923902730455286  0.6206907800613926
  0.7500101767471263  0.5073965872152369  0.1206167483491241
  0.2492155607434346  0.0076190303529427  0.3793053156177730
  0.1547751078730349  0.1524314024839533  0.7605333102129096
  0.8466149939396747  0.6513477135579511  0.7398992616515861
  0.8452871293782929  0.8475099436708190  0.2394628345122730
  0.1533895819587833  0.3486659684632603  0.2600970359660698
  0.6751383250431012  0.3603690129419381  0.5096967043267274
  0.3248057058981955  0.8605487319614575  0.9901743816007423
  0.3249298441179803  0.6396576636839002  0.4903153131099650
  0.6752937998607907  0.1394556098152607  0.0098363944384592
  0.1572950360047731  0.8179060923280317  0.7111398154422621
  0.8428564117284427  0.3176699517985857  0.7888449734137123
  0.8427640978085696  0.1821209525426518  0.2888641099120442
  0.1572197207410518  0.6823434292745998  0.2111590368179738
  0.3270194186016235  0.3274510423101377  0.5418640805234691
  0.6729581126326916  0.8273574597879118  0.9577266976921511
  0.6730394682239480  0.6725764354983321  0.4581310215107577
  0.3271427193159910  0.1726630697911756  0.0422746122548943
 
  0.00000000E+00  0.00000000E+00  0.00000000E+00
  0.00000000E+00  0.00000000E+00  0.00000000E+00
  0.00000000E+00  0.00000000E+00  0.00000000E+00
  0.00000000E+00  0.00000000E+00  0.00000000E+00
  0.00000000E+00  0.00000000E+00  0.00000000E+00
  0.00000000E+00  0.00000000E+00  0.00000000E+00
  0.00000000E+00  0.00000000E+00  0.00000000E+00
  0.00000000E+00  0.00000000E+00  0.00000000E+00
  0.00000000E+00  0.00000000E+00  0.00000000E+00
  0.00000000E+00  0.00000000E+00  0.00000000E+00
  0.00000000E+00  0.00000000E+00  0.00000000E+00
  0.00000000E+00  0.00000000E+00  0.00000000E+00
  0.00000000E+00  0.00000000E+00  0.00000000E+00
  0.00000000E+00  0.00000000E+00  0.00000000E+00
  0.00000000E+00  0.00000000E+00  0.00000000E+00
  0.00000000E+00  0.00000000E+00  0.00000000E+00
  0.00000000E+00  0.00000000E+00  0.00000000E+00
  0.00000000E+00  0.00000000E+00  0.00000000E+00
  0.00000000E+00  0.00000000E+00  0.00000000E+00
  0.00000000E+00  0.00000000E+00  0.00000000E+00
