Li8 P4 Sr2                              
   1.00000000000000     
     4.6094239955231959   -0.0008401665234040    0.0015135840799567
    -0.0008401948964775    4.6094005781871275    0.0015079758346081
    -2.2991554184691556   -2.2991620564379089   15.5522176422786220
   Li   P    Sr
     8     4     2
Direct
  0.4435260912085759  0.6941696655383465  0.8870749968018995
  0.6941590144589310  0.4435369314543597  0.3870765662928646
  0.5564651456287895  0.3058301731696037  0.1129244633887996
  0.3058176951618938  0.5564653503326041  0.6129241803979775
  0.9792758733238189  0.2291044769631785  0.9577372655397030
  0.2291088238525368  0.9792713412630568  0.4577374850744085
  0.0207342519547429  0.7708924819279611  0.0422626060893894
  0.7708960899519844  0.0207291147356283  0.5422626023586472
  0.6904196568496667  0.9399960558779866  0.3799885006860880
  0.9400036103752768  0.6904154327292928  0.8799879855649072
  0.3095883214312100  0.0600042504603942  0.6200117270455456
  0.0600049077451752  0.3095841799290470  0.1200118226671831
  0.1258168858937408  0.8741837100504735  0.2499995615044645
  0.8741836321636715  0.1258168355680740  0.7500002365881219
 
  0.00000000E+00  0.00000000E+00  0.00000000E+00
  0.00000000E+00  0.00000000E+00  0.00000000E+00
  0.00000000E+00  0.00000000E+00  0.00000000E+00
  0.00000000E+00  0.00000000E+00  0.00000000E+00
  0.00000000E+00  0.00000000E+00  0.00000000E+00
  0.00000000E+00  0.00000000E+00  0.00000000E+00
  0.00000000E+00  0.00000000E+00  0.00000000E+00
  0.00000000E+00  0.00000000E+00  0.00000000E+00
  0.00000000E+00  0.00000000E+00  0.00000000E+00
  0.00000000E+00  0.00000000E+00  0.00000000E+00
  0.00000000E+00  0.00000000E+00  0.00000000E+00
  0.00000000E+00  0.00000000E+00  0.00000000E+00
  0.00000000E+00  0.00000000E+00  0.00000000E+00
  0.00000000E+00  0.00000000E+00  0.00000000E+00
