Na4 Mg4 Al4 N8                          
   1.00000000000000     
     5.5584049950184262   -0.0005171901019431   -0.8411868989940140
    -0.0007548485632521    8.2715354921094129   -0.0003957163720465
    -0.8083955520179049   -0.0001867113732970    5.4366620843023785
   Na   Mg   Al   N 
     4     4     4     8
Direct
  0.2784549232423407  0.3772053691913442  0.0054931239000024
  0.7222378957961050  0.8766004999936328  0.4923032774471747
  0.7208140271394293  0.6231179615773882  0.9944957026855702
  0.2775281874156431  0.1229417072433246  0.5071308855609330
  0.9003941563132124  0.1244415187813350  0.8358540748762954
  0.0993766440850193  0.6244823512692270  0.6642083170510720
  0.0996424076034899  0.8755038379621173  0.1640786945717677
  0.9006490827240194  0.3755222523088664  0.3357991247447079
  0.6016366842341838  0.3720781395120689  0.6237858284652908
  0.3986533581510536  0.8721496508604848  0.8761476745615799
  0.3984639877096735  0.6278783344763578  0.3763627400628726
  0.6014594303685277  0.1279870298772190  0.1239024437558694
  0.2862604905234532  0.8119043589741731  0.5323917583346269
  0.7137116981880881  0.3119282481521949  0.9676132834710184
  0.7138989165276651  0.1880899777422194  0.4676804036552548
  0.2865406483035010  0.6881260627464586  0.0325059361396961
  0.2654453187655520  0.4367992011430685  0.4893953781475030
  0.7347951913089196  0.9368061779398702  0.0112112722735092
  0.7346918763015470  0.5632094987527686  0.5106741940280897
  0.2653450752985759  0.0632278214958946  0.9889658862671655
 
  0.00000000E+00  0.00000000E+00  0.00000000E+00
  0.00000000E+00  0.00000000E+00  0.00000000E+00
  0.00000000E+00  0.00000000E+00  0.00000000E+00
  0.00000000E+00  0.00000000E+00  0.00000000E+00
  0.00000000E+00  0.00000000E+00  0.00000000E+00
  0.00000000E+00  0.00000000E+00  0.00000000E+00
  0.00000000E+00  0.00000000E+00  0.00000000E+00
  0.00000000E+00  0.00000000E+00  0.00000000E+00
  0.00000000E+00  0.00000000E+00  0.00000000E+00
  0.00000000E+00  0.00000000E+00  0.00000000E+00
  0.00000000E+00  0.00000000E+00  0.00000000E+00
  0.00000000E+00  0.00000000E+00  0.00000000E+00
  0.00000000E+00  0.00000000E+00  0.00000000E+00
  0.00000000E+00  0.00000000E+00  0.00000000E+00
  0.00000000E+00  0.00000000E+00  0.00000000E+00
  0.00000000E+00  0.00000000E+00  0.00000000E+00
  0.00000000E+00  0.00000000E+00  0.00000000E+00
  0.00000000E+00  0.00000000E+00  0.00000000E+00
  0.00000000E+00  0.00000000E+00  0.00000000E+00
  0.00000000E+00  0.00000000E+00  0.00000000E+00
