Li6 Zn6 Ga6 P12                         
   1.00000000000000     
    -3.2998116374908268   -6.2639957955492793    0.5323263554839580
    -3.2971679783133672    6.2625394290909986    0.5314340144052595
     1.8258558467923258    0.0014123149223210  -13.5223376610441299
   Ga   Li   P    Zn
     6     6    12     6
Direct
  0.7919281447124871  0.4823797934568048  0.1995899468530601
  0.4828827233151401  0.7924378104505415  0.1998528497813496
  0.2080422515249746  0.5175571113798637  0.8003739407148528
  0.5170964989948867  0.2076052840730516  0.8001597194591118
  0.4340894827245956  0.4339517614408325  0.5830814688121887
  0.5659810806874037  0.5660579580785537  0.4169132924375633
  0.1313969261291422  0.4718246075414816  0.3511093588616560
  0.4695668339143524  0.1296385119926303  0.3507001683025584
  0.8688184009299129  0.5283844581148153  0.6489252483522364
  0.5303632541899030  0.8702978372908435  0.6492713432344029
  0.3629340639056444  0.3639170502130904  0.0636690985076620
  0.6371322597143414  0.6360975975592458  0.9363484589051435
  0.8422837362057382  0.5205763177269084  0.3760889600131723
  0.5235216792239553  0.8446210802046761  0.3767149998491288
  0.1577452423224658  0.4794062174890903  0.6238615196808338
  0.4765477206220914  0.1554161528745302  0.6232915981514168
  0.0845577210432042  0.4178763102600817  0.1526153263084292
  0.4170094400567844  0.0831440485627274  0.1512236654492667
  0.9154495084265962  0.5821383243747583  0.8473873502582410
  0.5828827582687590  0.9168485148604687  0.8488025744619466
  0.1896781177420720  0.1899566330662926  0.4011710082306373
  0.8103821940332688  0.8101048319507467  0.5988403247025406
  0.7538339568223202  0.7541053001478243  0.1258203192005311
  0.2460529331395124  0.2458235204296772  0.8741684476271703
  0.1123895006395778  0.1112515121121884  0.2169211894774320
  0.8874612550983736  0.8886631541332194  0.7830751535050066
  0.8797665222497201  0.1228888219591437  0.5009544840185967
  0.1201831725099132  0.8770632774671897  0.4990694726037245
  0.8426283703428435  0.1544382403315538  0.0016925686664369
  0.1573942505100478  0.8455279604571747 -0.0016938564263044
 
  0.00000000E+00  0.00000000E+00  0.00000000E+00
  0.00000000E+00  0.00000000E+00  0.00000000E+00
  0.00000000E+00  0.00000000E+00  0.00000000E+00
  0.00000000E+00  0.00000000E+00  0.00000000E+00
  0.00000000E+00  0.00000000E+00  0.00000000E+00
  0.00000000E+00  0.00000000E+00  0.00000000E+00
  0.00000000E+00  0.00000000E+00  0.00000000E+00
  0.00000000E+00  0.00000000E+00  0.00000000E+00
  0.00000000E+00  0.00000000E+00  0.00000000E+00
  0.00000000E+00  0.00000000E+00  0.00000000E+00
  0.00000000E+00  0.00000000E+00  0.00000000E+00
  0.00000000E+00  0.00000000E+00  0.00000000E+00
  0.00000000E+00  0.00000000E+00  0.00000000E+00
  0.00000000E+00  0.00000000E+00  0.00000000E+00
  0.00000000E+00  0.00000000E+00  0.00000000E+00
  0.00000000E+00  0.00000000E+00  0.00000000E+00
  0.00000000E+00  0.00000000E+00  0.00000000E+00
  0.00000000E+00  0.00000000E+00  0.00000000E+00
  0.00000000E+00  0.00000000E+00  0.00000000E+00
  0.00000000E+00  0.00000000E+00  0.00000000E+00
  0.00000000E+00  0.00000000E+00  0.00000000E+00
  0.00000000E+00  0.00000000E+00  0.00000000E+00
  0.00000000E+00  0.00000000E+00  0.00000000E+00
  0.00000000E+00  0.00000000E+00  0.00000000E+00
  0.00000000E+00  0.00000000E+00  0.00000000E+00
  0.00000000E+00  0.00000000E+00  0.00000000E+00
  0.00000000E+00  0.00000000E+00  0.00000000E+00
  0.00000000E+00  0.00000000E+00  0.00000000E+00
  0.00000000E+00  0.00000000E+00  0.00000000E+00
  0.00000000E+00  0.00000000E+00  0.00000000E+00
