Na8 P4 Ca2                              
   1.00000000000000     
     5.1384678890782851    0.0007235307672695   -0.0062633600659559
     0.0007191871896587    5.1390553967018491   -0.0011452167333768
    -2.5881545788856677   -2.5731641695734644   15.4202421899243589
   Na   P    Ca
     8     4     2
Direct
  0.4280210847273114  0.6776788830816470  0.8532306213969941
  0.6681983093784708  0.4255757938837804  0.3529234698394427
  0.5749830236374366  0.3306728201959745  0.1530629955668315
  0.3308685101856759  0.5748539930935523  0.6531255860842767
  0.9922322129975836  0.2284939963754635  0.9559037011826423
  0.2279090197550037  0.9911503492048057  0.4559443587840941
  0.0085364587851836  0.7702816463895120  0.0424721725866045
  0.7707662053521322  0.0079929405475054  0.5425105214949175
  0.6772646616829824  0.9263265316248631  0.3537507050292321
  0.9288133693748676  0.6773014370415310  0.8538248862071349
  0.3225684180518432  0.0698869708515074  0.6429845866373597
  0.0699592637334748  0.3208061721872886  0.1429469574414131
  0.1230193507019845  0.8743945327454971  0.2486173533075209
  0.8768601116360566  0.1245839327770643  0.7487020844415432
 
  0.00000000E+00  0.00000000E+00  0.00000000E+00
  0.00000000E+00  0.00000000E+00  0.00000000E+00
  0.00000000E+00  0.00000000E+00  0.00000000E+00
  0.00000000E+00  0.00000000E+00  0.00000000E+00
  0.00000000E+00  0.00000000E+00  0.00000000E+00
  0.00000000E+00  0.00000000E+00  0.00000000E+00
  0.00000000E+00  0.00000000E+00  0.00000000E+00
  0.00000000E+00  0.00000000E+00  0.00000000E+00
  0.00000000E+00  0.00000000E+00  0.00000000E+00
  0.00000000E+00  0.00000000E+00  0.00000000E+00
  0.00000000E+00  0.00000000E+00  0.00000000E+00
  0.00000000E+00  0.00000000E+00  0.00000000E+00
  0.00000000E+00  0.00000000E+00  0.00000000E+00
  0.00000000E+00  0.00000000E+00  0.00000000E+00
