Li6 Ca6 Al6 P12                         
   1.00000000000000     
    -3.4211959800265928   -6.1317595031982437    0.0444407031418945
    -3.4211960130587591    6.1317595199771695    0.0444406640235153
    -0.1480367040221615    0.0000000317175280  -14.1133511971468586
   Al   Li   P    Ca
     6     6    12     6
Direct
  0.8095839958504355  0.4855529562303478  0.1841582108276917
  0.4855529481981331  0.8095839818048198  0.1841582062073105
  0.1904160218996369  0.5144470532951954  0.8158418011876540
  0.5144470718534971  0.1904160369731828  0.8158417989950427
  0.3837836577415147  0.3837836622364906  0.5810969834479851
  0.6162162585857922  0.6162162469695528  0.4189030412364638
  0.1997675501709921  0.5272503992969395  0.3235920271666821
  0.5272504005923299  0.1997675277454214  0.3235920355885715
  0.8002323851733589  0.4727495178667295  0.6764079845982658
  0.4727495074112507  0.8002323876424382  0.6764079826690044
  0.3796107922191283  0.3796107838125118  0.0682495523172819
  0.6203893294332619  0.6203893385010745  0.9317504768271109
  0.8818007476825507  0.5656727087627593  0.3485144018472833
  0.5656727204172268  0.8818007330393447  0.3485143963204712
  0.1181990480161123  0.4343270438340318  0.6514856178349531
  0.4343270496183097  0.1181990578242830  0.6514856174455904
  0.1336770071216368  0.4822625566446612  0.1430819482098711
  0.4822625406691973  0.1336769914334635  0.1430819508043864
  0.8663230149649703  0.5177374546425840  0.8569180571987079
  0.5177374685400304  0.8663230325871456  0.8569180558500874
  0.2631874753600145  0.2631874768022429  0.4220912693629375
  0.7368124214650119  0.7368124371087547  0.5779087350611646
  0.7550548722014340  0.7550548733935557  0.1013853880434833
  0.2449450502576528  0.2449450529118205  0.8986146113635181
  0.0234466688657511  0.0234467130282191  0.2544776561495233
  0.9765535656821029  0.9765535256174844  0.7455222314400487
  0.8278402671172023  0.1721600891433237  0.4999999798711628
  0.1721601047129220  0.8278402745330742  0.4999999742806919
  0.8335438231627410  0.1664562408374183  0.0000000102316035
  0.1664562350158224  0.8335438454811293 -0.0000000023845632
 
  0.00000000E+00  0.00000000E+00  0.00000000E+00
  0.00000000E+00  0.00000000E+00  0.00000000E+00
  0.00000000E+00  0.00000000E+00  0.00000000E+00
  0.00000000E+00  0.00000000E+00  0.00000000E+00
  0.00000000E+00  0.00000000E+00  0.00000000E+00
  0.00000000E+00  0.00000000E+00  0.00000000E+00
  0.00000000E+00  0.00000000E+00  0.00000000E+00
  0.00000000E+00  0.00000000E+00  0.00000000E+00
  0.00000000E+00  0.00000000E+00  0.00000000E+00
  0.00000000E+00  0.00000000E+00  0.00000000E+00
  0.00000000E+00  0.00000000E+00  0.00000000E+00
  0.00000000E+00  0.00000000E+00  0.00000000E+00
  0.00000000E+00  0.00000000E+00  0.00000000E+00
  0.00000000E+00  0.00000000E+00  0.00000000E+00
  0.00000000E+00  0.00000000E+00  0.00000000E+00
  0.00000000E+00  0.00000000E+00  0.00000000E+00
  0.00000000E+00  0.00000000E+00  0.00000000E+00
  0.00000000E+00  0.00000000E+00  0.00000000E+00
  0.00000000E+00  0.00000000E+00  0.00000000E+00
  0.00000000E+00  0.00000000E+00  0.00000000E+00
  0.00000000E+00  0.00000000E+00  0.00000000E+00
  0.00000000E+00  0.00000000E+00  0.00000000E+00
  0.00000000E+00  0.00000000E+00  0.00000000E+00
  0.00000000E+00  0.00000000E+00  0.00000000E+00
  0.00000000E+00  0.00000000E+00  0.00000000E+00
  0.00000000E+00  0.00000000E+00  0.00000000E+00
  0.00000000E+00  0.00000000E+00  0.00000000E+00
  0.00000000E+00  0.00000000E+00  0.00000000E+00
  0.00000000E+00  0.00000000E+00  0.00000000E+00
  0.00000000E+00  0.00000000E+00  0.00000000E+00
