Sr4 Li4 In4 N8                          
   1.00000000000000     
     6.1007824185566619    0.0000001166971579   -0.0115783856088907
     0.0000001902138711    7.7089994648681053   -0.0000000670169425
     0.0189495343421772   -0.0000001121092169    6.4032484617146412
   Li   Sr   In   N 
     4     4     4     8
Direct
  0.3784852641431415  0.4515891709853221  0.8811800173174674
  0.6215171729374600  0.9515893977649733  0.6188188855770536
  0.6215172054439482  0.5484106375318231  0.1188188739004641
  0.3784853079414636  0.0484107980872385  0.3811799796834810
  0.0464295996130817  0.1343890703101068  0.7483419076700649
  0.9535713164288023  0.6343882078249228  0.7516570923528327
  0.9535712834129108  0.8656117817864517  0.2516570891898576
  0.0464295619940745  0.3656109225333632  0.2483419054317293
  0.6112934205255657  0.3438608337359771  0.5688180335613919
  0.3887064288786543  0.8438603195233143  0.9311822140823358
  0.3887064791332572  0.6561396406602596  0.4311821233257565
  0.6112934290778588  0.1561392220312557  0.0688179926361150
  0.2716221419910342  0.8790881053607691  0.5990336699494642
  0.7283750224862936  0.3790888800968075  0.9009669403911128
  0.7283750223357588  0.1209111454174595  0.4009669528581724
  0.2716221104497704  0.6209118805271884  0.0990336903480726
  0.2616807003880277  0.4134430541498322  0.5924098325993977
  0.7383189012536320  0.9134431535149804  0.9075915107565307
  0.7383189115449698  0.5865568304356487  0.4075914904737142
  0.2616807200203093  0.0865569477223130  0.0924097978949930
 
  0.00000000E+00  0.00000000E+00  0.00000000E+00
  0.00000000E+00  0.00000000E+00  0.00000000E+00
  0.00000000E+00  0.00000000E+00  0.00000000E+00
  0.00000000E+00  0.00000000E+00  0.00000000E+00
  0.00000000E+00  0.00000000E+00  0.00000000E+00
  0.00000000E+00  0.00000000E+00  0.00000000E+00
  0.00000000E+00  0.00000000E+00  0.00000000E+00
  0.00000000E+00  0.00000000E+00  0.00000000E+00
  0.00000000E+00  0.00000000E+00  0.00000000E+00
  0.00000000E+00  0.00000000E+00  0.00000000E+00
  0.00000000E+00  0.00000000E+00  0.00000000E+00
  0.00000000E+00  0.00000000E+00  0.00000000E+00
  0.00000000E+00  0.00000000E+00  0.00000000E+00
  0.00000000E+00  0.00000000E+00  0.00000000E+00
  0.00000000E+00  0.00000000E+00  0.00000000E+00
  0.00000000E+00  0.00000000E+00  0.00000000E+00
  0.00000000E+00  0.00000000E+00  0.00000000E+00
  0.00000000E+00  0.00000000E+00  0.00000000E+00
  0.00000000E+00  0.00000000E+00  0.00000000E+00
  0.00000000E+00  0.00000000E+00  0.00000000E+00
