Li6 Mg6 In6 P12                         
   1.00000000000000     
    -3.4388484673946831   -6.5422983130988799    0.3232524867138991
    -3.4382032963254328    6.5420319605301547    0.3244189752636188
     1.0006352509314660   -0.0011661201019136  -13.8809120047598604
   In   Li   P    Mg
     6     6    12     6
Direct
  0.8104159479169641  0.4832517269772303  0.1923738546885401
  0.4824968758023759  0.8107307341642518  0.1925967302270815
  0.1892807416172780  0.5179151273409329  0.8075145770432098
  0.5166065061469824  0.1895072741231297  0.8075909247663560
  0.4043741173397946  0.4045754430620824  0.5873544940200317
  0.5953325665112222  0.5954882190924650  0.4123449988175873
  0.1556052404155416  0.4856283843200999  0.3391712175443486
  0.4856900394498938  0.1558385960277365  0.3393211748669334
  0.8435640175457768  0.5137680863051326  0.6607946966144023
  0.5140187503420646  0.8441078818578389  0.6608440179765618
  0.3911188671128050  0.3912107177973972  0.0689659156452729
  0.6087389222554038  0.6092908022493994  0.9313221572181865
  0.8584247686130183  0.5085056889954029  0.3757998908032485
  0.5086692209085505  0.8591029583537025  0.3763075049251744
  0.1411459915431322  0.4916696856342092  0.6239716081788099
  0.4908482430868676  0.1411220603060206  0.6242071786594112
  0.1047505959325969  0.4227472509518964  0.1434909792733151
  0.4225568163476015  0.1051509804820111  0.1436783271019946
  0.8945782545201686  0.5774098887739693  0.8563975401870005
  0.5770695907427701  0.8953105039772991  0.8565234931307100
  0.1965813313686796  0.1963772050200061  0.4051581467423793
  0.8034501952172644  0.8029636722100533  0.5949023127690501
  0.7732448152286236  0.7735876116697410  0.1075204294189055
  0.2263112783009424  0.2268687433172249  0.8924705013184434
  0.1064847458550397  0.1065075803142876  0.2202172750454630
  0.8930542601910977  0.8937393037231546  0.7795907183717681
  0.8579399205232864  0.1426041246263295  0.5006157085010263
  0.1442178761128939  0.8556174335516035  0.4997542087794436
  0.8768424806635815  0.1260487177310302 -0.0008147174430543
  0.1265870223878027  0.8733535970443751  0.0000141348083774
 
  0.00000000E+00  0.00000000E+00  0.00000000E+00
  0.00000000E+00  0.00000000E+00  0.00000000E+00
  0.00000000E+00  0.00000000E+00  0.00000000E+00
  0.00000000E+00  0.00000000E+00  0.00000000E+00
  0.00000000E+00  0.00000000E+00  0.00000000E+00
  0.00000000E+00  0.00000000E+00  0.00000000E+00
  0.00000000E+00  0.00000000E+00  0.00000000E+00
  0.00000000E+00  0.00000000E+00  0.00000000E+00
  0.00000000E+00  0.00000000E+00  0.00000000E+00
  0.00000000E+00  0.00000000E+00  0.00000000E+00
  0.00000000E+00  0.00000000E+00  0.00000000E+00
  0.00000000E+00  0.00000000E+00  0.00000000E+00
  0.00000000E+00  0.00000000E+00  0.00000000E+00
  0.00000000E+00  0.00000000E+00  0.00000000E+00
  0.00000000E+00  0.00000000E+00  0.00000000E+00
  0.00000000E+00  0.00000000E+00  0.00000000E+00
  0.00000000E+00  0.00000000E+00  0.00000000E+00
  0.00000000E+00  0.00000000E+00  0.00000000E+00
  0.00000000E+00  0.00000000E+00  0.00000000E+00
  0.00000000E+00  0.00000000E+00  0.00000000E+00
  0.00000000E+00  0.00000000E+00  0.00000000E+00
  0.00000000E+00  0.00000000E+00  0.00000000E+00
  0.00000000E+00  0.00000000E+00  0.00000000E+00
  0.00000000E+00  0.00000000E+00  0.00000000E+00
  0.00000000E+00  0.00000000E+00  0.00000000E+00
  0.00000000E+00  0.00000000E+00  0.00000000E+00
  0.00000000E+00  0.00000000E+00  0.00000000E+00
  0.00000000E+00  0.00000000E+00  0.00000000E+00
  0.00000000E+00  0.00000000E+00  0.00000000E+00
  0.00000000E+00  0.00000000E+00  0.00000000E+00
