Na6 Ca6 In6 N12                         
   1.00000000000000     
    -3.0918223318019717   -5.9675171272579393    0.1469247825393172
    -3.0918293415017870    5.9675212144005689    0.1469435902882081
     0.3023070653905828   -0.0000200333141529  -12.8979396071819767
   In   Na   N    Ca
     6     6    12     6
Direct
  0.8245962268248174  0.5048520905499987  0.1706503198821871
  0.5048407545353956  0.8246100026960729  0.1706471083164064
  0.1753916444883898  0.4951527288385336  0.8293480513335308
  0.4951544298579311  0.1753888970042314  0.8293475095981470
  0.3911283682212239  0.3911267630327105  0.5921423673602532
  0.6088671766740872  0.6088661860164984  0.4078584987942607
  0.1738107224881858  0.5267395220091359  0.3201119871923476
  0.5267407720916915  0.1738139981135756  0.3201121882289015
  0.8261841295753155  0.4732595725656943  0.6798888601638904
  0.4732606869967452  0.8261846294061411  0.6798886823213751
  0.3540771715024340  0.3540897473808667  0.0708883618095940
  0.6459246295109724  0.6459112939498119  0.9291100433184866
  0.9012414603477287  0.6159188108643792  0.3432171211687985
  0.6159204928976096  0.9012430826112878  0.3432182806957841
  0.0987563474862574  0.3840815870314059  0.6567837508582878
  0.3840833838702807  0.0987549877406402  0.6567835955082061
  0.1371799201494552  0.5127290355410156  0.1255035658371978
  0.5127244557633156  0.1371796937268659  0.1255021942561887
  0.8628313571078620  0.4872834617595975  0.8744965615881405
  0.4872875915287532  0.8628277886835313  0.8744971149115399
  0.2502723180558846  0.2502717363412580  0.4237907411979049
  0.7497265118024644  0.7497254683245560  0.5762073998126797
  0.7980136971094652  0.7980158352718939  0.1055515925590888
  0.2019939136538232  0.2019909034271436  0.8944489828818848
  0.9966868733847476  0.9966861788290025  0.2692561853234935
  0.0033051570221988  0.0033020355628201  0.7307457641065199
  0.8586311227892254  0.1413636659974300  0.5000001979720331
  0.1413633977276592  0.8586282321546934  0.4999996379249922
  0.8369977098951213  0.1630001948880645  0.0000010503934215
  0.1630075766409663  0.8370018696811722  0.0000022846844646
 
  0.00000000E+00  0.00000000E+00  0.00000000E+00
  0.00000000E+00  0.00000000E+00  0.00000000E+00
  0.00000000E+00  0.00000000E+00  0.00000000E+00
  0.00000000E+00  0.00000000E+00  0.00000000E+00
  0.00000000E+00  0.00000000E+00  0.00000000E+00
  0.00000000E+00  0.00000000E+00  0.00000000E+00
  0.00000000E+00  0.00000000E+00  0.00000000E+00
  0.00000000E+00  0.00000000E+00  0.00000000E+00
  0.00000000E+00  0.00000000E+00  0.00000000E+00
  0.00000000E+00  0.00000000E+00  0.00000000E+00
  0.00000000E+00  0.00000000E+00  0.00000000E+00
  0.00000000E+00  0.00000000E+00  0.00000000E+00
  0.00000000E+00  0.00000000E+00  0.00000000E+00
  0.00000000E+00  0.00000000E+00  0.00000000E+00
  0.00000000E+00  0.00000000E+00  0.00000000E+00
  0.00000000E+00  0.00000000E+00  0.00000000E+00
  0.00000000E+00  0.00000000E+00  0.00000000E+00
  0.00000000E+00  0.00000000E+00  0.00000000E+00
  0.00000000E+00  0.00000000E+00  0.00000000E+00
  0.00000000E+00  0.00000000E+00  0.00000000E+00
  0.00000000E+00  0.00000000E+00  0.00000000E+00
  0.00000000E+00  0.00000000E+00  0.00000000E+00
  0.00000000E+00  0.00000000E+00  0.00000000E+00
  0.00000000E+00  0.00000000E+00  0.00000000E+00
  0.00000000E+00  0.00000000E+00  0.00000000E+00
  0.00000000E+00  0.00000000E+00  0.00000000E+00
  0.00000000E+00  0.00000000E+00  0.00000000E+00
  0.00000000E+00  0.00000000E+00  0.00000000E+00
  0.00000000E+00  0.00000000E+00  0.00000000E+00
  0.00000000E+00  0.00000000E+00  0.00000000E+00
