K8 P4 Sr2                               
   1.00000000000000     
     5.3741516379231005   -0.0139888077894756   -0.4558088324073853
    -0.0252364712140386    5.3908342281278019   -0.4692599273865870
    -4.0378886499732225   -3.9920880431800589   16.4847660563103950
   K    P    Sr
     8     4     2
Direct
  0.6206541834939709  0.1168674556226222  0.8710437190063555
  0.5107469708622476  0.5119831148582991  0.2600741708042992
  0.3793751921888723  0.8851009026266198  0.1291043437791722
  0.4890185767292688  0.4876924960573140  0.7399959896018377
  0.2495752439022832  0.2527783735646068  0.9997045714132622
  0.2634412465719184  0.2622525276270767  0.5130576186728080
  0.7504068306614692  0.7484769753399800  0.0002524415449872
  0.7371935859827233  0.7366502740507410  0.4869100433602365
  0.6098524580936936  0.1104659331097311  0.3593428709030711
  0.1181574037370336  0.6199277666770299  0.8684259582675689
  0.3900839707497966  0.8889255753786485  0.6406115534971727
  0.8817019802183799  0.3805033125798425  0.1315578099471566
  0.0241138550583499  0.0249669925984984  0.2735624735888548
  0.9756785017499713  0.9734082999089897  0.7263564356132390
 
  0.00000000E+00  0.00000000E+00  0.00000000E+00
  0.00000000E+00  0.00000000E+00  0.00000000E+00
  0.00000000E+00  0.00000000E+00  0.00000000E+00
  0.00000000E+00  0.00000000E+00  0.00000000E+00
  0.00000000E+00  0.00000000E+00  0.00000000E+00
  0.00000000E+00  0.00000000E+00  0.00000000E+00
  0.00000000E+00  0.00000000E+00  0.00000000E+00
  0.00000000E+00  0.00000000E+00  0.00000000E+00
  0.00000000E+00  0.00000000E+00  0.00000000E+00
  0.00000000E+00  0.00000000E+00  0.00000000E+00
  0.00000000E+00  0.00000000E+00  0.00000000E+00
  0.00000000E+00  0.00000000E+00  0.00000000E+00
  0.00000000E+00  0.00000000E+00  0.00000000E+00
  0.00000000E+00  0.00000000E+00  0.00000000E+00
