K12 Sr3 N6                              
   1.00000000000000     
     5.2085920742673633   -0.0001441014778956   -0.0000828103625316
    -2.6044209057296945    4.5107998286901614    0.0000843596663486
    -0.0003852200528093    0.0002305847473393   25.2244160041130741
   K    Sr   N 
    12     3     6
Direct
  0.0000006013787634  0.9999336733659731  0.7946584948071610
  0.0000270979871811  0.9999797991370604  0.2054308245888348
  0.6667882941577379  0.3331622249236751  0.1278751316589239
  0.6666758585543279  0.3333510938834846  0.5387935985882751
  0.3332241150687331  0.6667913213211377  0.4612235588929087
  0.3332022248962805  0.6668103757936712  0.8720178505614731
  0.0000170377110266  0.9999858493728105  0.5789038026155476
  0.9999919673083743  0.0000060113684987  0.4211004542329899
  0.6665837367116346  0.3334307202094443  0.9125086148118665
  0.6666730724039046  0.3333293062107049  0.7540420187067098
  0.3334147378359535  0.6665908474947988  0.2459874548142184
  0.3334284981053932  0.6665461281322336  0.0874912011297081
  0.9999768588184641  0.0000250943764469  0.0000532440366029
  0.6666634202552130  0.3333432736254119  0.3333397698437826
  0.3333572069596028  0.6666533196350687  0.6665904056388898
  0.9999210019772822  0.0000860706620553  0.9046141944343449
  0.0000252829268766  0.9999766070703304  0.0955251122473896
  0.6666930603930312  0.3333111042787755  0.2378575753241705
  0.6666426531759803  0.3333635264171002  0.4287832357636232
  0.3333552877685605  0.6666556788229284  0.5711559482768804
  0.3333379856056999  0.6666679738984111  0.7620475090257063
 
  0.00000000E+00  0.00000000E+00  0.00000000E+00
  0.00000000E+00  0.00000000E+00  0.00000000E+00
  0.00000000E+00  0.00000000E+00  0.00000000E+00
  0.00000000E+00  0.00000000E+00  0.00000000E+00
  0.00000000E+00  0.00000000E+00  0.00000000E+00
  0.00000000E+00  0.00000000E+00  0.00000000E+00
  0.00000000E+00  0.00000000E+00  0.00000000E+00
  0.00000000E+00  0.00000000E+00  0.00000000E+00
  0.00000000E+00  0.00000000E+00  0.00000000E+00
  0.00000000E+00  0.00000000E+00  0.00000000E+00
  0.00000000E+00  0.00000000E+00  0.00000000E+00
  0.00000000E+00  0.00000000E+00  0.00000000E+00
  0.00000000E+00  0.00000000E+00  0.00000000E+00
  0.00000000E+00  0.00000000E+00  0.00000000E+00
  0.00000000E+00  0.00000000E+00  0.00000000E+00
  0.00000000E+00  0.00000000E+00  0.00000000E+00
  0.00000000E+00  0.00000000E+00  0.00000000E+00
  0.00000000E+00  0.00000000E+00  0.00000000E+00
  0.00000000E+00  0.00000000E+00  0.00000000E+00
  0.00000000E+00  0.00000000E+00  0.00000000E+00
  0.00000000E+00  0.00000000E+00  0.00000000E+00
