K6 Al6 Zn6 P12                          
   1.00000000000000     
    -3.3144305579834601   -7.4896384926420110    0.4351206197905174
    -3.2858783225503525    7.4751041151382687    0.4041849016003404
     1.4041415288937837    0.0325230694687793  -14.2330605834142929
   Al   K    P    Zn
     6     6    12     6
Direct
  0.8568049760768175  0.5596315850461731  0.1844341452497998
  0.5589148850711371  0.8564553599796715  0.1843085550648655
  0.1431167321003829  0.4403027521675575  0.8155663398215741
  0.4411148183143099  0.1435018072921566  0.8156948231344535
  0.4022607039724710  0.4061015221245656  0.5853315921301946
  0.5977216120762047  0.5939189153255849  0.4146896578257042
  0.0594415588735361  0.3996886833615577  0.3151256938580814
  0.4001081237202085  0.0572578656598582  0.3132774252761685
  0.9405792347287822  0.6004333732662483  0.6848899280949250
  0.5997928499569741  0.9426976566581141  0.6866190053602533
  0.2685748533400756  0.2694080890750505  0.0900061391839655
  0.7313830184110691  0.7305328075286138  0.9099995615690150
  0.8718355354694139  0.6065611384324470  0.3606429153380147
  0.6079758825002711  0.8693591594376155  0.3600807339141143
  0.1281209930212700  0.3934533191311795  0.6393595800994533
  0.3920230937047101  0.1306818411311213  0.6399107769184204
  0.1561418484599897  0.5868843679239446  0.1282341422811539
  0.5869089141994122  0.1569684879236820  0.1278894306448775
  0.8438745900350126  0.4131210789957716  0.8717883128629418
  0.4130726711268086  0.8429587354181245  0.8720723261593262
  0.2432753177544687  0.2398822560477771  0.4224713795436725
  0.7567787395382188  0.7601548357907263  0.5775245034335525
  0.8049612463961250  0.8057840496755756  0.1388902492184696
  0.1950640028516337  0.1941742846971101  0.8611552001785560
  0.9023564490523256  0.9023328271798025  0.3076996547909314
  0.0976742359433238  0.0977116651252738  0.6923276479977712
  0.8862657356920079  0.1020913959776458  0.5020486307046463
  0.1137756026718567  0.8979272790108890  0.4979542703353253
  0.7633059207048983  0.2357199975306037  0.0000980037174114
  0.2367758542362976  0.7643028630855807 -0.0000906247076380
 
  0.00000000E+00  0.00000000E+00  0.00000000E+00
  0.00000000E+00  0.00000000E+00  0.00000000E+00
  0.00000000E+00  0.00000000E+00  0.00000000E+00
  0.00000000E+00  0.00000000E+00  0.00000000E+00
  0.00000000E+00  0.00000000E+00  0.00000000E+00
  0.00000000E+00  0.00000000E+00  0.00000000E+00
  0.00000000E+00  0.00000000E+00  0.00000000E+00
  0.00000000E+00  0.00000000E+00  0.00000000E+00
  0.00000000E+00  0.00000000E+00  0.00000000E+00
  0.00000000E+00  0.00000000E+00  0.00000000E+00
  0.00000000E+00  0.00000000E+00  0.00000000E+00
  0.00000000E+00  0.00000000E+00  0.00000000E+00
  0.00000000E+00  0.00000000E+00  0.00000000E+00
  0.00000000E+00  0.00000000E+00  0.00000000E+00
  0.00000000E+00  0.00000000E+00  0.00000000E+00
  0.00000000E+00  0.00000000E+00  0.00000000E+00
  0.00000000E+00  0.00000000E+00  0.00000000E+00
  0.00000000E+00  0.00000000E+00  0.00000000E+00
  0.00000000E+00  0.00000000E+00  0.00000000E+00
  0.00000000E+00  0.00000000E+00  0.00000000E+00
  0.00000000E+00  0.00000000E+00  0.00000000E+00
  0.00000000E+00  0.00000000E+00  0.00000000E+00
  0.00000000E+00  0.00000000E+00  0.00000000E+00
  0.00000000E+00  0.00000000E+00  0.00000000E+00
  0.00000000E+00  0.00000000E+00  0.00000000E+00
  0.00000000E+00  0.00000000E+00  0.00000000E+00
  0.00000000E+00  0.00000000E+00  0.00000000E+00
  0.00000000E+00  0.00000000E+00  0.00000000E+00
  0.00000000E+00  0.00000000E+00  0.00000000E+00
  0.00000000E+00  0.00000000E+00  0.00000000E+00
