Sr4 Li4 Al4 P8                          
   1.00000000000000     
     7.0558557292498385   -0.0000000829343892   -0.0166704916104958
    -0.0000001085235403    8.3747680013644352    0.0000000009794245
     0.0168999115518695   -0.0000000007949344    7.1152862922232325
   Li   Sr   Al   P 
     4     4     4     8
Direct
  0.3771588215492127  0.3846135742457791  0.9134104857575577
  0.6228411515301111  0.8846136049318898  0.5865894406326295
  0.6228411625651141  0.6153864000281404  0.0865894475016600
  0.3771588368877527  0.1153864124329974  0.4134104983365453
  0.0084531291374110  0.1240591044833218  0.7383115518401562
  0.9915467595695051  0.6240591713619196  0.7616886308382176
  0.9915467218149699  0.8759408365871508  0.2616886092425348
  0.0084531059770509  0.3759409247093092  0.2383115086323221
  0.6192592673743997  0.3679532018562868  0.5773543103613384
  0.3807407528963661  0.8679533135030659  0.9226456950773564
  0.3807407457615831  0.6320466937525843  0.4226456914228788
  0.6192592597841078  0.1320467691422607  0.0773542991678601
  0.2701793426162729  0.8609002090654996  0.5980459636976431
  0.7298207266602577  0.3609002269298747  0.9019540549271405
  0.7298207541007546  0.1390997478098239  0.4019540219335758
  0.2701793519185958  0.6390998087121870  0.0980459198430144
  0.2805555379447573  0.3878311475396605  0.5696472985876960
  0.7194445324479128  0.8878313415274773  0.9303525208252786
  0.7194445171975047  0.6121687011770275  0.4303526359115893
  0.2805555222663741  0.1121688102037366  0.0696474154630053
 
  0.00000000E+00  0.00000000E+00  0.00000000E+00
  0.00000000E+00  0.00000000E+00  0.00000000E+00
  0.00000000E+00  0.00000000E+00  0.00000000E+00
  0.00000000E+00  0.00000000E+00  0.00000000E+00
  0.00000000E+00  0.00000000E+00  0.00000000E+00
  0.00000000E+00  0.00000000E+00  0.00000000E+00
  0.00000000E+00  0.00000000E+00  0.00000000E+00
  0.00000000E+00  0.00000000E+00  0.00000000E+00
  0.00000000E+00  0.00000000E+00  0.00000000E+00
  0.00000000E+00  0.00000000E+00  0.00000000E+00
  0.00000000E+00  0.00000000E+00  0.00000000E+00
  0.00000000E+00  0.00000000E+00  0.00000000E+00
  0.00000000E+00  0.00000000E+00  0.00000000E+00
  0.00000000E+00  0.00000000E+00  0.00000000E+00
  0.00000000E+00  0.00000000E+00  0.00000000E+00
  0.00000000E+00  0.00000000E+00  0.00000000E+00
  0.00000000E+00  0.00000000E+00  0.00000000E+00
  0.00000000E+00  0.00000000E+00  0.00000000E+00
  0.00000000E+00  0.00000000E+00  0.00000000E+00
  0.00000000E+00  0.00000000E+00  0.00000000E+00
