 vasp.6.1.2 22Jul20 (build Apr 14 2021 21:39:43) complex                        
  
 executed on             LinuxIFC date 2024.07.04  23:39:49
 running on  128 total cores
 distrk:  each k-point on  128 cores,    1 groups
 distr:  one band on NCORE=  16 cores,    8 groups


--------------------------------------------------------------------------------------------------------


 INCAR:
 POTCAR:    PAW_PBE Li 17Jan2003                  
 POTCAR:    PAW_PBE Sr_sv 07Sep2000               
 POTCAR:    PAW_PBE Al 04Jan2001                  
 POTCAR:    PAW_PBE P 06Sep2000                   
 POTCAR:    PAW_PBE Li 17Jan2003                  
   SHA256 =  3d9d9bfd1dd25b20a3b919cb3191e6ef627605783dc2e149b9290ff31c32aa6e Li/POTCAR             
   COPYR  = (c) Copyright 17Jan2003 Georg Kresse                                                    
   COPYR  = This file is part of the software VASP. Any use, copying, and all other rights are regul
   COPYR  = If you do not have a valid VASP license, you may not use, copy or distribute this file. 
   VRHFIN =Li: s1p0                                                                                 
   LEXCH  = PE                                                                                      
   EATOM  =     5.3001 eV,    0.3895 Ry                                                             
                                                                                                    
   TITEL  = PAW_PBE Li 17Jan2003                                                                    
   LULTRA =        F    use ultrasoft PP ?                                                          
   IUNSCR =        1    unscreen: 0-lin 1-nonlin 2-no                                               
   RPACOR =    1.500    partial core radius                                                         
   POMASS =    7.010; ZVAL   =    1.000    mass and valenz                                          
   RCORE  =    2.050    outmost cutoff radius                                                       
   RWIGS  =    2.600; RWIGS  =    1.376    wigner-seitz radius (au A)                               
   ENMAX  =  140.000; ENMIN  =  100.000 eV                                                          
   ICORE  =        2    local potential                                                             
   LCOR   =        T    correct aug charges                                                         
   LPAW   =        T    paw PP                                                                      
   EAUG   =  331.638                                                                                
   DEXC   =    0.000                                                                                
   RMAX   =    2.098    core radius for proj-oper                                                   
   RAUG   =    1.300    factor for augmentation sphere                                              
   RDEP   =    2.094    radius for radial grids                                                     
   RDEPT  =    1.810    core radius for aug-charge                                                  
                                                                                                    
   Atomic configuration                                                                             
    4 entries                                                                                       
     n  l   j            E        occ.                                                              
     1  0  0.50       -51.8549   2.0000                                                             
     2  0  0.50        -2.8742   1.0000                                                             
     2  1  0.50        -1.3606   0.0000                                                             
     3  2  1.50        -1.3606   0.0000                                                             
   Description                                                                                      
     l       E           TYP  RCUT    TYP  RCUT                                                     
     0     -2.8742052     23  2.050                                                                 
     0     27.2116520     23  2.050                                                                 
     1     -1.3605826     23  2.050                                                                 
     2     -1.3605826     23  2.050                                                                 
  local pseudopotential read in
  partial core-charges read in
  partial kinetic energy density read in
  atomic valenz-charges read in
  non local Contribution for L=           0  read in
    real space projection operators read in
  non local Contribution for L=           0  read in
    real space projection operators read in
  non local Contribution for L=           1  read in
    real space projection operators read in
    PAW grid and wavefunctions read in
 
   number of l-projection  operators is LMAX  =           3
   number of lm-projection operators is LMMAX =           5
 
 POTCAR:    PAW_PBE Sr_sv 07Sep2000               
   SHA256 =  a8389d3481648516ee67182ee030b298d280b37e29cbbf2d8595f040d757c710 Sr_sv/POTCAR          
   COPYR  = (c) Copyright 07Sep2000 Georg Kresse                                                    
   COPYR  = This file is part of the software VASP. Any use, copying, and all other rights are regul
   COPYR  = If you do not have a valid VASP license, you may not use, copy or distribute this file. 
   VRHFIN =Sr: 4s4p5s                                                                               
   LEXCH  = PE                                                                                      
   EATOM  =   843.0319 eV,   61.9611 Ry                                                             
                                                                                                    
   TITEL  = PAW_PBE Sr_sv 07Sep2000                                                                 
   LULTRA =        F    use ultrasoft PP ?                                                          
   IUNSCR =        1    unscreen: 0-lin 1-nonlin 2-no                                               
   RPACOR =    2.200    partial core radius                                                         
   POMASS =   87.620; ZVAL   =   10.000    mass and valenz                                          
   RCORE  =    2.500    outmost cutoff radius                                                       
   RWIGS  =    4.040; RWIGS  =    2.138    wigner-seitz radius (au A)                               
   ENMAX  =  229.353; ENMIN  =  172.014 eV                                                          
   RCLOC  =    2.201    cutoff for local pot                                                        
   LCOR   =        T    correct aug charges                                                         
   LPAW   =        T    paw PP                                                                      
   EAUG   =  366.804                                                                                
   DEXC   =    0.000                                                                                
   RMAX   =    2.547    core radius for proj-oper                                                   
   RAUG   =    1.300    factor for augmentation sphere                                              
   RDEP   =    2.562    radius for radial grids                                                     
   RDEPT  =    2.128    core radius for aug-charge                                                  
                                                                                                    
   Atomic configuration                                                                             
   10 entries                                                                                       
     n  l   j            E        occ.                                                              
     1  0  0.50    -15934.8930   2.0000                                                             
     2  0  0.50     -2157.6250   2.0000                                                             
     2  1  1.50     -1917.0034   6.0000                                                             
     3  0  0.50      -333.7288   2.0000                                                             
     3  1  1.50      -256.0992   6.0000                                                             
     3  2  2.50      -127.9971  10.0000                                                             
     4  0  0.50       -40.8953   2.0000                                                             
     5  0  0.50        -3.5257   1.9990                                                             
     4  1  1.50       -22.8179   6.0000                                                             
     4  2  1.50        -1.2815   0.0010                                                             
   Description                                                                                      
     l       E           TYP  RCUT    TYP  RCUT                                                     
     0    -40.8953213     23  2.480                                                                 
     0     -3.5257161     23  2.480                                                                 
     1    -22.8178632     23  2.500                                                                 
     1    -24.1784458     23  2.500                                                                 
     2     -1.2814598     23  2.500                                                                 
     2      0.2279365     23  2.500                                                                 
  local pseudopotential read in
  partial core-charges read in
  partial kinetic energy density read in
  atomic valenz-charges read in
  non local Contribution for L=           0  read in
    real space projection operators read in
  non local Contribution for L=           0  read in
    real space projection operators read in
  non local Contribution for L=           1  read in
    real space projection operators read in
  non local Contribution for L=           1  read in
    real space projection operators read in
  non local Contribution for L=           2  read in
    real space projection operators read in
  non local Contribution for L=           2  read in
    real space projection operators read in
    PAW grid and wavefunctions read in
 
   number of l-projection  operators is LMAX  =           6
   number of lm-projection operators is LMMAX =          18
 
 POTCAR:    PAW_PBE Al 04Jan2001                  
   SHA256 =  17880443556af62b473fe41b62a467bd001ad55d2cabe504a3f22e34d4e9db96 Al/POTCAR             
   COPYR  = (c) Copyright 04Jan2001 Georg Kresse                                                    
   COPYR  = This file is part of the software VASP. Any use, copying, and all other rights are regul
   COPYR  = If you do not have a valid VASP license, you may not use, copy or distribute this file. 
   VRHFIN =Al: s2p1                                                                                 
   LEXCH  = PE                                                                                      
   EATOM  =    53.5387 eV,    3.9350 Ry                                                             
                                                                                                    
   TITEL  = PAW_PBE Al 04Jan2001                                                                    
   LULTRA =        F    use ultrasoft PP ?                                                          
   IUNSCR =        1    unscreen: 0-lin 1-nonlin 2-no                                               
   RPACOR =    1.500    partial core radius                                                         
   POMASS =   26.981; ZVAL   =    3.000    mass and valenz                                          
   RCORE  =    1.900    outmost cutoff radius                                                       
   RWIGS  =    2.650; RWIGS  =    1.402    wigner-seitz radius (au A)                               
   ENMAX  =  240.300; ENMIN  =  180.225 eV                                                          
   ICORE  =        2    local potential                                                             
   LCOR   =        T    correct aug charges                                                         
   LPAW   =        T    paw PP                                                                      
   EAUG   =  291.052                                                                                
   DEXC   =    0.000                                                                                
   RMAX   =    1.939    core radius for proj-oper                                                   
   RAUG   =    1.300    factor for augmentation sphere                                              
   RDEP   =    1.966    radius for radial grids                                                     
   RDEPT  =    1.856    core radius for aug-charge                                                  
                                                                                                    
   Atomic configuration                                                                             
    6 entries                                                                                       
     n  l   j            E        occ.                                                              
     1  0  0.50     -1511.1048   2.0000                                                             
     2  0  0.50      -108.1629   2.0000                                                             
     2  1  1.50       -69.6402   6.0000                                                             
     3  0  0.50        -7.7528   2.0000                                                             
     3  1  1.50        -2.7121   1.0000                                                             
     3  2  2.50        -2.7212   0.0000                                                             
   Description                                                                                      
     l       E           TYP  RCUT    TYP  RCUT                                                     
     0     -7.7528455     23  1.900                                                                 
     0     -3.3096929     23  1.900                                                                 
     1     -2.7120682     23  1.900                                                                 
     1     13.6058260     23  1.900                                                                 
     2     -2.7211652      7  1.900                                                                 
  local pseudopotential read in
  partial core-charges read in
  partial kinetic energy density read in
  atomic valenz-charges read in
  non local Contribution for L=           0  read in
    real space projection operators read in
  non local Contribution for L=           0  read in
    real space projection operators read in
  non local Contribution for L=           1  read in
    real space projection operators read in
  non local Contribution for L=           1  read in
    real space projection operators read in
    PAW grid and wavefunctions read in
 
   number of l-projection  operators is LMAX  =           4
   number of lm-projection operators is LMMAX =           8
 
 POTCAR:    PAW_PBE P 06Sep2000                   
   SHA256 =  df60c54a93efe35c9e85ae94c010c75e9f6960a95d5595d7cdba4096d109af88 P/POTCAR              
   COPYR  = (c) Copyright 06Sep2000 Georg Kresse                                                    
   COPYR  = This file is part of the software VASP. Any use, copying, and all other rights are regul
   COPYR  = If you do not have a valid VASP license, you may not use, copy or distribute this file. 
   VRHFIN =P : s2p3                                                                                 
   LEXCH  = PE                                                                                      
   EATOM  =   176.0430 eV,   12.9388 Ry                                                             
                                                                                                    
   TITEL  = PAW_PBE P 06Sep2000                                                                     
   LULTRA =        F    use ultrasoft PP ?                                                          
   IUNSCR =        1    unscreen: 0-lin 1-nonlin 2-no                                               
   RPACOR =    1.500    partial core radius                                                         
   POMASS =   30.974; ZVAL   =    5.000    mass and valenz                                          
   RCORE  =    1.900    outmost cutoff radius                                                       
   RWIGS  =    2.330; RWIGS  =    1.233    wigner-seitz radius (au A)                               
   ENMAX  =  255.040; ENMIN  =  191.280 eV                                                          
   ICORE  =        2    local potential                                                             
   LCOR   =        T    correct aug charges                                                         
   LPAW   =        T    paw PP                                                                      
   EAUG   =  342.924                                                                                
   DEXC   =    0.000                                                                                
   RMAX   =    1.935    core radius for proj-oper                                                   
   RAUG   =    1.300    factor for augmentation sphere                                              
   RDEP   =    1.931    radius for radial grids                                                     
   RDEPT  =    1.794    core radius for aug-charge                                                  
                                                                                                    
   Atomic configuration                                                                             
    6 entries                                                                                       
     n  l   j            E        occ.                                                              
     1  0  0.50     -2084.0982   2.0000                                                             
     2  0  0.50      -173.9859   2.0000                                                             
     2  1  1.50      -124.4865   6.0000                                                             
     3  0  0.50       -13.9692   2.0000                                                             
     3  1  0.50        -5.5067   3.0000                                                             
     3  2  1.50        -5.4423   0.0000                                                             
   Description                                                                                      
     l       E           TYP  RCUT    TYP  RCUT                                                     
     0    -13.9691527     23  1.900                                                                 
     0    -11.7794650     23  1.900                                                                 
     1     -5.5066937     23  1.900                                                                 
     1     -0.2556953     23  1.900                                                                 
     2     -5.4423304     23  1.900                                                                 
  local pseudopotential read in
  partial core-charges read in
  partial kinetic energy density read in
  atomic valenz-charges read in
  non local Contribution for L=           0  read in
    real space projection operators read in
  non local Contribution for L=           0  read in
    real space projection operators read in
  non local Contribution for L=           1  read in
    real space projection operators read in
  non local Contribution for L=           1  read in
    real space projection operators read in
    PAW grid and wavefunctions read in
 
   number of l-projection  operators is LMAX  =           4
   number of lm-projection operators is LMMAX =           8
 
 Optimization of the real space projectors (new method)

 maximal supplied QI-value         = 18.33
 optimisation between [QCUT,QGAM] = [ 11.55, 23.28] = [ 37.34,151.76] Ry 
 Optimized for a Real-space Cutoff    1.14 Angstroem

   l    n(q)    QCUT    max X(q) W(low)/X(q) W(high)/X(q)  e(spline) 
   0      8    11.548    33.825    0.19E-03    0.87E-04    0.75E-07
   0      8    11.548     8.944    0.15E-03    0.55E-04    0.54E-07
   1      7    11.548     4.214    0.21E-03    0.27E-03    0.42E-07
 Optimization of the real space projectors (new method)

 maximal supplied QI-value         = 15.12
 optimisation between [QCUT,QGAM] = [ 11.64, 23.28] = [ 37.95,151.78] Ry 
 Optimized for a Real-space Cutoff    1.58 Angstroem

   l    n(q)    QCUT    max X(q) W(low)/X(q) W(high)/X(q)  e(spline) 
   0     11    11.641    11.565    0.25E-04    0.45E-05    0.87E-07
   0     11    11.641    10.214    0.38E-04    0.85E-05    0.18E-06
   1     11    11.641   189.983    0.18E-03    0.75E-04    0.37E-06
   1     11    11.641   193.105    0.18E-03    0.75E-04    0.37E-06
   2     10    11.641   115.941    0.51E-04    0.22E-03    0.56E-06
   2     10    11.641    76.444    0.49E-04    0.21E-03    0.55E-06
 Optimization of the real space projectors (new method)

 maximal supplied QI-value         = 19.84
 optimisation between [QCUT,QGAM] = [ 11.51, 23.22] = [ 37.09,150.92] Ry 
 Optimized for a Real-space Cutoff    1.18 Angstroem

   l    n(q)    QCUT    max X(q) W(low)/X(q) W(high)/X(q)  e(spline) 
   0      8    11.508   176.870    0.11E-03    0.16E-03    0.40E-07
   0      8    11.508   105.762    0.11E-03    0.16E-03    0.39E-07
   1      8    11.508    55.370    0.23E-03    0.10E-03    0.75E-07
   1      8    11.508    20.208    0.21E-03    0.91E-04    0.68E-07
 Optimization of the real space projectors (new method)

 maximal supplied QI-value         = 19.84
 optimisation between [QCUT,QGAM] = [ 11.51, 23.22] = [ 37.09,150.92] Ry 
 Optimized for a Real-space Cutoff    1.21 Angstroem

   l    n(q)    QCUT    max X(q) W(low)/X(q) W(high)/X(q)  e(spline) 
   0      8    11.508   160.924    0.96E-04    0.17E-03    0.52E-07
   0      8    11.508   130.086    0.95E-04    0.17E-03    0.51E-07
   1      8    11.508    74.434    0.16E-03    0.74E-04    0.91E-07
   1      8    11.508    49.120    0.16E-03    0.71E-04    0.89E-07
  PAW_PBE Li 17Jan2003                  :
 energy of atom  1       EATOM=   -5.3001
 kinetic energy error for atom=    0.0000 (will be added to EATOM!!)
  PAW_PBE Sr_sv 07Sep2000               :
 energy of atom  2       EATOM= -843.0319
 kinetic energy error for atom=    0.0010 (will be added to EATOM!!)
  PAW_PBE Al 04Jan2001                  :
 energy of atom  3       EATOM=  -53.5387
 kinetic energy error for atom=    0.0002 (will be added to EATOM!!)
  PAW_PBE P 06Sep2000                   :
 energy of atom  4       EATOM= -176.0430
 kinetic energy error for atom=    0.0011 (will be added to EATOM!!)
 
 
 POSCAR: Sr4 Li4 Al4 P8
  positions in direct lattice
  velocities in cartesian coordinates

 METAGGA = SCAN     LMAXTAU =  6    LMIXTAU =  F

 exchange correlation table for  LEXCH =        8
   RHO(1)=    0.500       N(1)  =     2000
   RHO(2)=  100.500       N(2)  =     4000
 


--------------------------------------------------------------------------------------------------------


 ion  position               nearest neighbor table
   1  0.377  0.385  0.913-  14 2.50  17 2.54  16 2.62  20 2.63   3 2.87   9 2.94  12 2.96   8 3.48
                             6 3.55   5 3.62
   2  0.623  0.885  0.587-  13 2.50  18 2.54  15 2.62  19 2.63   4 2.87  10 2.94  11 2.96   7 3.48
                             5 3.55   6 3.62
   3  0.623  0.615  0.087-  16 2.50  19 2.54  14 2.62  18 2.63   1 2.87  11 2.94  10 2.96   6 3.48
                             8 3.55   7 3.62
   4  0.377  0.115  0.413-  15 2.50  20 2.54  13 2.62  17 2.63   2 2.87  12 2.94   9 2.96   5 3.48
                             7 3.55   8 3.62
   5  0.008  0.124  0.738-  14 3.02  20 3.04  13 3.04  15 3.10  18 3.15  17 3.16   4 3.48   2 3.55
                             9 3.61   1 3.62  10 3.64  12 3.65   7 3.98   8 4.14   8 4.14   6 4.19
   6  0.992  0.624  0.762-  13 3.02  19 3.04  14 3.04  16 3.10  17 3.15  18 3.16   3 3.48   1 3.55
                            10 3.61   2 3.62   9 3.64  11 3.65   8 3.98   7 4.14   7 4.14   5 4.19
   7  0.992  0.876  0.262-  16 3.02  18 3.04  15 3.04  13 3.10  20 3.15  19 3.16   2 3.48   4 3.55
                            11 3.61   3 3.62  12 3.64  10 3.65   5 3.98   6 4.14   6 4.14   8 4.19
   8  0.008  0.376  0.238-  15 3.02  17 3.04  16 3.04  14 3.10  19 3.15  20 3.16   1 3.48   3 3.55
                            12 3.61   4 3.62  11 3.64   9 3.65   6 3.98   5 4.14   5 4.14   7 4.19
   9  0.619  0.368  0.577-  17 2.40  19 2.40  15 2.42  14 2.44   1 2.94   4 2.96  11 2.99   5 3.61
                             6 3.64   8 3.65
  10  0.381  0.868  0.923-  18 2.40  20 2.40  16 2.42  13 2.44   2 2.94   3 2.96  12 2.99   6 3.61
                             5 3.64   7 3.65
  11  0.381  0.632  0.423-  19 2.40  17 2.40  13 2.42  16 2.44   3 2.94   2 2.96   9 2.99   7 3.61
                             8 3.64   6 3.65
  12  0.619  0.132  0.077-  20 2.40  18 2.40  14 2.42  15 2.44   4 2.94   1 2.96  10 2.99   8 3.61
                             7 3.64   5 3.65
  13  0.270  0.861  0.598-  11 2.42  10 2.44   2 2.50   4 2.62   6 3.02   5 3.04   7 3.10
  14  0.730  0.361  0.902-  12 2.42   9 2.44   1 2.50   3 2.62   5 3.02   6 3.04   8 3.10
  15  0.730  0.139  0.402-   9 2.42  12 2.44   4 2.50   2 2.62   8 3.02   7 3.04   5 3.10
  16  0.270  0.639  0.098-  10 2.42  11 2.44   3 2.50   1 2.62   7 3.02   8 3.04   6 3.10
  17  0.280  0.388  0.570-   9 2.40  11 2.40   1 2.54   4 2.63   8 3.04   6 3.15   5 3.16
  18  0.720  0.888  0.930-  10 2.40  12 2.40   2 2.54   3 2.63   7 3.04   5 3.15   6 3.16
  19  0.720  0.612  0.430-  11 2.40   9 2.40   3 2.54   2 2.63   6 3.04   8 3.15   7 3.16
  20  0.280  0.112  0.070-  12 2.40  10 2.40   4 2.54   1 2.63   5 3.04   7 3.15   8 3.16
 

IMPORTANT INFORMATION: All symmetrisations will be switched off!
NOSYMM: (Re-)initialisation of all symmetry stuff for point group C_1.


----------------------------------------------------------------------------------------

                                     Primitive cell                                     

  volume of cell :     420.2220

  direct lattice vectors                    reciprocal lattice vectors
     7.053921312 -0.000000045 -0.016440316     0.141764325  0.000000001 -0.000341190
    -0.000000064  8.373722446 -0.000000130     0.000000001  0.119421202  0.000000002
     0.017122091 -0.000000113  7.114218564     0.000327605  0.000000002  0.140562787

  length of vectors
     7.053940471  8.373722446  7.114239168     0.141764735  0.119421202  0.140563169

  position of ions in fractional coordinates (direct lattice)
     0.377188016  0.384621507  0.913346967
     0.622811946  0.884621532  0.586652962
     0.622811957  0.615378473  0.086652974
     0.377188030  0.115378492  0.413346973
     0.008431263  0.124072419  0.738284916
     0.991568655  0.624072483  0.761715241
     0.991568606  0.875927508  0.261715226
     0.008431220  0.375927594  0.238284912
     0.619255760  0.367984183  0.577340671
     0.380744261  0.867984304  0.922659318
     0.380744249  0.632015723  0.422659323
     0.619255747  0.132015787  0.077340674
     0.270210862  0.860884352  0.598116084
     0.729789231  0.360884371  0.901883906
     0.729789233  0.139115611  0.401883895
     0.270210870  0.639115664  0.098116076
     0.280498870  0.387855167  0.569619652
     0.719501230  0.887855347  0.930380125
     0.719501178  0.612144690  0.430380292
     0.280498816  0.112144794  0.069619813

  ion indices of the primitive-cell ions
   primitive index   ion index
                 1           1
                 2           2
                 3           3
                 4           4
                 5           5
                 6           6
                 7           7
                 8           8
                 9           9
                10          10
                11          11
                12          12
                13          13
                14          14
                15          15
                16          16
                17          17
                18          18
                19          19
                20          20

----------------------------------------------------------------------------------------

 
 
 KPOINTS: Regular k-point mesh                    

Automatic generation of k-mesh.
Space group operators:
 irot       det(A)        alpha          n_x          n_y          n_z        tau_x        tau_y        tau_z
    1     1.000000     0.000000     1.000000     0.000000     0.000000     0.000000     0.000000     0.000000
 
 Subroutine IBZKPT returns following result:
 ===========================================
 
 Found     92 irreducible k-points:
 
 Following reciprocal coordinates:
            Coordinates               Weight
  0.000000  0.000000  0.000000      1.000000
  0.166667 -0.000000 -0.000000      2.000000
  0.333333 -0.000000 -0.000000      2.000000
  0.500000 -0.000000  0.000000      1.000000
 -0.000000  0.200000 -0.000000      2.000000
  0.166667  0.200000 -0.000000      2.000000
 -0.166667  0.200000 -0.000000      2.000000
  0.333333  0.200000  0.000000      2.000000
 -0.333333  0.200000 -0.000000      2.000000
  0.500000  0.200000 -0.000000      2.000000
 -0.000000  0.400000 -0.000000      2.000000
  0.166667  0.400000  0.000000      2.000000
 -0.166667  0.400000  0.000000      2.000000
  0.333333  0.400000  0.000000      2.000000
 -0.333333  0.400000  0.000000      2.000000
  0.500000  0.400000  0.000000      2.000000
 -0.000000 -0.000000  0.166667      2.000000
  0.166667 -0.000000  0.166667      2.000000
  0.333333  0.000000  0.166667      2.000000
  0.500000 -0.000000  0.166667      2.000000
 -0.333333  0.000000  0.166667      2.000000
 -0.166667  0.000000  0.166667      2.000000
 -0.000000  0.200000  0.166667      2.000000
  0.000000  0.200000 -0.166667      2.000000
  0.166667  0.200000  0.166667      2.000000
 -0.166667  0.200000 -0.166667      2.000000
  0.333333  0.200000  0.166667      2.000000
 -0.333333  0.200000 -0.166667      2.000000
  0.500000  0.200000  0.166667      2.000000
  0.500000  0.200000 -0.166667      2.000000
 -0.333333  0.200000  0.166667      2.000000
  0.333333  0.200000 -0.166667      2.000000
 -0.166667  0.200000  0.166667      2.000000
  0.166667  0.200000 -0.166667      2.000000
 -0.000000  0.400000  0.166667      2.000000
  0.000000  0.400000 -0.166667      2.000000
  0.166667  0.400000  0.166667      2.000000
 -0.166667  0.400000 -0.166667      2.000000
  0.333333  0.400000  0.166667      2.000000
 -0.333333  0.400000 -0.166667      2.000000
  0.500000  0.400000  0.166667      2.000000
  0.500000  0.400000 -0.166667      2.000000
 -0.333333  0.400000  0.166667      2.000000
  0.333333  0.400000 -0.166667      2.000000
 -0.166667  0.400000  0.166667      2.000000
  0.166667  0.400000 -0.166667      2.000000
 -0.000000  0.000000  0.333333      2.000000
  0.166667 -0.000000  0.333333      2.000000
  0.333333  0.000000  0.333333      2.000000
  0.500000 -0.000000  0.333333      2.000000
 -0.333333  0.000000  0.333333      2.000000
 -0.166667  0.000000  0.333333      2.000000
 -0.000000  0.200000  0.333333      2.000000
  0.000000  0.200000 -0.333333      2.000000
  0.166667  0.200000  0.333333      2.000000
 -0.166667  0.200000 -0.333333      2.000000
  0.333333  0.200000  0.333333      2.000000
 -0.333333  0.200000 -0.333333      2.000000
  0.500000  0.200000  0.333333      2.000000
  0.500000  0.200000 -0.333333      2.000000
 -0.333333  0.200000  0.333333      2.000000
  0.333333  0.200000 -0.333333      2.000000
 -0.166667  0.200000  0.333333      2.000000
  0.166667  0.200000 -0.333333      2.000000
 -0.000000  0.400000  0.333333      2.000000
  0.000000  0.400000 -0.333333      2.000000
  0.166667  0.400000  0.333333      2.000000
 -0.166667  0.400000 -0.333333      2.000000
  0.333333  0.400000  0.333333      2.000000
 -0.333333  0.400000 -0.333333      2.000000
  0.500000  0.400000  0.333333      2.000000
  0.500000  0.400000 -0.333333      2.000000
 -0.333333  0.400000  0.333333      2.000000
  0.333333  0.400000 -0.333333      2.000000
 -0.166667  0.400000  0.333333      2.000000
  0.166667  0.400000 -0.333333      2.000000
 -0.000000  0.000000  0.500000      1.000000
  0.166667 -0.000000  0.500000      2.000000
  0.333333  0.000000  0.500000      2.000000
  0.500000 -0.000000  0.500000      1.000000
 -0.000000  0.200000  0.500000      2.000000
  0.166667  0.200000  0.500000      2.000000
 -0.166667  0.200000  0.500000      2.000000
  0.333333  0.200000  0.500000      2.000000
 -0.333333  0.200000  0.500000      2.000000
  0.500000  0.200000  0.500000      2.000000
 -0.000000  0.400000  0.500000      2.000000
  0.166667  0.400000  0.500000      2.000000
 -0.166667  0.400000  0.500000      2.000000
  0.333333  0.400000  0.500000      2.000000
 -0.333333  0.400000  0.500000      2.000000
  0.500000  0.400000  0.500000      2.000000
 
 Following cartesian coordinates:
            Coordinates               Weight
  0.000000  0.000000  0.000000      1.000000
  0.023627  0.000000 -0.000057      2.000000
  0.047255  0.000000 -0.000114      2.000000
  0.070882  0.000000 -0.000171      1.000000
  0.000000  0.023884  0.000000      2.000000
  0.023627  0.023884 -0.000057      2.000000
 -0.023627  0.023884  0.000057      2.000000
  0.047255  0.023884 -0.000114      2.000000
 -0.047255  0.023884  0.000114      2.000000
  0.070882  0.023884 -0.000171      2.000000
  0.000000  0.047768  0.000000      2.000000
  0.023627  0.047768 -0.000057      2.000000
 -0.023627  0.047768  0.000057      2.000000
  0.047255  0.047768 -0.000114      2.000000
 -0.047255  0.047768  0.000114      2.000000
  0.070882  0.047768 -0.000171      2.000000
  0.000055  0.000000  0.023427      2.000000
  0.023682  0.000000  0.023370      2.000000
  0.047309  0.000000  0.023313      2.000000
  0.070937  0.000000  0.023257      2.000000
 -0.047200  0.000000  0.023541      2.000000
 -0.023573  0.000000  0.023484      2.000000
  0.000055  0.023884  0.023427      2.000000
 -0.000055  0.023884 -0.023427      2.000000
  0.023682  0.023884  0.023370      2.000000
 -0.023682  0.023884 -0.023370      2.000000
  0.047309  0.023884  0.023313      2.000000
 -0.047309  0.023884 -0.023313      2.000000
  0.070937  0.023884  0.023257      2.000000
  0.070828  0.023884 -0.023598      2.000000
 -0.047200  0.023884  0.023541      2.000000
  0.047200  0.023884 -0.023541      2.000000
 -0.023573  0.023884  0.023484      2.000000
  0.023573  0.023884 -0.023484      2.000000
  0.000055  0.047768  0.023427      2.000000
 -0.000055  0.047768 -0.023427      2.000000
  0.023682  0.047768  0.023370      2.000000
 -0.023682  0.047768 -0.023370      2.000000
  0.047309  0.047768  0.023313      2.000000
 -0.047309  0.047768 -0.023313      2.000000
  0.070937  0.047768  0.023257      2.000000
  0.070828  0.047768 -0.023598      2.000000
 -0.047200  0.047768  0.023541      2.000000
  0.047200  0.047768 -0.023541      2.000000
 -0.023573  0.047768  0.023484      2.000000
  0.023573  0.047768 -0.023484      2.000000
  0.000109  0.000000  0.046854      2.000000
  0.023737  0.000000  0.046797      2.000000
  0.047364  0.000000  0.046741      2.000000
  0.070991  0.000000  0.046684      2.000000
 -0.047146  0.000000  0.046968      2.000000
 -0.023518  0.000000  0.046911      2.000000
  0.000109  0.023884  0.046854      2.000000
 -0.000109  0.023884 -0.046854      2.000000
  0.023737  0.023884  0.046797      2.000000
 -0.023737  0.023884 -0.046797      2.000000
  0.047364  0.023884  0.046741      2.000000
 -0.047364  0.023884 -0.046741      2.000000
  0.070991  0.023884  0.046684      2.000000
  0.070773  0.023884 -0.047025      2.000000
 -0.047146  0.023884  0.046968      2.000000
  0.047146  0.023884 -0.046968      2.000000
 -0.023518  0.023884  0.046911      2.000000
  0.023518  0.023884 -0.046911      2.000000
  0.000109  0.047768  0.046854      2.000000
 -0.000109  0.047768 -0.046854      2.000000
  0.023737  0.047768  0.046797      2.000000
 -0.023737  0.047768 -0.046797      2.000000
  0.047364  0.047768  0.046741      2.000000
 -0.047364  0.047768 -0.046741      2.000000
  0.070991  0.047768  0.046684      2.000000
  0.070773  0.047768 -0.047025      2.000000
 -0.047146  0.047768  0.046968      2.000000
  0.047146  0.047768 -0.046968      2.000000
 -0.023518  0.047768  0.046911      2.000000
  0.023518  0.047768 -0.046911      2.000000
  0.000164  0.000000  0.070281      1.000000
  0.023791  0.000000  0.070225      2.000000
  0.047419  0.000000  0.070168      2.000000
  0.071046  0.000000  0.070111      1.000000
  0.000164  0.023884  0.070281      2.000000
  0.023791  0.023884  0.070225      2.000000
 -0.023464  0.023884  0.070338      2.000000
  0.047419  0.023884  0.070168      2.000000
 -0.047091  0.023884  0.070395      2.000000
  0.071046  0.023884  0.070111      2.000000
  0.000164  0.047768  0.070281      2.000000
  0.023791  0.047768  0.070225      2.000000
 -0.023464  0.047768  0.070338      2.000000
  0.047419  0.047768  0.070168      2.000000
 -0.047091  0.047768  0.070395      2.000000
  0.071046  0.047768  0.070111      2.000000
 


--------------------------------------------------------------------------------------------------------




 Dimension of arrays:
   k-points           NKPTS =     92   k-points in BZ     NKDIM =     92   number of bands    NBANDS=     64
   number of dos      NEDOS =    301   number of ions     NIONS =     20
   non local maximal  LDIM  =      6   non local SUM 2l+1 LMDIM =     18
   total plane-waves  NPLWV = 186624
   max r-space proj   IRMAX =   7385   max aug-charges    IRDMAX=  26237
   dimension x,y,z NGX =    54 NGY =   64 NGZ =   54
   dimension x,y,z NGXF=   108 NGYF=  128 NGZF=  108
   support grid    NGXF=   108 NGYF=  128 NGZF=  108
   ions per type =               4   4   4   8
   NGX,Y,Z   is equivalent  to a cutoff of  12.73, 12.71, 12.62 a.u.
   NGXF,Y,Z  is equivalent  to a cutoff of  25.45, 25.41, 25.24 a.u.

 SYSTEM =  unknown system                          
 POSCAR =  Sr4 Li4 Al4 P8                          

 Startparameter for this run:
   NWRITE =      2    write-flag & timer
   PREC   = accura    normal or accurate (medium, high low for compatibility)
   ISTART =      0    job   : 0-new  1-cont  2-samecut
   ICHARG =      1    charge: 1-file 2-atom 10-const
   ISPIN  =      2    spin polarized calculation?
   LNONCOLLINEAR =      F non collinear calculations
   LSORBIT =      F    spin-orbit coupling
   INIWAV =      1    electr: 0-lowe 1-rand  2-diag
   LASPH  =      T    aspherical Exc in radial PAW
   METAGGA=      F    non-selfconsistent MetaGGA calc.

 Electronic Relaxation 1
   ENCUT  =  520.0 eV  38.22 Ry    6.18 a.u.  13.12 15.57 13.23*2*pi/ulx,y,z
   ENINI  =  520.0     initial cutoff
   ENAUG  =  366.8 eV  augmentation charge cutoff
   NELM   =    100;   NELMIN=  6; NELMDL= -5     # of ELM steps 
   EDIFF  = 0.1E-04   stopping-criterion for ELM
   LREAL  =      T    real-space projection
   NLSPLINE    = F    spline interpolate recip. space projectors
   LCOMPAT=      F    compatible to vasp.4.4
   GGA_COMPAT  = T    GGA compatible to vasp.4.4-vasp.4.6
   LMAXPAW     = -100 max onsite density
   LMAXMIX     =    2 max onsite mixed and CHGCAR
   VOSKOWN=      0    Vosko Wilk Nusair interpolation
   ROPT   =   -0.00025  -0.00025  -0.00025  -0.00025
 Ionic relaxation
   EDIFFG = -.1E-01   stopping-criterion for IOM
   NSW    =     99    number of steps for IOM
   NBLOCK =      1;   KBLOCK =     99    inner block; outer block 
   IBRION =      2    ionic relax: 0-MD 1-quasi-New 2-CG
   NFREE  =      1    steps in history (QN), initial steepest desc. (CG)
   ISIF   =      3    stress and relaxation
   IWAVPR =     11    prediction:  0-non 1-charg 2-wave 3-comb
   ISYM   =      0    0-nonsym 1-usesym 2-fastsym
   LCORR  =      T    Harris-Foulkes like correction to forces

   POTIM  = 0.5000    time-step for ionic-motion
   TEIN   =    0.0    initial temperature
   TEBEG  =    0.0;   TEEND  =   0.0 temperature during run
   SMASS  =  -3.00    Nose mass-parameter (am)
   estimated Nose-frequenzy (Omega)   =  0.10E-29 period in steps = 0.13E+47 mass=  -0.114E-26a.u.
   SCALEE = 1.0000    scale energy and forces
   NPACO  =    256;   APACO  = 16.0  distance and # of slots for P.C.
   PSTRESS=    0.0 pullay stress

  Mass of Ions in am
   POMASS =   7.01 87.62 26.98 30.97
  Ionic Valenz
   ZVAL   =   1.00 10.00  3.00  5.00
  Atomic Wigner-Seitz radii
   RWIGS  =  -1.00 -1.00 -1.00 -1.00
  virtual crystal weights 
   VCA    =   1.00  1.00  1.00  1.00
   NELECT =      96.0000    total number of electrons
   NUPDOWN=      -1.0000    fix difference up-down

 DOS related values:
   EMIN   =  10.00;   EMAX   =-10.00  energy-range for DOS
   EFERMI =   0.00
   ISMEAR =     0;   SIGMA  =   0.05  broadening in eV -4-tet -1-fermi 0-gaus

 Electronic relaxation 2 (details)
   IALGO  =     38    algorithm
   LDIAG  =      T    sub-space diagonalisation (order eigenvalues)
   LSUBROT=      F    optimize rotation matrix (better conditioning)
   TURBO    =      0    0=normal 1=particle mesh
   IRESTART =      0    0=no restart 2=restart with 2 vectors
   NREBOOT  =      0    no. of reboots
   NMIN     =      0    reboot dimension
   EREF     =   0.00    reference energy to select bands
   IMIX   =      4    mixing-type and parameters
     AMIX     =   0.40;   BMIX     =  1.00
     AMIX_MAG =   1.60;   BMIX_MAG =  1.00
     AMIN     =   0.10
     WC   =   100.;   INIMIX=   1;  MIXPRE=   1;  MAXMIX= -45

 Intra band minimization:
   WEIMIN = 0.0010     energy-eigenvalue tresh-hold
   EBREAK =  0.39E-07  absolut break condition
   DEPER  =   0.30     relativ break condition  

   TIME   =   0.40     timestep for ELM

  volume/ion in A,a.u.               =      21.01       141.79
  Fermi-wavevector in a.u.,A,eV,Ry     =   1.000781  1.891202 13.627082  1.001562
  Thomas-Fermi vector in A             =   2.133160
 
 Write flags
   LWAVE        =      F    write WAVECAR
   LDOWNSAMPLE  =      F    k-point downsampling of WAVECAR
   LCHARG       =      T    write CHGCAR
   LVTOT        =      F    write LOCPOT, total local potential
   LVHAR        =      F    write LOCPOT, Hartree potential only
   LELF         =      F    write electronic localiz. function (ELF)
   LORBIT       =     11    0 simple, 1 ext, 2 COOP (PROOUT), +10 PAW based schemes


 Dipole corrections
   LMONO  =      F    monopole corrections only (constant potential shift)
   LDIPOL =      F    correct potential (dipole corrections)
   IDIPOL =      0    1-x, 2-y, 3-z, 4-all directions 
   EPSILON=  1.0000000 bulk dielectric constant

 Exchange correlation treatment:
   GGA     =    --    GGA type
   LEXCH   =     8    internal setting for exchange type
   VOSKOWN=      0    Vosko Wilk Nusair interpolation
   LHFCALC =     F    Hartree Fock is set to
   LHFONE  =     F    Hartree Fock one center treatment
   AEXX    =    0.0000 exact exchange contribution

 Linear response parameters
   LEPSILON=     F    determine dielectric tensor
   LRPA    =     F    only Hartree local field effects (RPA)
   LNABLA  =     F    use nabla operator in PAW spheres
   LVEL    =     F    velocity operator in full k-point grid
   LINTERFAST=   F  fast interpolation
   KINTER  =     0    interpolate to denser k-point grid
   CSHIFT  =0.1000    complex shift for real part using Kramers Kronig
   OMEGAMAX=  -1.0    maximum frequency
   DEG_THRESHOLD= 0.2000000E-02 threshold for treating states as degnerate
   RTIME   =   -0.100 relaxation time in fs
  (WPLASMAI=    0.000 imaginary part of plasma frequency in eV, 0.658/RTIME)
   DFIELD  = 0.0000000 0.0000000 0.0000000 field for delta impulse in time
 
 Orbital magnetization related:
   ORBITALMAG=     F  switch on orbital magnetization
   LCHIMAG   =     F  perturbation theory with respect to B field
   DQ        =  0.001000  dq finite difference perturbation B field
   LLRAUG    =     F  two centre corrections for induced B field



--------------------------------------------------------------------------------------------------------


 conjugate gradient relaxation of ions
 charge density and potential will be updated during run
 spin polarized calculation
 Variant of blocked Davidson
 Davidson routine will perform the subspace rotation
 perform sub-space diagonalisation
    after iterative eigenvector-optimisation
 modified Broyden-mixing scheme, WC =      100.0
 initial mixing is a Kerker type mixing with AMIX =  0.4000 and BMIX =      1.0000
 Hartree-type preconditioning will be used
 using additional bands           16
 real space projection scheme for non local part
 use partial core corrections
 calculate Harris-corrections to forces 
   (improved forces if not selfconsistent)
 use gradient corrections 
 use of overlap-Matrix (Vanderbilt PP)
 Gauss-broadening in eV      SIGMA  =   0.05


--------------------------------------------------------------------------------------------------------


  energy-cutoff  :      520.00
  volume of cell :      420.22
      direct lattice vectors                 reciprocal lattice vectors
     7.053921312 -0.000000045 -0.016440316     0.141764325  0.000000001 -0.000341190
    -0.000000064  8.373722446 -0.000000130     0.000000001  0.119421202  0.000000002
     0.017122091 -0.000000113  7.114218564     0.000327605  0.000000002  0.140562787

  length of vectors
     7.053940471  8.373722446  7.114239168     0.141764735  0.119421202  0.140563169


 
 k-points in units of 2pi/SCALE and weight: Regular k-point mesh                    
   0.00000000  0.00000000  0.00000000       0.006
   0.02362739  0.00000000 -0.00005687       0.011
   0.04725477  0.00000000 -0.00011373       0.011
   0.07088216  0.00000000 -0.00017060       0.006
   0.00000000  0.02388424  0.00000000       0.011
   0.02362739  0.02388424 -0.00005686       0.011
  -0.02362739  0.02388424  0.00005687       0.011
   0.04725478  0.02388424 -0.00011373       0.011
  -0.04725477  0.02388424  0.00011373       0.011
   0.07088216  0.02388424 -0.00017059       0.011
   0.00000000  0.04776848  0.00000000       0.011
   0.02362739  0.04776848 -0.00005686       0.011
  -0.02362739  0.04776848  0.00005687       0.011
   0.04725478  0.04776848 -0.00011373       0.011
  -0.04725477  0.04776848  0.00011373       0.011
   0.07088216  0.04776848 -0.00017059       0.011
   0.00005460  0.00000000  0.02342713       0.011
   0.02368199  0.00000000  0.02337027       0.011
   0.04730938  0.00000000  0.02331340       0.011
   0.07093676  0.00000000  0.02325654       0.011
  -0.04720017  0.00000000  0.02354086       0.011
  -0.02357279  0.00000000  0.02348400       0.011
   0.00005460  0.02388424  0.02342713       0.011
  -0.00005460  0.02388424 -0.02342713       0.011
   0.02368199  0.02388424  0.02337027       0.011
  -0.02368199  0.02388424 -0.02337027       0.011
   0.04730938  0.02388424  0.02331340       0.011
  -0.04730938  0.02388424 -0.02331340       0.011
   0.07093676  0.02388424  0.02325654       0.011
   0.07082756  0.02388424 -0.02359773       0.011
  -0.04720017  0.02388424  0.02354086       0.011
   0.04720017  0.02388424 -0.02354086       0.011
  -0.02357279  0.02388424  0.02348400       0.011
   0.02357279  0.02388424 -0.02348400       0.011
   0.00005460  0.04776848  0.02342713       0.011
  -0.00005460  0.04776848 -0.02342713       0.011
   0.02368199  0.04776848  0.02337027       0.011
  -0.02368199  0.04776848 -0.02337027       0.011
   0.04730938  0.04776848  0.02331340       0.011
  -0.04730938  0.04776848 -0.02331340       0.011
   0.07093676  0.04776848  0.02325654       0.011
   0.07082756  0.04776848 -0.02359773       0.011
  -0.04720017  0.04776848  0.02354086       0.011
   0.04720017  0.04776848 -0.02354086       0.011
  -0.02357279  0.04776848  0.02348400       0.011
   0.02357279  0.04776848 -0.02348400       0.011
   0.00010920  0.00000000  0.04685426       0.011
   0.02373659  0.00000000  0.04679740       0.011
   0.04736398  0.00000000  0.04674053       0.011
   0.07099136  0.00000000  0.04668367       0.011
  -0.04714557  0.00000000  0.04696799       0.011
  -0.02351819  0.00000000  0.04691113       0.011
   0.00010920  0.02388424  0.04685426       0.011
  -0.00010920  0.02388424 -0.04685426       0.011
   0.02373659  0.02388424  0.04679740       0.011
  -0.02373659  0.02388424 -0.04679740       0.011
   0.04736398  0.02388424  0.04674053       0.011
  -0.04736398  0.02388424 -0.04674053       0.011
   0.07099136  0.02388424  0.04668367       0.011
   0.07077296  0.02388424 -0.04702486       0.011
  -0.04714557  0.02388424  0.04696799       0.011
   0.04714557  0.02388424 -0.04696799       0.011
  -0.02351819  0.02388424  0.04691113       0.011
   0.02351819  0.02388424 -0.04691113       0.011
   0.00010920  0.04776848  0.04685426       0.011
  -0.00010920  0.04776848 -0.04685426       0.011
   0.02373659  0.04776848  0.04679740       0.011
  -0.02373659  0.04776848 -0.04679740       0.011
   0.04736398  0.04776848  0.04674053       0.011
  -0.04736398  0.04776848 -0.04674053       0.011
   0.07099136  0.04776848  0.04668367       0.011
   0.07077296  0.04776848 -0.04702486       0.011
  -0.04714557  0.04776848  0.04696799       0.011
   0.04714557  0.04776848 -0.04696799       0.011
  -0.02351819  0.04776848  0.04691113       0.011
   0.02351819  0.04776848 -0.04691113       0.011
   0.00016380  0.00000000  0.07028139       0.006
   0.02379119  0.00000000  0.07022453       0.011
   0.04741858  0.00000000  0.07016766       0.011
   0.07104596  0.00000000  0.07011080       0.006
   0.00016380  0.02388424  0.07028139       0.011
   0.02379119  0.02388424  0.07022453       0.011
  -0.02346359  0.02388424  0.07033826       0.011
   0.04741858  0.02388424  0.07016766       0.011
  -0.04709097  0.02388424  0.07039512       0.011
   0.07104596  0.02388424  0.07011080       0.011
   0.00016380  0.04776848  0.07028139       0.011
   0.02379119  0.04776848  0.07022453       0.011
  -0.02346358  0.04776848  0.07033826       0.011
   0.04741858  0.04776848  0.07016766       0.011
  -0.04709097  0.04776848  0.07039512       0.011
   0.07104596  0.04776848  0.07011080       0.011
 
 k-points in reciprocal lattice and weights: Regular k-point mesh                    
   0.00000000  0.00000000  0.00000000       0.006
   0.16666667 -0.00000000 -0.00000000       0.011
   0.33333333 -0.00000000 -0.00000000       0.011
   0.50000000 -0.00000000  0.00000000       0.006
  -0.00000000  0.20000000 -0.00000000       0.011
   0.16666667  0.20000000 -0.00000000       0.011
  -0.16666667  0.20000000 -0.00000000       0.011
   0.33333333  0.20000000  0.00000000       0.011
  -0.33333333  0.20000000 -0.00000000       0.011
   0.50000000  0.20000000 -0.00000000       0.011
  -0.00000000  0.40000000 -0.00000000       0.011
   0.16666667  0.40000000  0.00000000       0.011
  -0.16666667  0.40000000  0.00000000       0.011
   0.33333333  0.40000000  0.00000000       0.011
  -0.33333333  0.40000000  0.00000000       0.011
   0.50000000  0.40000000  0.00000000       0.011
  -0.00000000 -0.00000000  0.16666667       0.011
   0.16666667 -0.00000000  0.16666667       0.011
   0.33333333  0.00000000  0.16666667       0.011
   0.50000000 -0.00000000  0.16666667       0.011
  -0.33333333  0.00000000  0.16666667       0.011
  -0.16666667  0.00000000  0.16666667       0.011
  -0.00000000  0.20000000  0.16666667       0.011
   0.00000000  0.20000000 -0.16666667       0.011
   0.16666667  0.20000000  0.16666667       0.011
  -0.16666667  0.20000000 -0.16666667       0.011
   0.33333333  0.20000000  0.16666667       0.011
  -0.33333333  0.20000000 -0.16666667       0.011
   0.50000000  0.20000000  0.16666667       0.011
   0.50000000  0.20000000 -0.16666667       0.011
  -0.33333333  0.20000000  0.16666667       0.011
   0.33333333  0.20000000 -0.16666667       0.011
  -0.16666667  0.20000000  0.16666667       0.011
   0.16666667  0.20000000 -0.16666667       0.011
  -0.00000000  0.40000000  0.16666667       0.011
   0.00000000  0.40000000 -0.16666667       0.011
   0.16666667  0.40000000  0.16666667       0.011
  -0.16666667  0.40000000 -0.16666667       0.011
   0.33333333  0.40000000  0.16666667       0.011
  -0.33333333  0.40000000 -0.16666667       0.011
   0.50000000  0.40000000  0.16666667       0.011
   0.50000000  0.40000000 -0.16666667       0.011
  -0.33333333  0.40000000  0.16666667       0.011
   0.33333333  0.40000000 -0.16666667       0.011
  -0.16666667  0.40000000  0.16666667       0.011
   0.16666667  0.40000000 -0.16666667       0.011
  -0.00000000  0.00000000  0.33333333       0.011
   0.16666667 -0.00000000  0.33333333       0.011
   0.33333333  0.00000000  0.33333333       0.011
   0.50000000 -0.00000000  0.33333333       0.011
  -0.33333333  0.00000000  0.33333333       0.011
  -0.16666667  0.00000000  0.33333333       0.011
  -0.00000000  0.20000000  0.33333333       0.011
   0.00000000  0.20000000 -0.33333333       0.011
   0.16666667  0.20000000  0.33333333       0.011
  -0.16666667  0.20000000 -0.33333333       0.011
   0.33333333  0.20000000  0.33333333       0.011
  -0.33333333  0.20000000 -0.33333333       0.011
   0.50000000  0.20000000  0.33333333       0.011
   0.50000000  0.20000000 -0.33333333       0.011
  -0.33333333  0.20000000  0.33333333       0.011
   0.33333333  0.20000000 -0.33333333       0.011
  -0.16666667  0.20000000  0.33333333       0.011
   0.16666667  0.20000000 -0.33333333       0.011
  -0.00000000  0.40000000  0.33333333       0.011
   0.00000000  0.40000000 -0.33333333       0.011
   0.16666667  0.40000000  0.33333333       0.011
  -0.16666667  0.40000000 -0.33333333       0.011
   0.33333333  0.40000000  0.33333333       0.011
  -0.33333333  0.40000000 -0.33333333       0.011
   0.50000000  0.40000000  0.33333333       0.011
   0.50000000  0.40000000 -0.33333333       0.011
  -0.33333333  0.40000000  0.33333333       0.011
   0.33333333  0.40000000 -0.33333333       0.011
  -0.16666667  0.40000000  0.33333333       0.011
   0.16666667  0.40000000 -0.33333333       0.011
  -0.00000000  0.00000000  0.50000000       0.006
   0.16666667 -0.00000000  0.50000000       0.011
   0.33333333  0.00000000  0.50000000       0.011
   0.50000000 -0.00000000  0.50000000       0.006
  -0.00000000  0.20000000  0.50000000       0.011
   0.16666667  0.20000000  0.50000000       0.011
  -0.16666667  0.20000000  0.50000000       0.011
   0.33333333  0.20000000  0.50000000       0.011
  -0.33333333  0.20000000  0.50000000       0.011
   0.50000000  0.20000000  0.50000000       0.011
  -0.00000000  0.40000000  0.50000000       0.011
   0.16666667  0.40000000  0.50000000       0.011
  -0.16666667  0.40000000  0.50000000       0.011
   0.33333333  0.40000000  0.50000000       0.011
  -0.33333333  0.40000000  0.50000000       0.011
   0.50000000  0.40000000  0.50000000       0.011
 
 position of ions in fractional coordinates (direct lattice) 
   0.37718802  0.38462151  0.91334697
   0.62281195  0.88462153  0.58665296
   0.62281196  0.61537847  0.08665297
   0.37718803  0.11537849  0.41334697
   0.00843126  0.12407242  0.73828492
   0.99156866  0.62407248  0.76171524
   0.99156861  0.87592751  0.26171523
   0.00843122  0.37592759  0.23828491
   0.61925576  0.36798418  0.57734067
   0.38074426  0.86798430  0.92265932
   0.38074425  0.63201572  0.42265932
   0.61925575  0.13201579  0.07734067
   0.27021086  0.86088435  0.59811608
   0.72978923  0.36088437  0.90188391
   0.72978923  0.13911561  0.40188390
   0.27021087  0.63911566  0.09811608
   0.28049887  0.38785517  0.56961965
   0.71950123  0.88785535  0.93038012
   0.71950118  0.61214469  0.43038029
   0.28049882  0.11214479  0.06961981
 
 position of ions in cartesian coordinates  (Angst):
   2.67629297  3.22071363  6.49154881
   4.40331113  7.40757508  4.16333806
   4.39475018  5.15300849  0.60622889
   2.66773204  0.96614741  2.93443961
   0.07211444  1.03894791  5.25218163
   7.00748939  5.22580963  5.40270693
   6.99892798  7.33477376  1.84559750
   0.06355307  3.14791330  1.69507228
   4.37806666  3.08139732  4.09714691
   2.70153786  7.26825952  6.55774038
   2.69297675  5.29232418  3.00063116
   4.36950553  1.10546353  0.54003768
   1.91628710  7.20880654  4.25068608
   5.16331792  3.02194542  6.40420122
   5.15475691  1.16491544  2.84709189
   1.90772613  5.35177716  0.69357678
   1.98837001  3.24779144  4.04778716
   5.09123506  7.43465411  6.60709861
   5.08267367  5.12592965  3.04999056
   1.97980861  0.93906936  0.49067906
 


--------------------------------------------------------------------------------------------------------


 k-point   1 :   0.0000 0.0000 0.0000  plane waves:   11351
 k-point   2 :   0.1667-0.0000-0.0000  plane waves:   11344
 k-point   3 :   0.3333-0.0000-0.0000  plane waves:   11296
 k-point   4 :   0.5000-0.0000 0.0000  plane waves:   11342
 k-point   5 :  -0.0000 0.2000-0.0000  plane waves:   11321
 k-point   6 :   0.1667 0.2000-0.0000  plane waves:   11315
 k-point   7 :  -0.1667 0.2000-0.0000  plane waves:   11315
 k-point   8 :   0.3333 0.2000 0.0000  plane waves:   11315
 k-point   9 :  -0.3333 0.2000-0.0000  plane waves:   11315
 k-point  10 :   0.5000 0.2000-0.0000  plane waves:   11310
 k-point  11 :  -0.0000 0.4000-0.0000  plane waves:   11303
 k-point  12 :   0.1667 0.4000 0.0000  plane waves:   11309
 k-point  13 :  -0.1667 0.4000 0.0000  plane waves:   11309
 k-point  14 :   0.3333 0.4000 0.0000  plane waves:   11308
 k-point  15 :  -0.3333 0.4000 0.0000  plane waves:   11308
 k-point  16 :   0.5000 0.4000 0.0000  plane waves:   11304
 k-point  17 :  -0.0000-0.0000 0.1667  plane waves:   11317
 k-point  18 :   0.1667-0.0000 0.1667  plane waves:   11311
 k-point  19 :   0.3333 0.0000 0.1667  plane waves:   11319
 k-point  20 :   0.5000-0.0000 0.1667  plane waves:   11298
 k-point  21 :  -0.3333 0.0000 0.1667  plane waves:   11317
 k-point  22 :  -0.1667 0.0000 0.1667  plane waves:   11311
 k-point  23 :  -0.0000 0.2000 0.1667  plane waves:   11313
 k-point  24 :   0.0000 0.2000-0.1667  plane waves:   11313
 k-point  25 :   0.1667 0.2000 0.1667  plane waves:   11310
 k-point  26 :  -0.1667 0.2000-0.1667  plane waves:   11310
 k-point  27 :   0.3333 0.2000 0.1667  plane waves:   11324
 k-point  28 :  -0.3333 0.2000-0.1667  plane waves:   11324
 k-point  29 :   0.5000 0.2000 0.1667  plane waves:   11326
 k-point  30 :   0.5000 0.2000-0.1667  plane waves:   11326
 k-point  31 :  -0.3333 0.2000 0.1667  plane waves:   11322
 k-point  32 :   0.3333 0.2000-0.1667  plane waves:   11322
 k-point  33 :  -0.1667 0.2000 0.1667  plane waves:   11311
 k-point  34 :   0.1667 0.2000-0.1667  plane waves:   11311
 k-point  35 :  -0.0000 0.4000 0.1667  plane waves:   11290
 k-point  36 :   0.0000 0.4000-0.1667  plane waves:   11290
 k-point  37 :   0.1667 0.4000 0.1667  plane waves:   11307
 k-point  38 :  -0.1667 0.4000-0.1667  plane waves:   11307
 k-point  39 :   0.3333 0.4000 0.1667  plane waves:   11315
 k-point  40 :  -0.3333 0.4000-0.1667  plane waves:   11315
 k-point  41 :   0.5000 0.4000 0.1667  plane waves:   11316
 k-point  42 :   0.5000 0.4000-0.1667  plane waves:   11316
 k-point  43 :  -0.3333 0.4000 0.1667  plane waves:   11316
 k-point  44 :   0.3333 0.4000-0.1667  plane waves:   11316
 k-point  45 :  -0.1667 0.4000 0.1667  plane waves:   11307
 k-point  46 :   0.1667 0.4000-0.1667  plane waves:   11307
 k-point  47 :  -0.0000 0.0000 0.3333  plane waves:   11318
 k-point  48 :   0.1667-0.0000 0.3333  plane waves:   11327
 k-point  49 :   0.3333 0.0000 0.3333  plane waves:   11317
 k-point  50 :   0.5000-0.0000 0.3333  plane waves:   11338
 k-point  51 :  -0.3333 0.0000 0.3333  plane waves:   11321
 k-point  52 :  -0.1667 0.0000 0.3333  plane waves:   11327
 k-point  53 :  -0.0000 0.2000 0.3333  plane waves:   11307
 k-point  54 :   0.0000 0.2000-0.3333  plane waves:   11307
 k-point  55 :   0.1667 0.2000 0.3333  plane waves:   11309
 k-point  56 :  -0.1667 0.2000-0.3333  plane waves:   11309
 k-point  57 :   0.3333 0.2000 0.3333  plane waves:   11326
 k-point  58 :  -0.3333 0.2000-0.3333  plane waves:   11326
 k-point  59 :   0.5000 0.2000 0.3333  plane waves:   11329
 k-point  60 :   0.5000 0.2000-0.3333  plane waves:   11329
 k-point  61 :  -0.3333 0.2000 0.3333  plane waves:   11325
 k-point  62 :   0.3333 0.2000-0.3333  plane waves:   11325
 k-point  63 :  -0.1667 0.2000 0.3333  plane waves:   11309
 k-point  64 :   0.1667 0.2000-0.3333  plane waves:   11309
 k-point  65 :  -0.0000 0.4000 0.3333  plane waves:   11295
 k-point  66 :   0.0000 0.4000-0.3333  plane waves:   11295
 k-point  67 :   0.1667 0.4000 0.3333  plane waves:   11314
 k-point  68 :  -0.1667 0.4000-0.3333  plane waves:   11314
 k-point  69 :   0.3333 0.4000 0.3333  plane waves:   11319
 k-point  70 :  -0.3333 0.4000-0.3333  plane waves:   11319
 k-point  71 :   0.5000 0.4000 0.3333  plane waves:   11331
 k-point  72 :   0.5000 0.4000-0.3333  plane waves:   11331
 k-point  73 :  -0.3333 0.4000 0.3333  plane waves:   11319
 k-point  74 :   0.3333 0.4000-0.3333  plane waves:   11319
 k-point  75 :  -0.1667 0.4000 0.3333  plane waves:   11314
 k-point  76 :   0.1667 0.4000-0.3333  plane waves:   11314
 k-point  77 :  -0.0000 0.0000 0.5000  plane waves:   11310
 k-point  78 :   0.1667-0.0000 0.5000  plane waves:   11304
 k-point  79 :   0.3333 0.0000 0.5000  plane waves:   11311
 k-point  80 :   0.5000-0.0000 0.5000  plane waves:   11332
 k-point  81 :  -0.0000 0.2000 0.5000  plane waves:   11312
 k-point  82 :   0.1667 0.2000 0.5000  plane waves:   11316
 k-point  83 :  -0.1667 0.2000 0.5000  plane waves:   11316
 k-point  84 :   0.3333 0.2000 0.5000  plane waves:   11316
 k-point  85 :  -0.3333 0.2000 0.5000  plane waves:   11316
 k-point  86 :   0.5000 0.2000 0.5000  plane waves:   11320
 k-point  87 :  -0.0000 0.4000 0.5000  plane waves:   11288
 k-point  88 :   0.1667 0.4000 0.5000  plane waves:   11313
 k-point  89 :  -0.1667 0.4000 0.5000  plane waves:   11313
 k-point  90 :   0.3333 0.4000 0.5000  plane waves:   11335
 k-point  91 :  -0.3333 0.4000 0.5000  plane waves:   11335
 k-point  92 :   0.5000 0.4000 0.5000  plane waves:   11332

 maximum and minimum number of plane-waves per node :       736      663

 maximum number of plane-waves:     11351
 maximum index in each direction: 
   IXMAX=   13   IYMAX=   15   IZMAX=   13
   IXMIN=  -13   IYMIN=  -15   IZMIN=  -13


 real space projection operators:
  total allocation   :       6757.16 KBytes
  max/ min on nodes  :        672.97        229.34


 parallel 3D FFT for wavefunctions:
    minimum data exchange during FFTs selected (reduces bandwidth)
 parallel 3D FFT for charge:
    minimum data exchange during FFTs selected (reduces bandwidth)


 total amount of memory used by VASP MPI-rank0    55324. kBytes
=======================================================================

   base      :      30000. kBytes
   nonlr-proj:       3255. kBytes
   fftplans  :        914. kBytes
   grid      :       3571. kBytes
   one-center:         62. kBytes
   wavefun   :      17522. kBytes
 
     INWAV:  cpu time    0.0000: real time    0.0000
 Broyden mixing: mesh for mixing (old mesh)
   NGX = 27   NGY = 31   NGZ = 27
  (NGX  =108   NGY  =128   NGZ  =108)
  gives a total of  22599 points

 initial charge density was supplied:
 charge density of overlapping atoms calculated
 number of electron      96.0000000 magnetization       1.2000000
 keeping initial charge density in first step


--------------------------------------------------------------------------------------------------------


 Maximum index for non-local projection operator          787
 Maximum index for augmentation-charges         1037 (set IRDMAX)


--------------------------------------------------------------------------------------------------------


 First call to EWALD:  gamma=   0.237
 Maximum number of real-space cells 3x 3x 3
 Maximum number of reciprocal cells 3x 3x 3

    FEWALD:  cpu time    0.0046: real time    0.0047


--------------------------------------- Iteration      1(   1)  ---------------------------------------


    POTLOK:  cpu time    0.0509: real time    0.0821
    SETDIJ:  cpu time    0.8327: real time    0.8336
     EDDAV:  cpu time   13.8481: real time   13.8626
       DOS:  cpu time    0.0071: real time    0.0071
    --------------------------------------------
      LOOP:  cpu time   14.7388: real time   14.7855

 eigenvalue-minimisations  : 23552
 total energy-change (2. order) : 0.3268005E+03  (-0.4147778E+04)
 number of electron      96.0000000 magnetization       1.2000000
 augmentation part       96.0000000 magnetization       1.2000000

 Free energy of the ion-electron system (eV)
  ---------------------------------------------------
  alpha Z        PSCENC =       209.33027381
  Ewald energy   TEWEN  =     -4018.66867582
  -Hartree energ DENC   =     -1015.58788112
  -exchange      EXHF   =         0.00000000
  -V(xc)+E(xc)   XCENC  =       124.53797290
  PAW double counting   =      3847.08396013    -3757.39100936
  entropy T*S    EENTRO =        -0.00529729
  eigenvalues    EBANDS =       -78.31211918
  atomic energy  EATOM  =      5015.81329822
  Solvation  Ediel_sol  =         0.00000000
  ---------------------------------------------------
  free energy    TOTEN  =       326.80052231 eV

  energy without entropy =      326.80581960  energy(sigma->0) =      326.80317095


--------------------------------------------------------------------------------------------------------




--------------------------------------- Iteration      1(   2)  ---------------------------------------


     EDDAV:  cpu time   15.4544: real time   15.4573
       DOS:  cpu time    0.0055: real time    0.0054
    --------------------------------------------
      LOOP:  cpu time   15.4597: real time   15.4626

 eigenvalue-minimisations  : 28696
 total energy-change (2. order) :-0.5335561E+03  (-0.5094067E+03)
 number of electron      96.0000000 magnetization       1.2000000
 augmentation part       96.0000000 magnetization       1.2000000

 Free energy of the ion-electron system (eV)
  ---------------------------------------------------
  alpha Z        PSCENC =       209.33027381
  Ewald energy   TEWEN  =     -4018.66867582
  -Hartree energ DENC   =     -1015.58788112
  -exchange      EXHF   =         0.00000000
  -V(xc)+E(xc)   XCENC  =       124.53797290
  PAW double counting   =      3847.08396013    -3757.39100936
  entropy T*S    EENTRO =        -0.00000000
  eigenvalues    EBANDS =      -611.87352126
  atomic energy  EATOM  =      5015.81329822
  Solvation  Ediel_sol  =         0.00000000
  ---------------------------------------------------
  free energy    TOTEN  =      -206.75558248 eV

  energy without entropy =     -206.75558248  energy(sigma->0) =     -206.75558248


--------------------------------------------------------------------------------------------------------




--------------------------------------- Iteration      1(   3)  ---------------------------------------


     EDDAV:  cpu time   16.6507: real time   16.6512
       DOS:  cpu time    0.0051: real time    0.0051
    --------------------------------------------
      LOOP:  cpu time   16.6558: real time   16.6563

 eigenvalue-minimisations  : 32128
 total energy-change (2. order) :-0.4899737E+02  (-0.4858053E+02)
 number of electron      96.0000000 magnetization       1.2000000
 augmentation part       96.0000000 magnetization       1.2000000

 Free energy of the ion-electron system (eV)
  ---------------------------------------------------
  alpha Z        PSCENC =       209.33027381
  Ewald energy   TEWEN  =     -4018.66867582
  -Hartree energ DENC   =     -1015.58788112
  -exchange      EXHF   =         0.00000000
  -V(xc)+E(xc)   XCENC  =       124.53797290
  PAW double counting   =      3847.08396013    -3757.39100936
  entropy T*S    EENTRO =        -0.00000000
  eigenvalues    EBANDS =      -660.87089039
  atomic energy  EATOM  =      5015.81329822
  Solvation  Ediel_sol  =         0.00000000
  ---------------------------------------------------
  free energy    TOTEN  =      -255.75295162 eV

  energy without entropy =     -255.75295162  energy(sigma->0) =     -255.75295162


--------------------------------------------------------------------------------------------------------




--------------------------------------- Iteration      1(   4)  ---------------------------------------


     EDDAV:  cpu time   20.2622: real time   20.2901
       DOS:  cpu time    0.0049: real time    0.0049
    --------------------------------------------
      LOOP:  cpu time   20.2671: real time   20.2951

 eigenvalue-minimisations  : 42224
 total energy-change (2. order) :-0.3894491E+01  (-0.3863472E+01)
 number of electron      96.0000000 magnetization       1.2000000
 augmentation part       96.0000000 magnetization       1.2000000

 Free energy of the ion-electron system (eV)
  ---------------------------------------------------
  alpha Z        PSCENC =       209.33027381
  Ewald energy   TEWEN  =     -4018.66867582
  -Hartree energ DENC   =     -1015.58788112
  -exchange      EXHF   =         0.00000000
  -V(xc)+E(xc)   XCENC  =       124.53797290
  PAW double counting   =      3847.08396013    -3757.39100936
  entropy T*S    EENTRO =        -0.00000000
  eigenvalues    EBANDS =      -664.76538187
  atomic energy  EATOM  =      5015.81329822
  Solvation  Ediel_sol  =         0.00000000
  ---------------------------------------------------
  free energy    TOTEN  =      -259.64744310 eV

  energy without entropy =     -259.64744310  energy(sigma->0) =     -259.64744310


--------------------------------------------------------------------------------------------------------




--------------------------------------- Iteration      1(   5)  ---------------------------------------


     EDDAV:  cpu time   16.6325: real time   16.6406
       DOS:  cpu time    0.0054: real time    0.0054
    CHARGE:  cpu time    1.2555: real time    1.2563
    MIXING:  cpu time    0.0044: real time    0.0065
    --------------------------------------------
      LOOP:  cpu time   17.8980: real time   17.9088

 eigenvalue-minimisations  : 32208
 total energy-change (2. order) :-0.1632491E+00  (-0.1632014E+00)
 number of electron      95.9999999 magnetization       0.5083924
 augmentation part       -3.8001049 magnetization       0.5218890

 Broyden mixing:
  rms(total) = 0.32963E+01    rms(broyden)= 0.32963E+01
  rms(prec ) = 0.34842E+01
  weight for this iteration     100.00

 Free energy of the ion-electron system (eV)
  ---------------------------------------------------
  alpha Z        PSCENC =       209.33027381
  Ewald energy   TEWEN  =     -4018.66867582
  -Hartree energ DENC   =     -1015.58788112
  -exchange      EXHF   =         0.00000000
  -V(xc)+E(xc)   XCENC  =       124.53797290
  PAW double counting   =      3847.08396013    -3757.39100936
  entropy T*S    EENTRO =        -0.00000000
  eigenvalues    EBANDS =      -664.92863100
  atomic energy  EATOM  =      5015.81329822
  Solvation  Ediel_sol  =         0.00000000
  ---------------------------------------------------
  free energy    TOTEN  =      -259.81069223 eV

  energy without entropy =     -259.81069223  energy(sigma->0) =     -259.81069223


--------------------------------------------------------------------------------------------------------




--------------------------------------- Iteration      1(   6)  ---------------------------------------


    POTLOK:  cpu time    0.0548: real time    0.0845
    SETDIJ:  cpu time    0.8630: real time    0.8630
     EDDAV:  cpu time   17.8655: real time   17.8684
       DOS:  cpu time    0.0049: real time    0.0049
    CHARGE:  cpu time    1.2507: real time    1.2567
    MIXING:  cpu time    0.0016: real time    0.0023
    --------------------------------------------
      LOOP:  cpu time   20.0405: real time   20.0798

 eigenvalue-minimisations  : 35312
 total energy-change (2. order) : 0.2552070E+02  (-0.1892930E+01)
 number of electron      96.0000000 magnetization      -0.0305091
 augmentation part       -2.0240527 magnetization      -0.0322647

 Broyden mixing:
  rms(total) = 0.19663E+01    rms(broyden)= 0.19663E+01
  rms(prec ) = 0.20730E+01
  weight for this iteration     100.00

 eigenvalues of (default mixing * dielectric matrix)
  average eigenvalue GAMMA=   1.9038
  1.9038

 Free energy of the ion-electron system (eV)
  ---------------------------------------------------
  alpha Z        PSCENC =       209.33027381
  Ewald energy   TEWEN  =     -4018.66867582
  -Hartree energ DENC   =     -1028.80457614
  -exchange      EXHF   =         0.00000000
  -V(xc)+E(xc)   XCENC  =       138.22505745
  PAW double counting   =      6219.52637285    -6134.05605459
  entropy T*S    EENTRO =        -0.00000000
  eigenvalues    EBANDS =      -635.65569117
  atomic energy  EATOM  =      5015.81329822
  Solvation  Ediel_sol  =         0.00000000
  ---------------------------------------------------
  free energy    TOTEN  =      -234.28999538 eV

  energy without entropy =     -234.28999538  energy(sigma->0) =     -234.28999538


--------------------------------------------------------------------------------------------------------




--------------------------------------- Iteration      1(   7)  ---------------------------------------


    POTLOK:  cpu time    0.0558: real time    0.0617
    SETDIJ:  cpu time    0.8653: real time    0.8653
     EDDAV:  cpu time   15.2433: real time   15.2440
       DOS:  cpu time    0.0050: real time    0.0050
    CHARGE:  cpu time    1.2535: real time    1.2536
    MIXING:  cpu time    0.0012: real time    0.0012
    --------------------------------------------
      LOOP:  cpu time   17.4241: real time   17.4308

 eigenvalue-minimisations  : 28080
 total energy-change (2. order) :-0.1190447E+00  (-0.4301865E+00)
 number of electron      96.0000001 magnetization      -0.1817761
 augmentation part       -1.8067652 magnetization      -0.1943858

 Broyden mixing:
  rms(total) = 0.10772E+01    rms(broyden)= 0.10772E+01
  rms(prec ) = 0.10941E+01
  weight for this iteration     100.00

 eigenvalues of (default mixing * dielectric matrix)
  average eigenvalue GAMMA=   1.9463
  0.8046  3.0880

 Free energy of the ion-electron system (eV)
  ---------------------------------------------------
  alpha Z        PSCENC =       209.33027381
  Ewald energy   TEWEN  =     -4018.66867582
  -Hartree energ DENC   =     -1025.24685215
  -exchange      EXHF   =         0.00000000
  -V(xc)+E(xc)   XCENC  =       139.23251958
  PAW double counting   =      9858.42448667    -9785.70272608
  entropy T*S    EENTRO =        -0.00000000
  eigenvalues    EBANDS =      -627.59136430
  atomic energy  EATOM  =      5015.81329822
  Solvation  Ediel_sol  =         0.00000000
  ---------------------------------------------------
  free energy    TOTEN  =      -234.40904007 eV

  energy without entropy =     -234.40904007  energy(sigma->0) =     -234.40904007


--------------------------------------------------------------------------------------------------------




--------------------------------------- Iteration      1(   8)  ---------------------------------------


    POTLOK:  cpu time    0.0540: real time    0.0949
    SETDIJ:  cpu time    0.8641: real time    0.8641
     EDDAV:  cpu time   16.0850: real time   16.0867
       DOS:  cpu time    0.0046: real time    0.0046
    CHARGE:  cpu time    1.2472: real time    1.2472
    MIXING:  cpu time    0.0009: real time    0.0009
    --------------------------------------------
      LOOP:  cpu time   18.2558: real time   18.2984

 eigenvalue-minimisations  : 30448
 total energy-change (2. order) :-0.1845988E+00  (-0.6425887E-01)
 number of electron      96.0000001 magnetization      -0.0421484
 augmentation part       -1.7445036 magnetization      -0.0464683

 Broyden mixing:
  rms(total) = 0.21737E+00    rms(broyden)= 0.21737E+00
  rms(prec ) = 0.27745E+00
  weight for this iteration     100.00

 eigenvalues of (default mixing * dielectric matrix)
  average eigenvalue GAMMA=   1.6002
  3.0545  0.8730  0.8730

 Free energy of the ion-electron system (eV)
  ---------------------------------------------------
  alpha Z        PSCENC =       209.33027381
  Ewald energy   TEWEN  =     -4018.66867582
  -Hartree energ DENC   =     -1021.18598512
  -exchange      EXHF   =         0.00000000
  -V(xc)+E(xc)   XCENC  =       139.99600749
  PAW double counting   =     12683.49415479   -12616.71738565
  entropy T*S    EENTRO =        -0.00000000
  eigenvalues    EBANDS =      -626.65532658
  atomic energy  EATOM  =      5015.81329822
  Solvation  Ediel_sol  =         0.00000000
  ---------------------------------------------------
  free energy    TOTEN  =      -234.59363885 eV

  energy without entropy =     -234.59363885  energy(sigma->0) =     -234.59363885


--------------------------------------------------------------------------------------------------------




--------------------------------------- Iteration      1(   9)  ---------------------------------------


    POTLOK:  cpu time    0.0433: real time    0.0435
    SETDIJ:  cpu time    0.8672: real time    0.8673
     EDDAV:  cpu time   15.3749: real time   15.3755
       DOS:  cpu time    0.0049: real time    0.0049
    CHARGE:  cpu time    1.2559: real time    1.2582
    MIXING:  cpu time    0.0013: real time    0.0013
    --------------------------------------------
      LOOP:  cpu time   17.5475: real time   17.5507

 eigenvalue-minimisations  : 28248
 total energy-change (2. order) : 0.6949246E-01  (-0.2434297E-01)
 number of electron      96.0000001 magnetization      -0.0148087
 augmentation part       -1.7957763 magnetization      -0.0225116

 Broyden mixing:
  rms(total) = 0.17549E+00    rms(broyden)= 0.17549E+00
  rms(prec ) = 0.17820E+00
  weight for this iteration     100.00

 eigenvalues of (default mixing * dielectric matrix)
  average eigenvalue GAMMA=   1.4146
  2.9569  0.9953  0.9953  0.7109

 Free energy of the ion-electron system (eV)
  ---------------------------------------------------
  alpha Z        PSCENC =       209.33027381
  Ewald energy   TEWEN  =     -4018.66867582
  -Hartree energ DENC   =     -1020.72160866
  -exchange      EXHF   =         0.00000000
  -V(xc)+E(xc)   XCENC  =       139.57736915
  PAW double counting   =     12196.58779235   -12128.12768897
  entropy T*S    EENTRO =        -0.00000000
  eigenvalues    EBANDS =      -628.31490647
  atomic energy  EATOM  =      5015.81329822
  Solvation  Ediel_sol  =         0.00000000
  ---------------------------------------------------
  free energy    TOTEN  =      -234.52414639 eV

  energy without entropy =     -234.52414639  energy(sigma->0) =     -234.52414639


--------------------------------------------------------------------------------------------------------




--------------------------------------- Iteration      1(  10)  ---------------------------------------


    POTLOK:  cpu time    0.0520: real time    0.0860
    SETDIJ:  cpu time    0.8640: real time    0.8640
     EDDAV:  cpu time   16.2916: real time   16.2920
       DOS:  cpu time    0.0049: real time    0.0049
    CHARGE:  cpu time    1.2487: real time    1.2487
    MIXING:  cpu time    0.0010: real time    0.0010
    --------------------------------------------
      LOOP:  cpu time   18.4621: real time   18.4966

 eigenvalue-minimisations  : 31072
 total energy-change (2. order) : 0.5703565E-03  (-0.3558993E-02)
 number of electron      96.0000001 magnetization      -0.0046572
 augmentation part       -1.8093814 magnetization      -0.0081303

 Broyden mixing:
  rms(total) = 0.72305E-01    rms(broyden)= 0.72305E-01
  rms(prec ) = 0.73058E-01
  weight for this iteration     100.00

 eigenvalues of (default mixing * dielectric matrix)
  average eigenvalue GAMMA=   1.3811
  2.4839  1.9964  1.1111  0.6570  0.6570

 Free energy of the ion-electron system (eV)
  ---------------------------------------------------
  alpha Z        PSCENC =       209.33027381
  Ewald energy   TEWEN  =     -4018.66867582
  -Hartree energ DENC   =     -1020.88936586
  -exchange      EXHF   =         0.00000000
  -V(xc)+E(xc)   XCENC  =       139.64653342
  PAW double counting   =     12192.15325214   -12123.54860922
  entropy T*S    EENTRO =        -0.00000000
  eigenvalues    EBANDS =      -628.36028273
  atomic energy  EATOM  =      5015.81329822
  Solvation  Ediel_sol  =         0.00000000
  ---------------------------------------------------
  free energy    TOTEN  =      -234.52357604 eV

  energy without entropy =     -234.52357604  energy(sigma->0) =     -234.52357604


--------------------------------------------------------------------------------------------------------




--------------------------------------- Iteration      1(  11)  ---------------------------------------


    POTLOK:  cpu time    0.0462: real time    0.0464
    SETDIJ:  cpu time    0.8657: real time    0.8657
     EDDAV:  cpu time   17.4956: real time   17.4992
       DOS:  cpu time    0.0046: real time    0.0046
    CHARGE:  cpu time    1.2485: real time    1.2485
    MIXING:  cpu time    0.0015: real time    0.0015
    --------------------------------------------
      LOOP:  cpu time   19.6621: real time   19.6660

 eigenvalue-minimisations  : 34520
 total energy-change (2. order) :-0.2746121E-03  (-0.2481969E-03)
 number of electron      96.0000001 magnetization      -0.0026814
 augmentation part       -1.8118326 magnetization      -0.0034763

 Broyden mixing:
  rms(total) = 0.43670E-01    rms(broyden)= 0.43670E-01
  rms(prec ) = 0.44266E-01
  weight for this iteration     100.00

 eigenvalues of (default mixing * dielectric matrix)
  average eigenvalue GAMMA=   1.3220
  2.6789  1.5673  1.5673  0.7748  0.7748  0.5691

 Free energy of the ion-electron system (eV)
  ---------------------------------------------------
  alpha Z        PSCENC =       209.33027381
  Ewald energy   TEWEN  =     -4018.66867582
  -Hartree energ DENC   =     -1021.11288679
  -exchange      EXHF   =         0.00000000
  -V(xc)+E(xc)   XCENC  =       139.65258054
  PAW double counting   =     12102.75155984   -12033.98210769
  entropy T*S    EENTRO =        -0.00000000
  eigenvalues    EBANDS =      -628.30789277
  atomic energy  EATOM  =      5015.81329822
  Solvation  Ediel_sol  =         0.00000000
  ---------------------------------------------------
  free energy    TOTEN  =      -234.52385065 eV

  energy without entropy =     -234.52385065  energy(sigma->0) =     -234.52385065


--------------------------------------------------------------------------------------------------------




--------------------------------------- Iteration      1(  12)  ---------------------------------------


    POTLOK:  cpu time    0.0605: real time    0.0875
    SETDIJ:  cpu time    0.8649: real time    0.8649
     EDDAV:  cpu time   15.4982: real time   15.5051
       DOS:  cpu time    0.0050: real time    0.0050
    CHARGE:  cpu time    1.2530: real time    1.2534
    MIXING:  cpu time    0.0014: real time    0.0014
    --------------------------------------------
      LOOP:  cpu time   17.6830: real time   17.7174

 eigenvalue-minimisations  : 28624
 total energy-change (2. order) :-0.2197615E-03  (-0.4528349E-04)
 number of electron      96.0000001 magnetization       0.0007890
 augmentation part       -1.8118596 magnetization       0.0006264

 Broyden mixing:
  rms(total) = 0.25001E-01    rms(broyden)= 0.25001E-01
  rms(prec ) = 0.25469E-01
  weight for this iteration     100.00

 eigenvalues of (default mixing * dielectric matrix)
  average eigenvalue GAMMA=   1.3323
  2.7607  1.7918  1.7918  0.8804  0.8804  0.6563  0.5646

 Free energy of the ion-electron system (eV)
  ---------------------------------------------------
  alpha Z        PSCENC =       209.33027381
  Ewald energy   TEWEN  =     -4018.66867582
  -Hartree energ DENC   =     -1021.26879284
  -exchange      EXHF   =         0.00000000
  -V(xc)+E(xc)   XCENC  =       139.68445842
  PAW double counting   =     12060.61512305   -11991.79590032
  entropy T*S    EENTRO =        -0.00000000
  eigenvalues    EBANDS =      -628.23385493
  atomic energy  EATOM  =      5015.81329822
  Solvation  Ediel_sol  =         0.00000000
  ---------------------------------------------------
  free energy    TOTEN  =      -234.52407041 eV

  energy without entropy =     -234.52407041  energy(sigma->0) =     -234.52407041


--------------------------------------------------------------------------------------------------------




--------------------------------------- Iteration      1(  13)  ---------------------------------------


    POTLOK:  cpu time    0.0661: real time    0.0706
    SETDIJ:  cpu time    0.8663: real time    0.8663
     EDDAV:  cpu time   15.2711: real time   15.2713
       DOS:  cpu time    0.0049: real time    0.0049
    CHARGE:  cpu time    1.2521: real time    1.2521
    MIXING:  cpu time    0.0011: real time    0.0011
    --------------------------------------------
      LOOP:  cpu time   17.4615: real time   17.4663

 eigenvalue-minimisations  : 28216
 total energy-change (2. order) :-0.1529981E-03  (-0.1802027E-04)
 number of electron      96.0000001 magnetization       0.0012927
 augmentation part       -1.8136266 magnetization       0.0010156

 Broyden mixing:
  rms(total) = 0.10896E-01    rms(broyden)= 0.10896E-01
  rms(prec ) = 0.11066E-01
  weight for this iteration     100.00

 eigenvalues of (default mixing * dielectric matrix)
  average eigenvalue GAMMA=   1.3533
  2.7565  2.6373  1.4325  1.0696  1.0696  0.6671  0.6671  0.5267

 Free energy of the ion-electron system (eV)
  ---------------------------------------------------
  alpha Z        PSCENC =       209.33027381
  Ewald energy   TEWEN  =     -4018.66867582
  -Hartree energ DENC   =     -1021.40432136
  -exchange      EXHF   =         0.00000000
  -V(xc)+E(xc)   XCENC  =       139.70385513
  PAW double counting   =     12019.80684226   -11950.91263548
  entropy T*S    EENTRO =        -0.00000000
  eigenvalues    EBANDS =      -628.19286018
  atomic energy  EATOM  =      5015.81329822
  Solvation  Ediel_sol  =         0.00000000
  ---------------------------------------------------
  free energy    TOTEN  =      -234.52422341 eV

  energy without entropy =     -234.52422341  energy(sigma->0) =     -234.52422341


--------------------------------------------------------------------------------------------------------




--------------------------------------- Iteration      1(  14)  ---------------------------------------


    POTLOK:  cpu time    0.0551: real time    0.0919
    SETDIJ:  cpu time    0.8626: real time    0.8655
     EDDAV:  cpu time   14.5523: real time   14.6347
       DOS:  cpu time    0.0050: real time    0.0050
    CHARGE:  cpu time    1.2492: real time    1.2493
    MIXING:  cpu time    0.0014: real time    0.0014
    --------------------------------------------
      LOOP:  cpu time   16.7258: real time   16.8479

 eigenvalue-minimisations  : 26144
 total energy-change (2. order) :-0.1693584E-04  (-0.3780955E-05)
 number of electron      96.0000001 magnetization       0.0003391
 augmentation part       -1.8142068 magnetization       0.0001006

 Broyden mixing:
  rms(total) = 0.30974E-02    rms(broyden)= 0.30974E-02
  rms(prec ) = 0.31669E-02
  weight for this iteration     100.00

 eigenvalues of (default mixing * dielectric matrix)
  average eigenvalue GAMMA=   1.3143
  2.8892  2.5544  1.4443  1.1656  1.1656  0.8299  0.6432  0.6098  0.5263

 Free energy of the ion-electron system (eV)
  ---------------------------------------------------
  alpha Z        PSCENC =       209.33027381
  Ewald energy   TEWEN  =     -4018.66867582
  -Hartree energ DENC   =     -1021.45492339
  -exchange      EXHF   =         0.00000000
  -V(xc)+E(xc)   XCENC  =       139.71193192
  PAW double counting   =     12007.53700328   -11938.61677164
  entropy T*S    EENTRO =        -0.00000000
  eigenvalues    EBANDS =      -628.17637673
  atomic energy  EATOM  =      5015.81329822
  Solvation  Ediel_sol  =         0.00000000
  ---------------------------------------------------
  free energy    TOTEN  =      -234.52424034 eV

  energy without entropy =     -234.52424034  energy(sigma->0) =     -234.52424034


--------------------------------------------------------------------------------------------------------




--------------------------------------- Iteration      1(  15)  ---------------------------------------


    POTLOK:  cpu time    0.0455: real time    0.0458
    SETDIJ:  cpu time    0.8664: real time    0.8664
     EDDAV:  cpu time   11.2172: real time   11.2174
       DOS:  cpu time    0.0050: real time    0.0050
    --------------------------------------------
      LOOP:  cpu time   12.1341: real time   12.1347

 eigenvalue-minimisations  : 16184
 total energy-change (2. order) :-0.2065221E-05  (-0.4389631E-06)
 number of electron      96.0000001 magnetization       0.0003391
 augmentation part       -1.8142068 magnetization       0.0001006

 Free energy of the ion-electron system (eV)
  ---------------------------------------------------
  alpha Z        PSCENC =       209.33027381
  Ewald energy   TEWEN  =     -4018.66867582
  -Hartree energ DENC   =     -1021.47004984
  -exchange      EXHF   =         0.00000000
  -V(xc)+E(xc)   XCENC  =       139.71522419
  PAW double counting   =     12009.09603952   -11940.17771155
  entropy T*S    EENTRO =        -0.00000000
  eigenvalues    EBANDS =      -628.16264095
  atomic energy  EATOM  =      5015.81329822
  Solvation  Ediel_sol  =         0.00000000
  ---------------------------------------------------
  free energy    TOTEN  =      -234.52424241 eV

  energy without entropy =     -234.52424241  energy(sigma->0) =     -234.52424241


--------------------------------------------------------------------------------------------------------




 average (electrostatic) potential at core
  the test charge radii are     0.9748  1.1929  1.0406  0.9587
  (the norm of the test charge is              1.0000)
       1 -27.3093       2 -27.3093       3 -27.3093       4 -27.3093       5 -41.5597
       6 -41.5598       7 -41.5598       8 -41.5597       9 -79.3517      10 -79.3517
      11 -79.3517      12 -79.3517      13 -86.3169      14 -86.3169      15 -86.3169
      16 -86.3169      17 -86.2620      18 -86.2620      19 -86.2620      20 -86.2620
 
 
 
 E-fermi :   3.7295     XC(G=0):  -9.4833     alpha+bet :-11.1498


 spin component 1

 k-point     1 :       0.0000    0.0000    0.0000
  band No.  band energies     occupation 
      1     -32.3843      1.00000
      2     -32.3689      1.00000
      3     -32.3677      1.00000
      4     -32.3664      1.00000
      5     -13.9621      1.00000
      6     -13.8895      1.00000
      7     -13.8816      1.00000
      8     -13.8176      1.00000
      9     -13.8038      1.00000
     10     -13.7998      1.00000
     11     -13.7400      1.00000
     12     -13.7395      1.00000
     13     -13.7346      1.00000
     14     -13.7328      1.00000
     15     -13.6763      1.00000
     16     -13.6674      1.00000
     17      -7.6409      1.00000
     18      -6.7469      1.00000
     19      -6.5179      1.00000
     20      -6.0034      1.00000
     21      -5.9127      1.00000
     22      -5.8980      1.00000
     23      -5.8823      1.00000
     24      -5.8253      1.00000
     25      -2.0106      1.00000
     26      -1.1023      1.00000
     27      -1.0998      1.00000
     28      -0.3641      1.00000
     29       0.1874      1.00000
     30       0.3513      1.00000
     31       0.3544      1.00000
     32       0.6027      1.00000
     33       0.6035      1.00000
     34       1.2211      1.00000
     35       1.3718      1.00000
     36       1.6223      1.00000
     37       1.6853      1.00000
     38       1.8805      1.00000
     39       1.9238      1.00000
     40       2.0085      1.00000
     41       2.3616      1.00000
     42       2.3718      1.00000
     43       2.4758      1.00000
     44       2.5283      1.00000
     45       2.7831      1.00000
     46       3.3134      1.00000
     47       3.4615      1.00000
     48       3.4671      1.00000
     49       5.2989      0.00000
     50       6.3059      0.00000
     51       6.5432      0.00000
     52       6.8436      0.00000
     53       7.0069      0.00000
     54       7.1299      0.00000
     55       7.1619      0.00000
     56       7.4279      0.00000
     57       7.5468      0.00000
     58       7.6347      0.00000
     59       7.6638      0.00000
     60       7.6928      0.00000
     61       7.8162      0.00000
     62       7.8321      0.00000
     63       8.0937      0.00000
     64       8.3245      0.00000

 k-point     2 :       0.1667   -0.0000   -0.0000
  band No.  band energies     occupation 
      1     -32.3843      1.00000
      2     -32.3689      1.00000
      3     -32.3677      1.00000
      4     -32.3664      1.00000
      5     -13.9620      1.00000
      6     -13.8895      1.00000
      7     -13.8815      1.00000
      8     -13.8184      1.00000
      9     -13.8038      1.00000
     10     -13.7997      1.00000
     11     -13.7401      1.00000
     12     -13.7397      1.00000
     13     -13.7346      1.00000
     14     -13.7329      1.00000
     15     -13.6763      1.00000
     16     -13.6674      1.00000
     17      -7.5858      1.00000
     18      -6.7581      1.00000
     19      -6.5636      1.00000
     20      -6.0223      1.00000
     21      -5.9497      1.00000
     22      -5.8973      1.00000
     23      -5.8749      1.00000
     24      -5.8139      1.00000
     25      -1.9902      1.00000
     26      -1.1763      1.00000
     27      -0.9373      1.00000
     28      -0.3778      1.00000
     29       0.2126      1.00000
     30       0.2739      1.00000
     31       0.4742      1.00000
     32       0.4911      1.00000
     33       0.7801      1.00000
     34       1.1599      1.00000
     35       1.4064      1.00000
     36       1.4634      1.00000
     37       1.8300      1.00000
     38       1.9547      1.00000
     39       1.9640      1.00000
     40       2.0151      1.00000
     41       2.3021      1.00000
     42       2.4391      1.00000
     43       2.5744      1.00000
     44       2.6050      1.00000
     45       2.7728      1.00000
     46       2.9084      1.00000
     47       3.3679      1.00000
     48       3.3819      1.00000
     49       5.3180      0.00000
     50       6.3679      0.00000
     51       6.5048      0.00000
     52       6.7734      0.00000
     53       7.0147      0.00000
     54       7.0818      0.00000
     55       7.1679      0.00000
     56       7.2933      0.00000
     57       7.3351      0.00000
     58       7.5294      0.00000
     59       7.6529      0.00000
     60       7.6679      0.00000
     61       7.8419      0.00000
     62       7.8723      0.00000
     63       8.1185      0.00000
     64       8.2636      0.00000

 k-point     3 :       0.3333   -0.0000   -0.0000
  band No.  band energies     occupation 
      1     -32.3843      1.00000
      2     -32.3689      1.00000
      3     -32.3677      1.00000
      4     -32.3664      1.00000
      5     -13.9617      1.00000
      6     -13.8895      1.00000
      7     -13.8812      1.00000
      8     -13.8200      1.00000
      9     -13.8037      1.00000
     10     -13.7997      1.00000
     11     -13.7404      1.00000
     12     -13.7401      1.00000
     13     -13.7348      1.00000
     14     -13.7332      1.00000
     15     -13.6763      1.00000
     16     -13.6674      1.00000
     17      -7.4462      1.00000
     18      -6.7796      1.00000
     19      -6.6963      1.00000
     20      -6.0457      1.00000
     21      -6.0414      1.00000
     22      -5.8925      1.00000
     23      -5.8551      1.00000
     24      -5.7794      1.00000
     25      -1.9372      1.00000
     26      -1.3365      1.00000
     27      -0.5890      1.00000
     28      -0.4040      1.00000
     29       0.2556      1.00000
     30       0.3436      1.00000
     31       0.4680      1.00000
     32       0.5900      1.00000
     33       0.9614      1.00000
     34       1.0593      1.00000
     35       1.2782      1.00000
     36       1.6277      1.00000
     37       1.7436      1.00000
     38       1.9462      1.00000
     39       1.9734      1.00000
     40       1.9996      1.00000
     41       2.1563      1.00000
     42       2.4416      1.00000
     43       2.6838      1.00000
     44       2.7075      1.00000
     45       2.7587      1.00000
     46       2.8156      1.00000
     47       3.1482      1.00000
     48       3.1770      1.00000
     49       5.4104      0.00000
     50       6.2058      0.00000
     51       6.2934      0.00000
     52       6.5891      0.00000
     53       6.7440      0.00000
     54       6.8216      0.00000
     55       6.9832      0.00000
     56       7.0312      0.00000
     57       7.2698      0.00000
     58       7.3964      0.00000
     59       7.8012      0.00000
     60       7.8238      0.00000
     61       7.8431      0.00000
     62       8.1916      0.00000
     63       8.3724      0.00000
     64       8.4206      0.00000

 k-point     4 :       0.5000   -0.0000    0.0000
  band No.  band energies     occupation 
      1     -32.3843      1.00000
      2     -32.3689      1.00000
      3     -32.3677      1.00000
      4     -32.3664      1.00000
      5     -13.9615      1.00000
      6     -13.8895      1.00000
      7     -13.8810      1.00000
      8     -13.8208      1.00000
      9     -13.8036      1.00000
     10     -13.7996      1.00000
     11     -13.7405      1.00000
     12     -13.7403      1.00000
     13     -13.7348      1.00000
     14     -13.7334      1.00000
     15     -13.6763      1.00000
     16     -13.6674      1.00000
     17      -7.3457      1.00000
     18      -6.7998      1.00000
     19      -6.7901      1.00000
     20      -6.0793      1.00000
     21      -6.0543      1.00000
     22      -5.8893      1.00000
     23      -5.8508      1.00000
     24      -5.7600      1.00000
     25      -1.8997      1.00000
     26      -1.4251      1.00000
     27      -0.4222      1.00000
     28      -0.4203      1.00000
     29       0.2682      1.00000
     30       0.4855      1.00000
     31       0.5739      1.00000
     32       0.6348      1.00000
     33       1.0035      1.00000
     34       1.0375      1.00000
     35       1.2528      1.00000
     36       1.4368      1.00000
     37       1.6922      1.00000
     38       1.8038      1.00000
     39       1.9216      1.00000
     40       1.9278      1.00000
     41       2.2153      1.00000
     42       2.4357      1.00000
     43       2.8360      1.00000
     44       2.8445      1.00000
     45       2.9020      1.00000
     46       2.9125      1.00000
     47       2.9200      1.00000
     48       2.9751      1.00000
     49       5.5592      0.00000
     50       6.1449      0.00000
     51       6.2104      0.00000
     52       6.2511      0.00000
     53       6.5203      0.00000
     54       6.7399      0.00000
     55       6.8102      0.00000
     56       6.9794      0.00000
     57       7.1751      0.00000
     58       7.3153      0.00000
     59       7.6363      0.00000
     60       7.9500      0.00000
     61       8.1995      0.00000
     62       8.3307      0.00000
     63       8.5062      0.00000
     64       8.5571      0.00000

 k-point     5 :      -0.0000    0.2000   -0.0000
  band No.  band energies     occupation 
      1     -32.3832      1.00000
      2     -32.3718      1.00000
      3     -32.3661      1.00000
      4     -32.3661      1.00000
      5     -13.9537      1.00000
      6     -13.8772      1.00000
      7     -13.8619      1.00000
      8     -13.8468      1.00000
      9     -13.8107      1.00000
     10     -13.7676      1.00000
     11     -13.7523      1.00000
     12     -13.7515      1.00000
     13     -13.7313      1.00000
     14     -13.7286      1.00000
     15     -13.6847      1.00000
     16     -13.6810      1.00000
     17      -7.5861      1.00000
     18      -6.9323      1.00000
     19      -6.3692      1.00000
     20      -5.9862      1.00000
     21      -5.9480      1.00000
     22      -5.9099      1.00000
     23      -5.8676      1.00000
     24      -5.8331      1.00000
     25      -1.9334      1.00000
     26      -1.2137      1.00000
     27      -1.0202      1.00000
     28      -0.3204      1.00000
     29      -0.0426      1.00000
     30       0.3051      1.00000
     31       0.5761      1.00000
     32       0.6728      1.00000
     33       0.7278      1.00000
     34       1.2035      1.00000
     35       1.3806      1.00000
     36       1.6192      1.00000
     37       1.6689      1.00000
     38       1.8227      1.00000
     39       1.9260      1.00000
     40       2.0285      1.00000
     41       2.3048      1.00000
     42       2.3765      1.00000
     43       2.4448      1.00000
     44       2.4846      1.00000
     45       2.8148      1.00000
     46       3.1037      1.00000
     47       3.2134      1.00000
     48       3.3665      1.00000
     49       5.6899      0.00000
     50       6.3686      0.00000
     51       6.5736      0.00000
     52       6.7229      0.00000
     53       7.0108      0.00000
     54       7.1485      0.00000
     55       7.2965      0.00000
     56       7.3834      0.00000
     57       7.6151      0.00000
     58       7.7329      0.00000
     59       7.8255      0.00000
     60       7.9104      0.00000
     61       7.9973      0.00000
     62       8.0923      0.00000
     63       8.1200      0.00000
     64       8.3220      0.00000

 k-point     6 :       0.1667    0.2000   -0.0000
  band No.  band energies     occupation 
      1     -32.3832      1.00000
      2     -32.3718      1.00000
      3     -32.3661      1.00000
      4     -32.3661      1.00000
      5     -13.9535      1.00000
      6     -13.8771      1.00000
      7     -13.8618      1.00000
      8     -13.8467      1.00000
      9     -13.8114      1.00000
     10     -13.7677      1.00000
     11     -13.7525      1.00000
     12     -13.7515      1.00000
     13     -13.7315      1.00000
     14     -13.7287      1.00000
     15     -13.6847      1.00000
     16     -13.6809      1.00000
     17      -7.5347      1.00000
     18      -6.9318      1.00000
     19      -6.4170      1.00000
     20      -6.0133      1.00000
     21      -5.9601      1.00000
     22      -5.9102      1.00000
     23      -5.8847      1.00000
     24      -5.8218      1.00000
     25      -1.9128      1.00000
     26      -1.2659      1.00000
     27      -0.8678      1.00000
     28      -0.3249      1.00000
     29       0.0030      1.00000
     30       0.3270      1.00000
     31       0.4946      1.00000
     32       0.7096      1.00000
     33       0.8294      1.00000
     34       1.1515      1.00000
     35       1.4020      1.00000
     36       1.5475      1.00000
     37       1.7140      1.00000
     38       1.8385      1.00000
     39       1.9486      1.00000
     40       2.1101      1.00000
     41       2.3002      1.00000
     42       2.4102      1.00000
     43       2.4829      1.00000
     44       2.5625      1.00000
     45       2.7191      1.00000
     46       2.7871      1.00000
     47       3.1719      1.00000
     48       3.3151      1.00000
     49       5.6724      0.00000
     50       6.3866      0.00000
     51       6.5405      0.00000
     52       6.8329      0.00000
     53       6.9202      0.00000
     54       7.0511      0.00000
     55       7.3094      0.00000
     56       7.3182      0.00000
     57       7.4692      0.00000
     58       7.5861      0.00000
     59       7.7222      0.00000
     60       7.7679      0.00000
     61       7.9112      0.00000
     62       8.0144      0.00000
     63       8.1659      0.00000
     64       8.4005      0.00000

 k-point     7 :      -0.1667    0.2000   -0.0000
  band No.  band energies     occupation 
      1     -32.3832      1.00000
      2     -32.3718      1.00000
      3     -32.3661      1.00000
      4     -32.3661      1.00000
      5     -13.9535      1.00000
      6     -13.8771      1.00000
      7     -13.8618      1.00000
      8     -13.8467      1.00000
      9     -13.8114      1.00000
     10     -13.7677      1.00000
     11     -13.7525      1.00000
     12     -13.7515      1.00000
     13     -13.7315      1.00000
     14     -13.7287      1.00000
     15     -13.6847      1.00000
     16     -13.6809      1.00000
     17      -7.5347      1.00000
     18      -6.9318      1.00000
     19      -6.4170      1.00000
     20      -6.0133      1.00000
     21      -5.9601      1.00000
     22      -5.9102      1.00000
     23      -5.8847      1.00000
     24      -5.8218      1.00000
     25      -1.9128      1.00000
     26      -1.2659      1.00000
     27      -0.8678      1.00000
     28      -0.3249      1.00000
     29       0.0030      1.00000
     30       0.3270      1.00000
     31       0.4946      1.00000
     32       0.7096      1.00000
     33       0.8294      1.00000
     34       1.1515      1.00000
     35       1.4020      1.00000
     36       1.5475      1.00000
     37       1.7140      1.00000
     38       1.8385      1.00000
     39       1.9486      1.00000
     40       2.1101      1.00000
     41       2.3002      1.00000
     42       2.4102      1.00000
     43       2.4829      1.00000
     44       2.5625      1.00000
     45       2.7191      1.00000
     46       2.7871      1.00000
     47       3.1719      1.00000
     48       3.3151      1.00000
     49       5.6724      0.00000
     50       6.3866      0.00000
     51       6.5405      0.00000
     52       6.8329      0.00000
     53       6.9202      0.00000
     54       7.0511      0.00000
     55       7.3094      0.00000
     56       7.3182      0.00000
     57       7.4692      0.00000
     58       7.5861      0.00000
     59       7.7222      0.00000
     60       7.7679      0.00000
     61       7.9112      0.00000
     62       8.0144      0.00000
     63       8.1659      0.00000
     64       8.3704      0.00000

 k-point     8 :       0.3333    0.2000    0.0000
  band No.  band energies     occupation 
      1     -32.3832      1.00000
      2     -32.3718      1.00000
      3     -32.3661      1.00000
      4     -32.3661      1.00000
      5     -13.9532      1.00000
      6     -13.8770      1.00000
      7     -13.8617      1.00000
      8     -13.8466      1.00000
      9     -13.8128      1.00000
     10     -13.7680      1.00000
     11     -13.7528      1.00000
     12     -13.7515      1.00000
     13     -13.7318      1.00000
     14     -13.7290      1.00000
     15     -13.6847      1.00000
     16     -13.6809      1.00000
     17      -7.4065      1.00000
     18      -6.9397      1.00000
     19      -6.5376      1.00000
     20      -6.0690      1.00000
     21      -5.9778      1.00000
     22      -5.9570      1.00000
     23      -5.8753      1.00000
     24      -5.7888      1.00000
     25      -1.8611      1.00000
     26      -1.3802      1.00000
     27      -0.5440      1.00000
     28      -0.3419      1.00000
     29       0.1316      1.00000
     30       0.4207      1.00000
     31       0.4957      1.00000
     32       0.6783      1.00000
     33       0.9687      1.00000
     34       1.0946      1.00000
     35       1.3572      1.00000
     36       1.5332      1.00000
     37       1.7364      1.00000
     38       1.7800      1.00000
     39       2.0112      1.00000
     40       2.0837      1.00000
     41       2.1804      1.00000
     42       2.3853      1.00000
     43       2.4961      1.00000
     44       2.5967      1.00000
     45       2.7070      1.00000
     46       2.7816      1.00000
     47       2.9411      1.00000
     48       3.1796      1.00000
     49       5.6735      0.00000
     50       6.2450      0.00000
     51       6.4627      0.00000
     52       6.7209      0.00000
     53       6.8183      0.00000
     54       6.8694      0.00000
     55       7.0046      0.00000
     56       7.0742      0.00000
     57       7.3669      0.00000
     58       7.6083      0.00000
     59       7.7445      0.00000
     60       7.8810      0.00000
     61       7.9426      0.00000
     62       8.0007      0.00000
     63       8.3082      0.00000
     64       8.3991      0.00000

 k-point     9 :      -0.3333    0.2000   -0.0000
  band No.  band energies     occupation 
      1     -32.3832      1.00000
      2     -32.3718      1.00000
      3     -32.3661      1.00000
      4     -32.3661      1.00000
      5     -13.9532      1.00000
      6     -13.8770      1.00000
      7     -13.8617      1.00000
      8     -13.8466      1.00000
      9     -13.8128      1.00000
     10     -13.7680      1.00000
     11     -13.7528      1.00000
     12     -13.7515      1.00000
     13     -13.7318      1.00000
     14     -13.7290      1.00000
     15     -13.6847      1.00000
     16     -13.6809      1.00000
     17      -7.4065      1.00000
     18      -6.9397      1.00000
     19      -6.5376      1.00000
     20      -6.0690      1.00000
     21      -5.9778      1.00000
     22      -5.9570      1.00000
     23      -5.8753      1.00000
     24      -5.7888      1.00000
     25      -1.8611      1.00000
     26      -1.3802      1.00000
     27      -0.5440      1.00000
     28      -0.3419      1.00000
     29       0.1316      1.00000
     30       0.4207      1.00000
     31       0.4957      1.00000
     32       0.6783      1.00000
     33       0.9687      1.00000
     34       1.0946      1.00000
     35       1.3572      1.00000
     36       1.5332      1.00000
     37       1.7364      1.00000
     38       1.7800      1.00000
     39       2.0112      1.00000
     40       2.0837      1.00000
     41       2.1804      1.00000
     42       2.3853      1.00000
     43       2.4961      1.00000
     44       2.5967      1.00000
     45       2.7070      1.00000
     46       2.7816      1.00000
     47       2.9411      1.00000
     48       3.1796      1.00000
     49       5.6735      0.00000
     50       6.2450      0.00000
     51       6.4627      0.00000
     52       6.7209      0.00000
     53       6.8183      0.00000
     54       6.8694      0.00000
     55       7.0046      0.00000
     56       7.0742      0.00000
     57       7.3669      0.00000
     58       7.6083      0.00000
     59       7.7445      0.00000
     60       7.8810      0.00000
     61       7.9426      0.00000
     62       8.0007      0.00000
     63       8.3082      0.00000
     64       8.3889      0.00000

 k-point    10 :       0.5000    0.2000   -0.0000
  band No.  band energies     occupation 
      1     -32.3832      1.00000
      2     -32.3718      1.00000
      3     -32.3661      1.00000
      4     -32.3661      1.00000
      5     -13.9530      1.00000
      6     -13.8770      1.00000
      7     -13.8617      1.00000
      8     -13.8465      1.00000
      9     -13.8135      1.00000
     10     -13.7681      1.00000
     11     -13.7529      1.00000
     12     -13.7515      1.00000
     13     -13.7319      1.00000
     14     -13.7291      1.00000
     15     -13.6846      1.00000
     16     -13.6809      1.00000
     17      -7.3169      1.00000
     18      -6.9575      1.00000
     19      -6.6149      1.00000
     20      -6.0925      1.00000
     21      -5.9831      1.00000
     22      -5.9808      1.00000
     23      -5.8723      1.00000
     24      -5.7710      1.00000
     25      -1.8253      1.00000
     26      -1.4468      1.00000
     27      -0.3763      1.00000
     28      -0.3637      1.00000
     29       0.2276      1.00000
     30       0.5069      1.00000
     31       0.6314      1.00000
     32       0.6505      1.00000
     33       0.9256      1.00000
     34       1.1141      1.00000
     35       1.3602      1.00000
     36       1.4323      1.00000
     37       1.5102      1.00000
     38       1.7946      1.00000
     39       2.0262      1.00000
     40       2.0410      1.00000
     41       2.1383      1.00000
     42       2.3789      1.00000
     43       2.5783      1.00000
     44       2.6881      1.00000
     45       2.7376      1.00000
     46       2.7823      1.00000
     47       2.9492      1.00000
     48       2.9933      1.00000
     49       5.7383      0.00000
     50       6.2330      0.00000
     51       6.4175      0.00000
     52       6.4415      0.00000
     53       6.5643      0.00000
     54       6.8055      0.00000
     55       6.9226      0.00000
     56       6.9353      0.00000
     57       7.4132      0.00000
     58       7.5296      0.00000
     59       7.8208      0.00000
     60       7.9205      0.00000
     61       8.2515      0.00000
     62       8.2582      0.00000
     63       8.4338      0.00000
     64       8.5140      0.00000

 k-point    11 :      -0.0000    0.4000   -0.0000
  band No.  band energies     occupation 
      1     -32.3802      1.00000
      2     -32.3760      1.00000
      3     -32.3656      1.00000
      4     -32.3654      1.00000
      5     -13.9289      1.00000
      6     -13.8914      1.00000
      7     -13.8409      1.00000
      8     -13.8179      1.00000
      9     -13.7942      1.00000
     10     -13.7885      1.00000
     11     -13.7818      1.00000
     12     -13.7482      1.00000
     13     -13.7281      1.00000
     14     -13.7261      1.00000
     15     -13.7104      1.00000
     16     -13.6944      1.00000
     17      -7.4302      1.00000
     18      -7.1982      1.00000
     19      -6.1892      1.00000
     20      -6.0455      1.00000
     21      -5.9484      1.00000
     22      -5.9215      1.00000
     23      -5.8585      1.00000
     24      -5.8491      1.00000
     25      -1.7264      1.00000
     26      -1.4567      1.00000
     27      -0.7954      1.00000
     28      -0.4949      1.00000
     29      -0.0627      1.00000
     30       0.1353      1.00000
     31       0.7781      1.00000
     32       0.8049      1.00000
     33       1.0748      1.00000
     34       1.2645      1.00000
     35       1.4031      1.00000
     36       1.4636      1.00000
     37       1.5710      1.00000
     38       1.6764      1.00000
     39       1.9681      1.00000
     40       2.1635      1.00000
     41       2.2894      1.00000
     42       2.3113      1.00000
     43       2.3285      1.00000
     44       2.4778      1.00000
     45       2.5823      1.00000
     46       2.8867      1.00000
     47       3.0029      1.00000
     48       3.2102      1.00000
     49       6.4431      0.00000
     50       6.5172      0.00000
     51       6.5207      0.00000
     52       6.7054      0.00000
     53       6.8131      0.00000
     54       7.1396      0.00000
     55       7.3899      0.00000
     56       7.5612      0.00000
     57       7.6852      0.00000
     58       7.7851      0.00000
     59       7.8810      0.00000
     60       7.8838      0.00000
     61       7.9888      0.00000
     62       8.0531      0.00000
     63       8.3638      0.00000
     64       8.5113      0.00000

 k-point    12 :       0.1667    0.4000    0.0000
  band No.  band energies     occupation 
      1     -32.3802      1.00000
      2     -32.3760      1.00000
      3     -32.3656      1.00000
      4     -32.3654      1.00000
      5     -13.9288      1.00000
      6     -13.8913      1.00000
      7     -13.8408      1.00000
      8     -13.8181      1.00000
      9     -13.7942      1.00000
     10     -13.7888      1.00000
     11     -13.7822      1.00000
     12     -13.7482      1.00000
     13     -13.7282      1.00000
     14     -13.7262      1.00000
     15     -13.7103      1.00000
     16     -13.6944      1.00000
     17      -7.3900      1.00000
     18      -7.1761      1.00000
     19      -6.2325      1.00000
     20      -6.0741      1.00000
     21      -5.9732      1.00000
     22      -5.9252      1.00000
     23      -5.8739      1.00000
     24      -5.8417      1.00000
     25      -1.7129      1.00000
     26      -1.4690      1.00000
     27      -0.6814      1.00000
     28      -0.4425      1.00000
     29      -0.0067      1.00000
     30       0.1761      1.00000
     31       0.7231      1.00000
     32       0.8988      1.00000
     33       1.0356      1.00000
     34       1.2846      1.00000
     35       1.3298      1.00000
     36       1.4656      1.00000
     37       1.5697      1.00000
     38       1.6916      1.00000
     39       1.9473      1.00000
     40       2.1434      1.00000
     41       2.1617      1.00000
     42       2.3583      1.00000
     43       2.3704      1.00000
     44       2.4816      1.00000
     45       2.5933      1.00000
     46       2.8962      1.00000
     47       2.9409      1.00000
     48       3.0852      1.00000
     49       6.3369      0.00000
     50       6.4630      0.00000
     51       6.6127      0.00000
     52       6.6852      0.00000
     53       6.7945      0.00000
     54       7.0409      0.00000
     55       7.2431      0.00000
     56       7.4293      0.00000
     57       7.6046      0.00000
     58       7.6947      0.00000
     59       7.8081      0.00000
     60       7.9967      0.00000
     61       8.1189      0.00000
     62       8.2089      0.00000
     63       8.3096      0.00000
     64       8.4480      0.00000

 k-point    13 :      -0.1667    0.4000    0.0000
  band No.  band energies     occupation 
      1     -32.3802      1.00000
      2     -32.3760      1.00000
      3     -32.3656      1.00000
      4     -32.3654      1.00000
      5     -13.9288      1.00000
      6     -13.8913      1.00000
      7     -13.8408      1.00000
      8     -13.8181      1.00000
      9     -13.7942      1.00000
     10     -13.7888      1.00000
     11     -13.7822      1.00000
     12     -13.7482      1.00000
     13     -13.7282      1.00000
     14     -13.7262      1.00000
     15     -13.7103      1.00000
     16     -13.6944      1.00000
     17      -7.3900      1.00000
     18      -7.1761      1.00000
     19      -6.2325      1.00000
     20      -6.0741      1.00000
     21      -5.9732      1.00000
     22      -5.9252      1.00000
     23      -5.8739      1.00000
     24      -5.8417      1.00000
     25      -1.7129      1.00000
     26      -1.4690      1.00000
     27      -0.6814      1.00000
     28      -0.4425      1.00000
     29      -0.0067      1.00000
     30       0.1761      1.00000
     31       0.7231      1.00000
     32       0.8988      1.00000
     33       1.0356      1.00000
     34       1.2846      1.00000
     35       1.3298      1.00000
     36       1.4656      1.00000
     37       1.5697      1.00000
     38       1.6916      1.00000
     39       1.9473      1.00000
     40       2.1434      1.00000
     41       2.1617      1.00000
     42       2.3583      1.00000
     43       2.3704      1.00000
     44       2.4816      1.00000
     45       2.5933      1.00000
     46       2.8962      1.00000
     47       2.9409      1.00000
     48       3.0852      1.00000
     49       6.3369      0.00000
     50       6.4630      0.00000
     51       6.6127      0.00000
     52       6.6852      0.00000
     53       6.7945      0.00000
     54       7.0409      0.00000
     55       7.2431      0.00000
     56       7.4293      0.00000
     57       7.6046      0.00000
     58       7.6947      0.00000
     59       7.8081      0.00000
     60       7.9967      0.00000
     61       8.1189      0.00000
     62       8.2089      0.00000
     63       8.3090      0.00000
     64       8.4346      0.00000

 k-point    14 :       0.3333    0.4000    0.0000
  band No.  band energies     occupation 
      1     -32.3802      1.00000
      2     -32.3760      1.00000
      3     -32.3656      1.00000
      4     -32.3654      1.00000
      5     -13.9285      1.00000
      6     -13.8910      1.00000
      7     -13.8408      1.00000
      8     -13.8186      1.00000
      9     -13.7943      1.00000
     10     -13.7895      1.00000
     11     -13.7829      1.00000
     12     -13.7482      1.00000
     13     -13.7285      1.00000
     14     -13.7264      1.00000
     15     -13.7102      1.00000
     16     -13.6944      1.00000
     17      -7.2947      1.00000
     18      -7.1302      1.00000
     19      -6.3385      1.00000
     20      -6.1410      1.00000
     21      -6.0200      1.00000
     22      -5.9438      1.00000
     23      -5.8851      1.00000
     24      -5.8230      1.00000
     25      -1.6810      1.00000
     26      -1.4988      1.00000
     27      -0.4414      1.00000
     28      -0.3404      1.00000
     29       0.1387      1.00000
     30       0.2929      1.00000
     31       0.7278      1.00000
     32       0.9095      1.00000
     33       1.0610      1.00000
     34       1.1316      1.00000
     35       1.3044      1.00000
     36       1.4535      1.00000
     37       1.4987      1.00000
     38       1.7322      1.00000
     39       1.9067      1.00000
     40       2.0291      1.00000
     41       2.1738      1.00000
     42       2.3026      1.00000
     43       2.4374      1.00000
     44       2.5596      1.00000
     45       2.6260      1.00000
     46       2.7283      1.00000
     47       2.7947      1.00000
     48       2.9670      1.00000
     49       6.1431      0.00000
     50       6.3544      0.00000
     51       6.6192      0.00000
     52       6.7033      0.00000
     53       6.7751      0.00000
     54       6.9660      0.00000
     55       7.1277      0.00000
     56       7.2528      0.00000
     57       7.4679      0.00000
     58       7.6499      0.00000
     59       7.8965      0.00000
     60       8.0153      0.00000
     61       8.1165      0.00000
     62       8.1912      0.00000
     63       8.4539      0.00000
     64       8.5124      0.00000

 k-point    15 :      -0.3333    0.4000    0.0000
  band No.  band energies     occupation 
      1     -32.3802      1.00000
      2     -32.3760      1.00000
      3     -32.3656      1.00000
      4     -32.3654      1.00000
      5     -13.9285      1.00000
      6     -13.8910      1.00000
      7     -13.8408      1.00000
      8     -13.8186      1.00000
      9     -13.7943      1.00000
     10     -13.7895      1.00000
     11     -13.7829      1.00000
     12     -13.7482      1.00000
     13     -13.7285      1.00000
     14     -13.7264      1.00000
     15     -13.7102      1.00000
     16     -13.6944      1.00000
     17      -7.2947      1.00000
     18      -7.1302      1.00000
     19      -6.3385      1.00000
     20      -6.1410      1.00000
     21      -6.0200      1.00000
     22      -5.9438      1.00000
     23      -5.8851      1.00000
     24      -5.8230      1.00000
     25      -1.6810      1.00000
     26      -1.4988      1.00000
     27      -0.4414      1.00000
     28      -0.3404      1.00000
     29       0.1387      1.00000
     30       0.2929      1.00000
     31       0.7278      1.00000
     32       0.9095      1.00000
     33       1.0610      1.00000
     34       1.1316      1.00000
     35       1.3044      1.00000
     36       1.4535      1.00000
     37       1.4987      1.00000
     38       1.7322      1.00000
     39       1.9067      1.00000
     40       2.0291      1.00000
     41       2.1738      1.00000
     42       2.3026      1.00000
     43       2.4374      1.00000
     44       2.5596      1.00000
     45       2.6260      1.00000
     46       2.7283      1.00000
     47       2.7947      1.00000
     48       2.9670      1.00000
     49       6.1431      0.00000
     50       6.3544      0.00000
     51       6.6192      0.00000
     52       6.7033      0.00000
     53       6.7751      0.00000
     54       6.9660      0.00000
     55       7.1277      0.00000
     56       7.2528      0.00000
     57       7.4679      0.00000
     58       7.6499      0.00000
     59       7.8965      0.00000
     60       8.0153      0.00000
     61       8.1165      0.00000
     62       8.1912      0.00000
     63       8.4519      0.00000
     64       8.5131      0.00000

 k-point    16 :       0.5000    0.4000    0.0000
  band No.  band energies     occupation 
      1     -32.3802      1.00000
      2     -32.3760      1.00000
      3     -32.3656      1.00000
      4     -32.3654      1.00000
      5     -13.9284      1.00000
      6     -13.8909      1.00000
      7     -13.8407      1.00000
      8     -13.8188      1.00000
      9     -13.7944      1.00000
     10     -13.7898      1.00000
     11     -13.7833      1.00000
     12     -13.7482      1.00000
     13     -13.7286      1.00000
     14     -13.7266      1.00000
     15     -13.7102      1.00000
     16     -13.6944      1.00000
     17      -7.2341      1.00000
     18      -7.1084      1.00000
     19      -6.4046      1.00000
     20      -6.1772      1.00000
     21      -6.0433      1.00000
     22      -5.9515      1.00000
     23      -5.8878      1.00000
     24      -5.8132      1.00000
     25      -1.6605      1.00000
     26      -1.5184      1.00000
     27      -0.3113      1.00000
     28      -0.2981      1.00000
     29       0.2407      1.00000
     30       0.3876      1.00000
     31       0.7879      1.00000
     32       0.8453      1.00000
     33       0.9931      1.00000
     34       1.1656      1.00000
     35       1.2477      1.00000
     36       1.3442      1.00000
     37       1.4958      1.00000
     38       1.7443      1.00000
     39       1.9014      1.00000
     40       2.0971      1.00000
     41       2.1722      1.00000
     42       2.2182      1.00000
     43       2.3721      1.00000
     44       2.5916      1.00000
     45       2.6560      1.00000
     46       2.6992      1.00000
     47       2.7307      1.00000
     48       2.9020      1.00000
     49       6.0477      0.00000
     50       6.2500      0.00000
     51       6.6210      0.00000
     52       6.7072      0.00000
     53       6.7937      0.00000
     54       6.9967      0.00000
     55       7.0304      0.00000
     56       7.1724      0.00000
     57       7.5406      0.00000
     58       7.7876      0.00000
     59       7.8907      0.00000
     60       7.9353      0.00000
     61       8.1825      0.00000
     62       8.2358      0.00000
     63       8.3275      0.00000
     64       8.4187      0.00000

 k-point    17 :      -0.0000   -0.0000    0.1667
  band No.  band energies     occupation 
      1     -32.3832      1.00000
      2     -32.3693      1.00000
      3     -32.3677      1.00000
      4     -32.3670      1.00000
      5     -13.9452      1.00000
      6     -13.9095      1.00000
      7     -13.9034      1.00000
      8     -13.8161      1.00000
      9     -13.7798      1.00000
     10     -13.7773      1.00000
     11     -13.7405      1.00000
     12     -13.7391      1.00000
     13     -13.7374      1.00000
     14     -13.7315      1.00000
     15     -13.6942      1.00000
     16     -13.6715      1.00000
     17      -7.5865      1.00000
     18      -6.8035      1.00000
     19      -6.4807      1.00000
     20      -6.0441      1.00000
     21      -5.9379      1.00000
     22      -5.9221      1.00000
     23      -5.8725      1.00000
     24      -5.8360      1.00000
     25      -1.8824      1.00000
     26      -1.0779      1.00000
     27      -1.0372      1.00000
     28      -0.4774      1.00000
     29       0.0842      1.00000
     30       0.1558      1.00000
     31       0.5095      1.00000
     32       0.7604      1.00000
     33       0.8464      1.00000
     34       1.1693      1.00000
     35       1.4229      1.00000
     36       1.5317      1.00000
     37       1.7491      1.00000
     38       1.8981      1.00000
     39       1.9895      1.00000
     40       2.0298      1.00000
     41       2.3376      1.00000
     42       2.3411      1.00000
     43       2.5242      1.00000
     44       2.5286      1.00000
     45       2.6930      1.00000
     46       3.0486      1.00000
     47       3.2629      1.00000
     48       3.3651      1.00000
     49       5.3762      0.00000
     50       6.1746      0.00000
     51       6.2922      0.00000
     52       6.4401      0.00000
     53       6.7911      0.00000
     54       7.1843      0.00000
     55       7.3720      0.00000
     56       7.6348      0.00000
     57       7.6888      0.00000
     58       7.7440      0.00000
     59       7.7501      0.00000
     60       7.9080      0.00000
     61       7.9147      0.00000
     62       8.0043      0.00000
     63       8.3540      0.00000
     64       8.3995      0.00000

 k-point    18 :       0.1667   -0.0000    0.1667
  band No.  band energies     occupation 
      1     -32.3832      1.00000
      2     -32.3693      1.00000
      3     -32.3677      1.00000
      4     -32.3670      1.00000
      5     -13.9451      1.00000
      6     -13.9096      1.00000
      7     -13.9033      1.00000
      8     -13.8168      1.00000
      9     -13.7798      1.00000
     10     -13.7773      1.00000
     11     -13.7406      1.00000
     12     -13.7393      1.00000
     13     -13.7376      1.00000
     14     -13.7315      1.00000
     15     -13.6942      1.00000
     16     -13.6715      1.00000
     17      -7.5281      1.00000
     18      -6.7907      1.00000
     19      -6.5289      1.00000
     20      -6.0164      1.00000
     21      -5.9584      1.00000
     22      -5.9537      1.00000
     23      -5.9058      1.00000
     24      -5.8620      1.00000
     25      -1.8230      1.00000
     26      -1.0643      1.00000
     27      -0.9436      1.00000
     28      -0.4914      1.00000
     29       0.2281      1.00000
     30       0.2444      1.00000
     31       0.5681      1.00000
     32       0.7310      1.00000
     33       0.7382      1.00000
     34       1.0835      1.00000
     35       1.5594      1.00000
     36       1.6154      1.00000
     37       1.6452      1.00000
     38       1.9122      1.00000
     39       1.9225      1.00000
     40       2.0693      1.00000
     41       2.2733      1.00000
     42       2.3070      1.00000
     43       2.5150      1.00000
     44       2.5643      1.00000
     45       2.6672      1.00000
     46       2.7055      1.00000
     47       3.2000      1.00000
     48       3.3755      1.00000
     49       5.3817      0.00000
     50       6.2208      0.00000
     51       6.3215      0.00000
     52       6.6011      0.00000
     53       6.8367      0.00000
     54       6.9037      0.00000
     55       7.2519      0.00000
     56       7.5180      0.00000
     57       7.5955      0.00000
     58       7.7277      0.00000
     59       7.7290      0.00000
     60       7.8090      0.00000
     61       7.9162      0.00000
     62       8.1307      0.00000
     63       8.2316      0.00000
     64       8.3280      0.00000

 k-point    19 :       0.3333    0.0000    0.1667
  band No.  band energies     occupation 
      1     -32.3832      1.00000
      2     -32.3693      1.00000
      3     -32.3677      1.00000
      4     -32.3670      1.00000
      5     -13.9449      1.00000
      6     -13.9094      1.00000
      7     -13.9029      1.00000
      8     -13.8184      1.00000
      9     -13.7798      1.00000
     10     -13.7773      1.00000
     11     -13.7409      1.00000
     12     -13.7396      1.00000
     13     -13.7381      1.00000
     14     -13.7316      1.00000
     15     -13.6941      1.00000
     16     -13.6715      1.00000
     17      -7.3950      1.00000
     18      -6.8071      1.00000
     19      -6.6684      1.00000
     20      -6.0743      1.00000
     21      -6.0100      1.00000
     22      -5.9167      1.00000
     23      -5.8875      1.00000
     24      -5.8430      1.00000
     25      -1.7887      1.00000
     26      -1.2291      1.00000
     27      -0.6803      1.00000
     28      -0.5058      1.00000
     29       0.3042      1.00000
     30       0.3537      1.00000
     31       0.6020      1.00000
     32       0.7748      1.00000
     33       0.7829      1.00000
     34       1.0653      1.00000
     35       1.3676      1.00000
     36       1.7090      1.00000
     37       1.7546      1.00000
     38       1.7984      1.00000
     39       1.9660      1.00000
     40       2.0169      1.00000
     41       2.1902      1.00000
     42       2.4335      1.00000
     43       2.5600      1.00000
     44       2.6039      1.00000
     45       2.6842      1.00000
     46       2.7925      1.00000
     47       2.9483      1.00000
     48       3.2162      1.00000
     49       5.4540      0.00000
     50       6.1124      0.00000
     51       6.2353      0.00000
     52       6.5761      0.00000
     53       6.7299      0.00000
     54       6.8566      0.00000
     55       6.9326      0.00000
     56       7.1535      0.00000
     57       7.3941      0.00000
     58       7.5009      0.00000
     59       7.5735      0.00000
     60       7.7243      0.00000
     61       7.9864      0.00000
     62       8.0913      0.00000
     63       8.1705      0.00000
     64       8.3180      0.00000

 k-point    20 :       0.5000   -0.0000    0.1667
  band No.  band energies     occupation 
      1     -32.3832      1.00000
      2     -32.3693      1.00000
      3     -32.3677      1.00000
      4     -32.3670      1.00000
      5     -13.9447      1.00000
      6     -13.9092      1.00000
      7     -13.9027      1.00000
      8     -13.8193      1.00000
      9     -13.7798      1.00000
     10     -13.7773      1.00000
     11     -13.7411      1.00000
     12     -13.7398      1.00000
     13     -13.7384      1.00000
     14     -13.7316      1.00000
     15     -13.6941      1.00000
     16     -13.6715      1.00000
     17      -7.3144      1.00000
     18      -6.8343      1.00000
     19      -6.7511      1.00000
     20      -6.1148      1.00000
     21      -6.0859      1.00000
     22      -5.8635      1.00000
     23      -5.8381      1.00000
     24      -5.7963      1.00000
     25      -1.8191      1.00000
     26      -1.3442      1.00000
     27      -0.5850      1.00000
     28      -0.5237      1.00000
     29       0.3376      1.00000
     30       0.4477      1.00000
     31       0.4687      1.00000
     32       0.8237      1.00000
     33       0.9317      1.00000
     34       1.1448      1.00000
     35       1.2778      1.00000
     36       1.4101      1.00000
     37       1.7881      1.00000
     38       1.8216      1.00000
     39       2.0031      1.00000
     40       2.0292      1.00000
     41       2.2946      1.00000
     42       2.4749      1.00000
     43       2.7092      1.00000
     44       2.7460      1.00000
     45       2.8256      1.00000
     46       2.8329      1.00000
     47       2.9592      1.00000
     48       2.9977      1.00000
     49       5.6349      0.00000
     50       5.9427      0.00000
     51       6.0332      0.00000
     52       6.2963      0.00000
     53       6.5571      0.00000
     54       6.5905      0.00000
     55       6.8454      0.00000
     56       7.0900      0.00000
     57       7.2961      0.00000
     58       7.3794      0.00000
     59       7.5105      0.00000
     60       7.7108      0.00000
     61       7.8968      0.00000
     62       8.2483      0.00000
     63       8.3072      0.00000
     64       8.4962      0.00000

 k-point    21 :      -0.3333    0.0000    0.1667
  band No.  band energies     occupation 
      1     -32.3832      1.00000
      2     -32.3693      1.00000
      3     -32.3677      1.00000
      4     -32.3670      1.00000
      5     -13.9448      1.00000
      6     -13.9091      1.00000
      7     -13.9028      1.00000
      8     -13.8186      1.00000
      9     -13.7797      1.00000
     10     -13.7773      1.00000
     11     -13.7409      1.00000
     12     -13.7396      1.00000
     13     -13.7381      1.00000
     14     -13.7316      1.00000
     15     -13.6941      1.00000
     16     -13.6715      1.00000
     17      -7.4146      1.00000
     18      -6.8453      1.00000
     19      -6.6465      1.00000
     20      -6.1237      1.00000
     21      -6.0679      1.00000
     22      -5.8459      1.00000
     23      -5.8236      1.00000
     24      -5.7734      1.00000
     25      -1.8923      1.00000
     26      -1.3010      1.00000
     27      -0.6817      1.00000
     28      -0.5276      1.00000
     29       0.1210      1.00000
     30       0.2239      1.00000
     31       0.4918      1.00000
     32       0.8072      1.00000
     33       0.9806      1.00000
     34       1.2146      1.00000
     35       1.2360      1.00000
     36       1.6347      1.00000
     37       1.8669      1.00000
     38       1.8876      1.00000
     39       2.0680      1.00000
     40       2.0713      1.00000
     41       2.2901      1.00000
     42       2.4471      1.00000
     43       2.7121      1.00000
     44       2.7663      1.00000
     45       2.8427      1.00000
     46       2.8677      1.00000
     47       2.9616      1.00000
     48       3.0951      1.00000
     49       5.5169      0.00000
     50       5.8308      0.00000
     51       5.9517      0.00000
     52       6.5006      0.00000
     53       6.6281      0.00000
     54       6.9929      0.00000
     55       6.9979      0.00000
     56       7.1841      0.00000
     57       7.2245      0.00000
     58       7.4036      0.00000
     59       7.4814      0.00000
     60       7.5857      0.00000
     61       7.7795      0.00000
     62       7.9978      0.00000
     63       8.3766      0.00000
     64       8.4696      0.00000

 k-point    22 :      -0.1667    0.0000    0.1667
  band No.  band energies     occupation 
      1     -32.3832      1.00000
      2     -32.3693      1.00000
      3     -32.3677      1.00000
      4     -32.3670      1.00000
      5     -13.9451      1.00000
      6     -13.9093      1.00000
      7     -13.9032      1.00000
      8     -13.8170      1.00000
      9     -13.7798      1.00000
     10     -13.7774      1.00000
     11     -13.7406      1.00000
     12     -13.7393      1.00000
     13     -13.7376      1.00000
     14     -13.7315      1.00000
     15     -13.6942      1.00000
     16     -13.6715      1.00000
     17      -7.5410      1.00000
     18      -6.8307      1.00000
     19      -6.5292      1.00000
     20      -6.0981      1.00000
     21      -5.9574      1.00000
     22      -5.8790      1.00000
     23      -5.8545      1.00000
     24      -5.7938      1.00000
     25      -1.9190      1.00000
     26      -1.1606      1.00000
     27      -0.9387      1.00000
     28      -0.4798      1.00000
     29      -0.0424      1.00000
     30       0.1436      1.00000
     31       0.5210      1.00000
     32       0.7988      1.00000
     33       0.9741      1.00000
     34       1.2026      1.00000
     35       1.2605      1.00000
     36       1.5394      1.00000
     37       1.8567      1.00000
     38       1.9066      1.00000
     39       2.0280      1.00000
     40       2.1927      1.00000
     41       2.3223      1.00000
     42       2.5786      1.00000
     43       2.6384      1.00000
     44       2.6499      1.00000
     45       2.7421      1.00000
     46       2.8116      1.00000
     47       3.1850      1.00000
     48       3.1926      1.00000
     49       5.4059      0.00000
     50       6.0354      0.00000
     51       6.0512      0.00000
     52       6.6179      0.00000
     53       6.9523      0.00000
     54       7.0822      0.00000
     55       7.2498      0.00000
     56       7.3074      0.00000
     57       7.3620      0.00000
     58       7.5750      0.00000
     59       7.6395      0.00000
     60       7.8153      0.00000
     61       7.8396      0.00000
     62       8.0510      0.00000
     63       8.2894      0.00000
     64       8.3748      0.00000

 k-point    23 :      -0.0000    0.2000    0.1667
  band No.  band energies     occupation 
      1     -32.3822      1.00000
      2     -32.3716      1.00000
      3     -32.3672      1.00000
      4     -32.3663      1.00000
      5     -13.9388      1.00000
      6     -13.9057      1.00000
      7     -13.8810      1.00000
      8     -13.8152      1.00000
      9     -13.8026      1.00000
     10     -13.7596      1.00000
     11     -13.7489      1.00000
     12     -13.7465      1.00000
     13     -13.7358      1.00000
     14     -13.7299      1.00000
     15     -13.7060      1.00000
     16     -13.6778      1.00000
     17      -7.5340      1.00000
     18      -6.9361      1.00000
     19      -6.3959      1.00000
     20      -6.0384      1.00000
     21      -5.9824      1.00000
     22      -5.8933      1.00000
     23      -5.8695      1.00000
     24      -5.8408      1.00000
     25      -1.8050      1.00000
     26      -1.1443      1.00000
     27      -0.9880      1.00000
     28      -0.3992      1.00000
     29      -0.0782      1.00000
     30       0.3393      1.00000
     31       0.5236      1.00000
     32       0.5670      1.00000
     33       1.0304      1.00000
     34       1.2474      1.00000
     35       1.2896      1.00000
     36       1.6653      1.00000
     37       1.7193      1.00000
     38       1.7897      1.00000
     39       1.9379      1.00000
     40       2.0644      1.00000
     41       2.2876      1.00000
     42       2.3746      1.00000
     43       2.4245      1.00000
     44       2.5275      1.00000
     45       2.7474      1.00000
     46       2.8087      1.00000
     47       3.1059      1.00000
     48       3.3418      1.00000
     49       5.7530      0.00000
     50       6.0280      0.00000
     51       6.4214      0.00000
     52       6.5867      0.00000
     53       6.8326      0.00000
     54       7.2018      0.00000
     55       7.4446      0.00000
     56       7.5832      0.00000
     57       7.6483      0.00000
     58       7.6950      0.00000
     59       7.8186      0.00000
     60       7.9709      0.00000
     61       8.1849      0.00000
     62       8.2541      0.00000
     63       8.2792      0.00000
     64       8.4502      0.00000

 k-point    24 :       0.0000    0.2000   -0.1667
  band No.  band energies     occupation 
      1     -32.3822      1.00000
      2     -32.3716      1.00000
      3     -32.3672      1.00000
      4     -32.3663      1.00000
      5     -13.9388      1.00000
      6     -13.9057      1.00000
      7     -13.8810      1.00000
      8     -13.8152      1.00000
      9     -13.8026      1.00000
     10     -13.7596      1.00000
     11     -13.7489      1.00000
     12     -13.7465      1.00000
     13     -13.7358      1.00000
     14     -13.7299      1.00000
     15     -13.7060      1.00000
     16     -13.6778      1.00000
     17      -7.5340      1.00000
     18      -6.9361      1.00000
     19      -6.3959      1.00000
     20      -6.0384      1.00000
     21      -5.9824      1.00000
     22      -5.8933      1.00000
     23      -5.8695      1.00000
     24      -5.8408      1.00000
     25      -1.8050      1.00000
     26      -1.1443      1.00000
     27      -0.9880      1.00000
     28      -0.3992      1.00000
     29      -0.0782      1.00000
     30       0.3393      1.00000
     31       0.5236      1.00000
     32       0.5670      1.00000
     33       1.0304      1.00000
     34       1.2474      1.00000
     35       1.2896      1.00000
     36       1.6653      1.00000
     37       1.7193      1.00000
     38       1.7897      1.00000
     39       1.9379      1.00000
     40       2.0644      1.00000
     41       2.2876      1.00000
     42       2.3746      1.00000
     43       2.4245      1.00000
     44       2.5275      1.00000
     45       2.7474      1.00000
     46       2.8087      1.00000
     47       3.1059      1.00000
     48       3.3418      1.00000
     49       5.7530      0.00000
     50       6.0280      0.00000
     51       6.4214      0.00000
     52       6.5867      0.00000
     53       6.8326      0.00000
     54       7.2018      0.00000
     55       7.4446      0.00000
     56       7.5832      0.00000
     57       7.6483      0.00000
     58       7.6950      0.00000
     59       7.8186      0.00000
     60       7.9709      0.00000
     61       8.1849      0.00000
     62       8.2538      0.00000
     63       8.2785      0.00000
     64       8.4286      0.00000

 k-point    25 :       0.1667    0.2000    0.1667
  band No.  band energies     occupation 
      1     -32.3822      1.00000
      2     -32.3716      1.00000
      3     -32.3672      1.00000
      4     -32.3663      1.00000
      5     -13.9387      1.00000
      6     -13.9056      1.00000
      7     -13.8810      1.00000
      8     -13.8154      1.00000
      9     -13.8031      1.00000
     10     -13.7597      1.00000
     11     -13.7490      1.00000
     12     -13.7465      1.00000
     13     -13.7359      1.00000
     14     -13.7300      1.00000
     15     -13.7060      1.00000
     16     -13.6778      1.00000
     17      -7.4783      1.00000
     18      -6.9189      1.00000
     19      -6.4360      1.00000
     20      -6.0595      1.00000
     21      -5.9884      1.00000
     22      -5.9251      1.00000
     23      -5.8800      1.00000
     24      -5.8647      1.00000
     25      -1.7532      1.00000
     26      -1.1668      1.00000
     27      -0.8609      1.00000
     28      -0.3961      1.00000
     29       0.0612      1.00000
     30       0.4135      1.00000
     31       0.5315      1.00000
     32       0.5999      1.00000
     33       0.9096      1.00000
     34       1.1784      1.00000
     35       1.4346      1.00000
     36       1.6589      1.00000
     37       1.6852      1.00000
     38       1.7309      1.00000
     39       2.0094      1.00000
     40       2.0875      1.00000
     41       2.2236      1.00000
     42       2.3911      1.00000
     43       2.4017      1.00000
     44       2.4989      1.00000
     45       2.5989      1.00000
     46       2.7398      1.00000
     47       3.0511      1.00000
     48       3.1625      1.00000
     49       5.7562      0.00000
     50       6.0457      0.00000
     51       6.4853      0.00000
     52       6.5683      0.00000
     53       6.8155      0.00000
     54       6.9458      0.00000
     55       7.3117      0.00000
     56       7.5800      0.00000
     57       7.6727      0.00000
     58       7.7097      0.00000
     59       7.7875      0.00000
     60       8.0248      0.00000
     61       8.1639      0.00000
     62       8.1792      0.00000
     63       8.3245      0.00000
     64       8.4143      0.00000

 k-point    26 :      -0.1667    0.2000   -0.1667
  band No.  band energies     occupation 
      1     -32.3822      1.00000
      2     -32.3716      1.00000
      3     -32.3672      1.00000
      4     -32.3663      1.00000
      5     -13.9387      1.00000
      6     -13.9056      1.00000
      7     -13.8810      1.00000
      8     -13.8154      1.00000
      9     -13.8031      1.00000
     10     -13.7597      1.00000
     11     -13.7490      1.00000
     12     -13.7465      1.00000
     13     -13.7359      1.00000
     14     -13.7300      1.00000
     15     -13.7060      1.00000
     16     -13.6778      1.00000
     17      -7.4783      1.00000
     18      -6.9189      1.00000
     19      -6.4360      1.00000
     20      -6.0595      1.00000
     21      -5.9884      1.00000
     22      -5.9251      1.00000
     23      -5.8800      1.00000
     24      -5.8647      1.00000
     25      -1.7532      1.00000
     26      -1.1668      1.00000
     27      -0.8609      1.00000
     28      -0.3961      1.00000
     29       0.0612      1.00000
     30       0.4135      1.00000
     31       0.5315      1.00000
     32       0.5999      1.00000
     33       0.9096      1.00000
     34       1.1784      1.00000
     35       1.4346      1.00000
     36       1.6589      1.00000
     37       1.6852      1.00000
     38       1.7309      1.00000
     39       2.0094      1.00000
     40       2.0875      1.00000
     41       2.2236      1.00000
     42       2.3911      1.00000
     43       2.4017      1.00000
     44       2.4989      1.00000
     45       2.5989      1.00000
     46       2.7398      1.00000
     47       3.0511      1.00000
     48       3.1625      1.00000
     49       5.7562      0.00000
     50       6.0457      0.00000
     51       6.4853      0.00000
     52       6.5683      0.00000
     53       6.8155      0.00000
     54       6.9458      0.00000
     55       7.3117      0.00000
     56       7.5800      0.00000
     57       7.6727      0.00000
     58       7.7097      0.00000
     59       7.7875      0.00000
     60       8.0248      0.00000
     61       8.1640      0.00000
     62       8.1792      0.00000
     63       8.3257      0.00000
     64       8.4172      0.00000

 k-point    27 :       0.3333    0.2000    0.1667
  band No.  band energies     occupation 
      1     -32.3822      1.00000
      2     -32.3716      1.00000
      3     -32.3672      1.00000
      4     -32.3663      1.00000
      5     -13.9384      1.00000
      6     -13.9053      1.00000
      7     -13.8807      1.00000
      8     -13.8162      1.00000
      9     -13.8036      1.00000
     10     -13.7602      1.00000
     11     -13.7492      1.00000
     12     -13.7466      1.00000
     13     -13.7363      1.00000
     14     -13.7303      1.00000
     15     -13.7059      1.00000
     16     -13.6778      1.00000
     17      -7.3564      1.00000
     18      -6.9269      1.00000
     19      -6.5500      1.00000
     20      -6.0929      1.00000
     21      -6.0083      1.00000
     22      -5.9754      1.00000
     23      -5.8607      1.00000
     24      -5.8442      1.00000
     25      -1.7212      1.00000
     26      -1.2886      1.00000
     27      -0.6171      1.00000
     28      -0.4194      1.00000
     29       0.2262      1.00000
     30       0.4221      1.00000
     31       0.5774      1.00000
     32       0.7529      1.00000
     33       0.8661      1.00000
     34       1.1283      1.00000
     35       1.4590      1.00000
     36       1.5891      1.00000
     37       1.6567      1.00000
     38       1.7667      1.00000
     39       1.9389      1.00000
     40       2.0955      1.00000
     41       2.2063      1.00000
     42       2.2942      1.00000
     43       2.4903      1.00000
     44       2.5513      1.00000
     45       2.6554      1.00000
     46       2.7690      1.00000
     47       2.8981      1.00000
     48       3.0268      1.00000
     49       5.7508      0.00000
     50       6.0353      0.00000
     51       6.3353      0.00000
     52       6.5820      0.00000
     53       6.6206      0.00000
     54       7.0117      0.00000
     55       7.0751      0.00000
     56       7.1134      0.00000
     57       7.3950      0.00000
     58       7.6788      0.00000
     59       7.7644      0.00000
     60       7.8679      0.00000
     61       7.9799      0.00000
     62       8.0717      0.00000
     63       8.2600      0.00000
     64       8.5089      0.00000

 k-point    28 :      -0.3333    0.2000   -0.1667
  band No.  band energies     occupation 
      1     -32.3822      1.00000
      2     -32.3716      1.00000
      3     -32.3672      1.00000
      4     -32.3663      1.00000
      5     -13.9384      1.00000
      6     -13.9053      1.00000
      7     -13.8807      1.00000
      8     -13.8162      1.00000
      9     -13.8036      1.00000
     10     -13.7602      1.00000
     11     -13.7492      1.00000
     12     -13.7466      1.00000
     13     -13.7363      1.00000
     14     -13.7303      1.00000
     15     -13.7059      1.00000
     16     -13.6778      1.00000
     17      -7.3564      1.00000
     18      -6.9269      1.00000
     19      -6.5500      1.00000
     20      -6.0929      1.00000
     21      -6.0083      1.00000
     22      -5.9754      1.00000
     23      -5.8607      1.00000
     24      -5.8442      1.00000
     25      -1.7212      1.00000
     26      -1.2886      1.00000
     27      -0.6171      1.00000
     28      -0.4194      1.00000
     29       0.2262      1.00000
     30       0.4221      1.00000
     31       0.5774      1.00000
     32       0.7529      1.00000
     33       0.8661      1.00000
     34       1.1283      1.00000
     35       1.4590      1.00000
     36       1.5891      1.00000
     37       1.6567      1.00000
     38       1.7667      1.00000
     39       1.9389      1.00000
     40       2.0955      1.00000
     41       2.2063      1.00000
     42       2.2942      1.00000
     43       2.4903      1.00000
     44       2.5513      1.00000
     45       2.6554      1.00000
     46       2.7690      1.00000
     47       2.8981      1.00000
     48       3.0268      1.00000
     49       5.7508      0.00000
     50       6.0353      0.00000
     51       6.3353      0.00000
     52       6.5820      0.00000
     53       6.6206      0.00000
     54       7.0117      0.00000
     55       7.0751      0.00000
     56       7.1134      0.00000
     57       7.3950      0.00000
     58       7.6788      0.00000
     59       7.7644      0.00000
     60       7.8679      0.00000
     61       7.9799      0.00000
     62       8.0717      0.00000
     63       8.2600      0.00000
     64       8.5209      0.00000

 k-point    29 :       0.5000    0.2000    0.1667
  band No.  band energies     occupation 
      1     -32.3822      1.00000
      2     -32.3716      1.00000
      3     -32.3672      1.00000
      4     -32.3663      1.00000
      5     -13.9383      1.00000
      6     -13.9051      1.00000
      7     -13.8806      1.00000
      8     -13.8169      1.00000
      9     -13.8037      1.00000
     10     -13.7604      1.00000
     11     -13.7493      1.00000
     12     -13.7466      1.00000
     13     -13.7364      1.00000
     14     -13.7305      1.00000
     15     -13.7058      1.00000
     16     -13.6778      1.00000
     17      -7.2874      1.00000
     18      -6.9542      1.00000
     19      -6.6093      1.00000
     20      -6.1226      1.00000
     21      -6.0650      1.00000
     22      -5.9367      1.00000
     23      -5.8423      1.00000
     24      -5.8006      1.00000
     25      -1.7456      1.00000
     26      -1.3716      1.00000
     27      -0.5244      1.00000
     28      -0.4674      1.00000
     29       0.2983      1.00000
     30       0.4940      1.00000
     31       0.5395      1.00000
     32       0.7193      1.00000
     33       1.0125      1.00000
     34       1.1559      1.00000
     35       1.3709      1.00000
     36       1.3887      1.00000
     37       1.6854      1.00000
     38       1.7440      1.00000
     39       1.9036      1.00000
     40       2.1932      1.00000
     41       2.2185      1.00000
     42       2.4031      1.00000
     43       2.5707      1.00000
     44       2.6513      1.00000
     45       2.7280      1.00000
     46       2.7880      1.00000
     47       2.8701      1.00000
     48       3.0215      1.00000
     49       5.8016      0.00000
     50       6.0141      0.00000
     51       6.1570      0.00000
     52       6.5324      0.00000
     53       6.5622      0.00000
     54       6.7090      0.00000
     55       6.8077      0.00000
     56       7.0437      0.00000
     57       7.3579      0.00000
     58       7.5758      0.00000
     59       7.6718      0.00000
     60       7.8650      0.00000
     61       8.0683      0.00000
     62       8.0950      0.00000
     63       8.2260      0.00000
     64       8.3825      0.00000

 k-point    30 :       0.5000    0.2000   -0.1667
  band No.  band energies     occupation 
      1     -32.3822      1.00000
      2     -32.3716      1.00000
      3     -32.3672      1.00000
      4     -32.3663      1.00000
      5     -13.9383      1.00000
      6     -13.9051      1.00000
      7     -13.8806      1.00000
      8     -13.8169      1.00000
      9     -13.8037      1.00000
     10     -13.7604      1.00000
     11     -13.7493      1.00000
     12     -13.7466      1.00000
     13     -13.7364      1.00000
     14     -13.7305      1.00000
     15     -13.7058      1.00000
     16     -13.6778      1.00000
     17      -7.2874      1.00000
     18      -6.9542      1.00000
     19      -6.6093      1.00000
     20      -6.1226      1.00000
     21      -6.0650      1.00000
     22      -5.9367      1.00000
     23      -5.8423      1.00000
     24      -5.8006      1.00000
     25      -1.7456      1.00000
     26      -1.3716      1.00000
     27      -0.5244      1.00000
     28      -0.4674      1.00000
     29       0.2983      1.00000
     30       0.4940      1.00000
     31       0.5395      1.00000
     32       0.7193      1.00000
     33       1.0125      1.00000
     34       1.1559      1.00000
     35       1.3709      1.00000
     36       1.3887      1.00000
     37       1.6854      1.00000
     38       1.7440      1.00000
     39       1.9036      1.00000
     40       2.1932      1.00000
     41       2.2185      1.00000
     42       2.4031      1.00000
     43       2.5707      1.00000
     44       2.6513      1.00000
     45       2.7280      1.00000
     46       2.7880      1.00000
     47       2.8701      1.00000
     48       3.0215      1.00000
     49       5.8016      0.00000
     50       6.0141      0.00000
     51       6.1570      0.00000
     52       6.5324      0.00000
     53       6.5622      0.00000
     54       6.7090      0.00000
     55       6.8077      0.00000
     56       7.0437      0.00000
     57       7.3579      0.00000
     58       7.5758      0.00000
     59       7.6718      0.00000
     60       7.8650      0.00000
     61       8.0683      0.00000
     62       8.0950      0.00000
     63       8.2260      0.00000
     64       8.3826      0.00000

 k-point    31 :      -0.3333    0.2000    0.1667
  band No.  band energies     occupation 
      1     -32.3822      1.00000
      2     -32.3716      1.00000
      3     -32.3672      1.00000
      4     -32.3663      1.00000
      5     -13.9384      1.00000
      6     -13.9052      1.00000
      7     -13.8806      1.00000
      8     -13.8166      1.00000
      9     -13.8034      1.00000
     10     -13.7602      1.00000
     11     -13.7492      1.00000
     12     -13.7466      1.00000
     13     -13.7363      1.00000
     14     -13.7303      1.00000
     15     -13.7058      1.00000
     16     -13.6778      1.00000
     17      -7.3785      1.00000
     18      -6.9578      1.00000
     19      -6.5300      1.00000
     20      -6.1194      1.00000
     21      -6.0481      1.00000
     22      -5.8959      1.00000
     23      -5.8484      1.00000
     24      -5.7824      1.00000
     25      -1.8108      1.00000
     26      -1.3317      1.00000
     27      -0.6271      1.00000
     28      -0.4930      1.00000
     29       0.0898      1.00000
     30       0.3300      1.00000
     31       0.5351      1.00000
     32       0.7299      1.00000
     33       1.0342      1.00000
     34       1.2065      1.00000
     35       1.3186      1.00000
     36       1.6530      1.00000
     37       1.7120      1.00000
     38       1.7509      1.00000
     39       1.8976      1.00000
     40       2.1889      1.00000
     41       2.2576      1.00000
     42       2.5192      1.00000
     43       2.5290      1.00000
     44       2.6687      1.00000
     45       2.7500      1.00000
     46       2.8406      1.00000
     47       2.8566      1.00000
     48       3.2078      1.00000
     49       5.7105      0.00000
     50       5.8888      0.00000
     51       6.1873      0.00000
     52       6.6940      0.00000
     53       6.7969      0.00000
     54       6.8322      0.00000
     55       6.9581      0.00000
     56       7.1227      0.00000
     57       7.3099      0.00000
     58       7.5016      0.00000
     59       7.6028      0.00000
     60       7.6929      0.00000
     61       7.9581      0.00000
     62       8.0338      0.00000
     63       8.3265      0.00000
     64       8.4219      0.00000

 k-point    32 :       0.3333    0.2000   -0.1667
  band No.  band energies     occupation 
      1     -32.3822      1.00000
      2     -32.3716      1.00000
      3     -32.3672      1.00000
      4     -32.3663      1.00000
      5     -13.9384      1.00000
      6     -13.9052      1.00000
      7     -13.8806      1.00000
      8     -13.8166      1.00000
      9     -13.8034      1.00000
     10     -13.7602      1.00000
     11     -13.7492      1.00000
     12     -13.7466      1.00000
     13     -13.7363      1.00000
     14     -13.7303      1.00000
     15     -13.7058      1.00000
     16     -13.6778      1.00000
     17      -7.3785      1.00000
     18      -6.9578      1.00000
     19      -6.5300      1.00000
     20      -6.1194      1.00000
     21      -6.0481      1.00000
     22      -5.8959      1.00000
     23      -5.8484      1.00000
     24      -5.7824      1.00000
     25      -1.8108      1.00000
     26      -1.3317      1.00000
     27      -0.6271      1.00000
     28      -0.4930      1.00000
     29       0.0898      1.00000
     30       0.3300      1.00000
     31       0.5351      1.00000
     32       0.7299      1.00000
     33       1.0342      1.00000
     34       1.2065      1.00000
     35       1.3186      1.00000
     36       1.6530      1.00000
     37       1.7120      1.00000
     38       1.7509      1.00000
     39       1.8976      1.00000
     40       2.1889      1.00000
     41       2.2576      1.00000
     42       2.5192      1.00000
     43       2.5290      1.00000
     44       2.6687      1.00000
     45       2.7500      1.00000
     46       2.8406      1.00000
     47       2.8566      1.00000
     48       3.2078      1.00000
     49       5.7105      0.00000
     50       5.8888      0.00000
     51       6.1873      0.00000
     52       6.6940      0.00000
     53       6.7969      0.00000
     54       6.8322      0.00000
     55       6.9581      0.00000
     56       7.1227      0.00000
     57       7.3099      0.00000
     58       7.5016      0.00000
     59       7.6028      0.00000
     60       7.6929      0.00000
     61       7.9581      0.00000
     62       8.0338      0.00000
     63       8.3268      0.00000
     64       8.4213      0.00000

 k-point    33 :      -0.1667    0.2000    0.1667
  band No.  band energies     occupation 
      1     -32.3822      1.00000
      2     -32.3716      1.00000
      3     -32.3672      1.00000
      4     -32.3663      1.00000
      5     -13.9387      1.00000
      6     -13.9055      1.00000
      7     -13.8808      1.00000
      8     -13.8158      1.00000
      9     -13.8028      1.00000
     10     -13.7598      1.00000
     11     -13.7490      1.00000
     12     -13.7466      1.00000
     13     -13.7360      1.00000
     14     -13.7300      1.00000
     15     -13.7059      1.00000
     16     -13.6778      1.00000
     17      -7.4934      1.00000
     18      -6.9530      1.00000
     19      -6.4364      1.00000
     20      -6.0763      1.00000
     21      -5.9682      1.00000
     22      -5.9079      1.00000
     23      -5.8562      1.00000
     24      -5.8054      1.00000
     25      -1.8360      1.00000
     26      -1.2258      1.00000
     27      -0.8700      1.00000
     28      -0.4390      1.00000
     29      -0.0995      1.00000
     30       0.2649      1.00000
     31       0.5268      1.00000
     32       0.7006      1.00000
     33       1.0586      1.00000
     34       1.1990      1.00000
     35       1.3021      1.00000
     36       1.6327      1.00000
     37       1.7357      1.00000
     38       1.8240      1.00000
     39       1.9307      1.00000
     40       2.1774      1.00000
     41       2.4160      1.00000
     42       2.4380      1.00000
     43       2.4601      1.00000
     44       2.5257      1.00000
     45       2.6941      1.00000
     46       2.8284      1.00000
     47       3.1006      1.00000
     48       3.3226      1.00000
     49       5.7060      0.00000
     50       5.9423      0.00000
     51       6.3629      0.00000
     52       6.6206      0.00000
     53       6.8816      0.00000
     54       7.1486      0.00000
     55       7.2468      0.00000
     56       7.4108      0.00000
     57       7.4624      0.00000
     58       7.6076      0.00000
     59       7.7200      0.00000
     60       7.7804      0.00000
     61       7.9592      0.00000
     62       7.9877      0.00000
     63       8.3547      0.00000
     64       8.4089      0.00000

 k-point    34 :       0.1667    0.2000   -0.1667
  band No.  band energies     occupation 
      1     -32.3822      1.00000
      2     -32.3716      1.00000
      3     -32.3672      1.00000
      4     -32.3663      1.00000
      5     -13.9387      1.00000
      6     -13.9055      1.00000
      7     -13.8808      1.00000
      8     -13.8158      1.00000
      9     -13.8028      1.00000
     10     -13.7598      1.00000
     11     -13.7490      1.00000
     12     -13.7466      1.00000
     13     -13.7360      1.00000
     14     -13.7300      1.00000
     15     -13.7059      1.00000
     16     -13.6778      1.00000
     17      -7.4934      1.00000
     18      -6.9530      1.00000
     19      -6.4364      1.00000
     20      -6.0763      1.00000
     21      -5.9682      1.00000
     22      -5.9079      1.00000
     23      -5.8562      1.00000
     24      -5.8054      1.00000
     25      -1.8360      1.00000
     26      -1.2258      1.00000
     27      -0.8700      1.00000
     28      -0.4390      1.00000
     29      -0.0995      1.00000
     30       0.2649      1.00000
     31       0.5268      1.00000
     32       0.7006      1.00000
     33       1.0586      1.00000
     34       1.1990      1.00000
     35       1.3021      1.00000
     36       1.6327      1.00000
     37       1.7357      1.00000
     38       1.8240      1.00000
     39       1.9307      1.00000
     40       2.1774      1.00000
     41       2.4160      1.00000
     42       2.4380      1.00000
     43       2.4601      1.00000
     44       2.5257      1.00000
     45       2.6941      1.00000
     46       2.8284      1.00000
     47       3.1006      1.00000
     48       3.3226      1.00000
     49       5.7060      0.00000
     50       5.9423      0.00000
     51       6.3629      0.00000
     52       6.6206      0.00000
     53       6.8816      0.00000
     54       7.1486      0.00000
     55       7.2468      0.00000
     56       7.4108      0.00000
     57       7.4624      0.00000
     58       7.6076      0.00000
     59       7.7200      0.00000
     60       7.7804      0.00000
     61       7.9592      0.00000
     62       7.9877      0.00000
     63       8.3548      0.00000
     64       8.4018      0.00000

 k-point    35 :      -0.0000    0.4000    0.1667
  band No.  band energies     occupation 
      1     -32.3793      1.00000
      2     -32.3754      1.00000
      3     -32.3665      1.00000
      4     -32.3660      1.00000
      5     -13.9209      1.00000
      6     -13.9030      1.00000
      7     -13.8326      1.00000
      8     -13.8158      1.00000
      9     -13.7924      1.00000
     10     -13.7859      1.00000
     11     -13.7788      1.00000
     12     -13.7609      1.00000
     13     -13.7329      1.00000
     14     -13.7293      1.00000
     15     -13.7077      1.00000
     16     -13.6908      1.00000
     17      -7.3857      1.00000
     18      -7.1694      1.00000
     19      -6.2620      1.00000
     20      -6.1310      1.00000
     21      -5.9459      1.00000
     22      -5.9027      1.00000
     23      -5.8571      1.00000
     24      -5.8481      1.00000
     25      -1.6024      1.00000
     26      -1.3525      1.00000
     27      -0.7721      1.00000
     28      -0.4986      1.00000
     29      -0.0583      1.00000
     30       0.2164      1.00000
     31       0.6269      1.00000
     32       0.6923      1.00000
     33       1.1443      1.00000
     34       1.2087      1.00000
     35       1.4786      1.00000
     36       1.5184      1.00000
     37       1.5712      1.00000
     38       1.7267      1.00000
     39       1.8534      1.00000
     40       2.1391      1.00000
     41       2.1764      1.00000
     42       2.2989      1.00000
     43       2.3906      1.00000
     44       2.4741      1.00000
     45       2.6250      1.00000
     46       2.9213      1.00000
     47       2.9533      1.00000
     48       3.0940      1.00000
     49       5.9970      0.00000
     50       6.2141      0.00000
     51       6.5980      0.00000
     52       6.8473      0.00000
     53       7.0194      0.00000
     54       7.2267      0.00000
     55       7.3269      0.00000
     56       7.5745      0.00000
     57       7.6890      0.00000
     58       7.7385      0.00000
     59       7.7853      0.00000
     60       7.9319      0.00000
     61       8.1914      0.00000
     62       8.2164      0.00000
     63       8.3612      0.00000
     64       8.4659      0.00000

 k-point    36 :       0.0000    0.4000   -0.1667
  band No.  band energies     occupation 
      1     -32.3793      1.00000
      2     -32.3754      1.00000
      3     -32.3665      1.00000
      4     -32.3660      1.00000
      5     -13.9209      1.00000
      6     -13.9030      1.00000
      7     -13.8326      1.00000
      8     -13.8158      1.00000
      9     -13.7924      1.00000
     10     -13.7859      1.00000
     11     -13.7788      1.00000
     12     -13.7609      1.00000
     13     -13.7329      1.00000
     14     -13.7293      1.00000
     15     -13.7077      1.00000
     16     -13.6908      1.00000
     17      -7.3857      1.00000
     18      -7.1694      1.00000
     19      -6.2620      1.00000
     20      -6.1310      1.00000
     21      -5.9459      1.00000
     22      -5.9027      1.00000
     23      -5.8571      1.00000
     24      -5.8481      1.00000
     25      -1.6024      1.00000
     26      -1.3525      1.00000
     27      -0.7721      1.00000
     28      -0.4986      1.00000
     29      -0.0583      1.00000
     30       0.2164      1.00000
     31       0.6269      1.00000
     32       0.6923      1.00000
     33       1.1443      1.00000
     34       1.2087      1.00000
     35       1.4786      1.00000
     36       1.5184      1.00000
     37       1.5712      1.00000
     38       1.7267      1.00000
     39       1.8534      1.00000
     40       2.1391      1.00000
     41       2.1764      1.00000
     42       2.2989      1.00000
     43       2.3906      1.00000
     44       2.4741      1.00000
     45       2.6250      1.00000
     46       2.9213      1.00000
     47       2.9533      1.00000
     48       3.0940      1.00000
     49       5.9970      0.00000
     50       6.2141      0.00000
     51       6.5980      0.00000
     52       6.8473      0.00000
     53       7.0194      0.00000
     54       7.2267      0.00000
     55       7.3269      0.00000
     56       7.5745      0.00000
     57       7.6890      0.00000
     58       7.7385      0.00000
     59       7.7853      0.00000
     60       7.9319      0.00000
     61       8.1914      0.00000
     62       8.2164      0.00000
     63       8.3614      0.00000
     64       8.4694      0.00000

 k-point    37 :       0.1667    0.4000    0.1667
  band No.  band energies     occupation 
      1     -32.3793      1.00000
      2     -32.3754      1.00000
      3     -32.3665      1.00000
      4     -32.3660      1.00000
      5     -13.9208      1.00000
      6     -13.9029      1.00000
      7     -13.8328      1.00000
      8     -13.8158      1.00000
      9     -13.7931      1.00000
     10     -13.7859      1.00000
     11     -13.7789      1.00000
     12     -13.7610      1.00000
     13     -13.7331      1.00000
     14     -13.7294      1.00000
     15     -13.7077      1.00000
     16     -13.6908      1.00000
     17      -7.3382      1.00000
     18      -7.1360      1.00000
     19      -6.2987      1.00000
     20      -6.1705      1.00000
     21      -5.9572      1.00000
     22      -5.9365      1.00000
     23      -5.8667      1.00000
     24      -5.8582      1.00000
     25      -1.5731      1.00000
     26      -1.3552      1.00000
     27      -0.6552      1.00000
     28      -0.4148      1.00000
     29       0.0105      1.00000
     30       0.2349      1.00000
     31       0.6468      1.00000
     32       0.7781      1.00000
     33       1.0922      1.00000
     34       1.2099      1.00000
     35       1.3937      1.00000
     36       1.4917      1.00000
     37       1.6358      1.00000
     38       1.8077      1.00000
     39       1.8761      1.00000
     40       2.0679      1.00000
     41       2.2389      1.00000
     42       2.3245      1.00000
     43       2.3719      1.00000
     44       2.4429      1.00000
     45       2.5082      1.00000
     46       2.7188      1.00000
     47       2.8457      1.00000
     48       2.9345      1.00000
     49       5.9955      0.00000
     50       6.2009      0.00000
     51       6.4952      0.00000
     52       6.7202      0.00000
     53       6.8617      0.00000
     54       7.0753      0.00000
     55       7.1792      0.00000
     56       7.5144      0.00000
     57       7.6852      0.00000
     58       7.8578      0.00000
     59       8.0446      0.00000
     60       8.0871      0.00000
     61       8.2333      0.00000
     62       8.4601      0.00000
     63       8.5237      0.00000
     64       8.5703      0.00000

 k-point    38 :      -0.1667    0.4000   -0.1667
  band No.  band energies     occupation 
      1     -32.3793      1.00000
      2     -32.3754      1.00000
      3     -32.3665      1.00000
      4     -32.3660      1.00000
      5     -13.9208      1.00000
      6     -13.9029      1.00000
      7     -13.8328      1.00000
      8     -13.8158      1.00000
      9     -13.7931      1.00000
     10     -13.7859      1.00000
     11     -13.7789      1.00000
     12     -13.7610      1.00000
     13     -13.7331      1.00000
     14     -13.7294      1.00000
     15     -13.7077      1.00000
     16     -13.6908      1.00000
     17      -7.3382      1.00000
     18      -7.1360      1.00000
     19      -6.2987      1.00000
     20      -6.1705      1.00000
     21      -5.9572      1.00000
     22      -5.9365      1.00000
     23      -5.8667      1.00000
     24      -5.8582      1.00000
     25      -1.5731      1.00000
     26      -1.3552      1.00000
     27      -0.6552      1.00000
     28      -0.4148      1.00000
     29       0.0105      1.00000
     30       0.2349      1.00000
     31       0.6468      1.00000
     32       0.7781      1.00000
     33       1.0922      1.00000
     34       1.2099      1.00000
     35       1.3937      1.00000
     36       1.4917      1.00000
     37       1.6358      1.00000
     38       1.8077      1.00000
     39       1.8761      1.00000
     40       2.0679      1.00000
     41       2.2389      1.00000
     42       2.3245      1.00000
     43       2.3719      1.00000
     44       2.4429      1.00000
     45       2.5082      1.00000
     46       2.7188      1.00000
     47       2.8457      1.00000
     48       2.9345      1.00000
     49       5.9955      0.00000
     50       6.2009      0.00000
     51       6.4952      0.00000
     52       6.7202      0.00000
     53       6.8617      0.00000
     54       7.0753      0.00000
     55       7.1792      0.00000
     56       7.5144      0.00000
     57       7.6852      0.00000
     58       7.8578      0.00000
     59       8.0446      0.00000
     60       8.0871      0.00000
     61       8.2333      0.00000
     62       8.4603      0.00000
     63       8.5235      0.00000
     64       8.5744      0.00000

 k-point    39 :       0.3333    0.4000    0.1667
  band No.  band energies     occupation 
      1     -32.3793      1.00000
      2     -32.3754      1.00000
      3     -32.3665      1.00000
      4     -32.3660      1.00000
      5     -13.9205      1.00000
      6     -13.9026      1.00000
      7     -13.8329      1.00000
      8     -13.8157      1.00000
      9     -13.7940      1.00000
     10     -13.7862      1.00000
     11     -13.7792      1.00000
     12     -13.7611      1.00000
     13     -13.7334      1.00000
     14     -13.7297      1.00000
     15     -13.7076      1.00000
     16     -13.6908      1.00000
     17      -7.2492      1.00000
     18      -7.0959      1.00000
     19      -6.3775      1.00000
     20      -6.2056      1.00000
     21      -6.0134      1.00000
     22      -5.9921      1.00000
     23      -5.8519      1.00000
     24      -5.8496      1.00000
     25      -1.5640      1.00000
     26      -1.4063      1.00000
     27      -0.4844      1.00000
     28      -0.3667      1.00000
     29       0.2021      1.00000
     30       0.3568      1.00000
     31       0.6662      1.00000
     32       0.9184      1.00000
     33       1.0494      1.00000
     34       1.1138      1.00000
     35       1.3358      1.00000
     36       1.4118      1.00000
     37       1.6329      1.00000
     38       1.7684      1.00000
     39       1.9103      1.00000
     40       1.9857      1.00000
     41       2.1953      1.00000
     42       2.2626      1.00000
     43       2.3506      1.00000
     44       2.4855      1.00000
     45       2.5633      1.00000
     46       2.6412      1.00000
     47       2.8510      1.00000
     48       2.8996      1.00000
     49       6.0187      0.00000
     50       6.2115      0.00000
     51       6.2276      0.00000
     52       6.4229      0.00000
     53       6.7959      0.00000
     54       6.9920      0.00000
     55       7.0883      0.00000
     56       7.2470      0.00000
     57       7.6494      0.00000
     58       7.8121      0.00000
     59       8.0450      0.00000
     60       8.1659      0.00000
     61       8.2935      0.00000
     62       8.4017      0.00000
     63       8.5253      0.00000
     64       8.5596      0.00000

 k-point    40 :      -0.3333    0.4000   -0.1667
  band No.  band energies     occupation 
      1     -32.3793      1.00000
      2     -32.3754      1.00000
      3     -32.3665      1.00000
      4     -32.3660      1.00000
      5     -13.9205      1.00000
      6     -13.9026      1.00000
      7     -13.8329      1.00000
      8     -13.8157      1.00000
      9     -13.7940      1.00000
     10     -13.7862      1.00000
     11     -13.7793      1.00000
     12     -13.7611      1.00000
     13     -13.7334      1.00000
     14     -13.7297      1.00000
     15     -13.7076      1.00000
     16     -13.6908      1.00000
     17      -7.2492      1.00000
     18      -7.0959      1.00000
     19      -6.3775      1.00000
     20      -6.2056      1.00000
     21      -6.0134      1.00000
     22      -5.9921      1.00000
     23      -5.8519      1.00000
     24      -5.8496      1.00000
     25      -1.5640      1.00000
     26      -1.4063      1.00000
     27      -0.4844      1.00000
     28      -0.3667      1.00000
     29       0.2021      1.00000
     30       0.3568      1.00000
     31       0.6662      1.00000
     32       0.9184      1.00000
     33       1.0494      1.00000
     34       1.1138      1.00000
     35       1.3358      1.00000
     36       1.4118      1.00000
     37       1.6329      1.00000
     38       1.7684      1.00000
     39       1.9103      1.00000
     40       1.9857      1.00000
     41       2.1953      1.00000
     42       2.2626      1.00000
     43       2.3506      1.00000
     44       2.4855      1.00000
     45       2.5633      1.00000
     46       2.6412      1.00000
     47       2.8510      1.00000
     48       2.8996      1.00000
     49       6.0187      0.00000
     50       6.2115      0.00000
     51       6.2276      0.00000
     52       6.4229      0.00000
     53       6.7959      0.00000
     54       6.9920      0.00000
     55       7.0883      0.00000
     56       7.2470      0.00000
     57       7.6494      0.00000
     58       7.8121      0.00000
     59       8.0450      0.00000
     60       8.1659      0.00000
     61       8.2935      0.00000
     62       8.4017      0.00000
     63       8.5256      0.00000
     64       8.5606      0.00000

 k-point    41 :       0.5000    0.4000    0.1667
  band No.  band energies     occupation 
      1     -32.3793      1.00000
      2     -32.3754      1.00000
      3     -32.3665      1.00000
      4     -32.3660      1.00000
      5     -13.9204      1.00000
      6     -13.9025      1.00000
      7     -13.8328      1.00000
      8     -13.8157      1.00000
      9     -13.7943      1.00000
     10     -13.7865      1.00000
     11     -13.7795      1.00000
     12     -13.7613      1.00000
     13     -13.7336      1.00000
     14     -13.7299      1.00000
     15     -13.7076      1.00000
     16     -13.6908      1.00000
     17      -7.2099      1.00000
     18      -7.0933      1.00000
     19      -6.4046      1.00000
     20      -6.1944      1.00000
     21      -6.0691      1.00000
     22      -6.0077      1.00000
     23      -5.8473      1.00000
     24      -5.8228      1.00000
     25      -1.5843      1.00000
     26      -1.4465      1.00000
     27      -0.4285      1.00000
     28      -0.3977      1.00000
     29       0.3041      1.00000
     30       0.4314      1.00000
     31       0.7302      1.00000
     32       0.8132      1.00000
     33       1.0481      1.00000
     34       1.1122      1.00000
     35       1.3237      1.00000
     36       1.3707      1.00000
     37       1.5836      1.00000
     38       1.6597      1.00000
     39       1.9706      1.00000
     40       2.0926      1.00000
     41       2.1258      1.00000
     42       2.2341      1.00000
     43       2.3496      1.00000
     44       2.5409      1.00000
     45       2.6318      1.00000
     46       2.6794      1.00000
     47       2.9024      1.00000
     48       3.0355      1.00000
     49       6.0369      0.00000
     50       6.1446      0.00000
     51       6.2888      0.00000
     52       6.4008      0.00000
     53       6.7743      0.00000
     54       6.9721      0.00000
     55       6.9897      0.00000
     56       7.1695      0.00000
     57       7.4095      0.00000
     58       7.5275      0.00000
     59       7.9503      0.00000
     60       8.0679      0.00000
     61       8.1874      0.00000
     62       8.2999      0.00000
     63       8.3592      0.00000
     64       8.5052      0.00000

 k-point    42 :       0.5000    0.4000   -0.1667
  band No.  band energies     occupation 
      1     -32.3793      1.00000
      2     -32.3754      1.00000
      3     -32.3665      1.00000
      4     -32.3660      1.00000
      5     -13.9204      1.00000
      6     -13.9025      1.00000
      7     -13.8328      1.00000
      8     -13.8157      1.00000
      9     -13.7943      1.00000
     10     -13.7865      1.00000
     11     -13.7795      1.00000
     12     -13.7613      1.00000
     13     -13.7336      1.00000
     14     -13.7299      1.00000
     15     -13.7076      1.00000
     16     -13.6908      1.00000
     17      -7.2099      1.00000
     18      -7.0933      1.00000
     19      -6.4046      1.00000
     20      -6.1944      1.00000
     21      -6.0691      1.00000
     22      -6.0077      1.00000
     23      -5.8473      1.00000
     24      -5.8228      1.00000
     25      -1.5843      1.00000
     26      -1.4465      1.00000
     27      -0.4285      1.00000
     28      -0.3977      1.00000
     29       0.3041      1.00000
     30       0.4314      1.00000
     31       0.7302      1.00000
     32       0.8132      1.00000
     33       1.0481      1.00000
     34       1.1122      1.00000
     35       1.3237      1.00000
     36       1.3707      1.00000
     37       1.5836      1.00000
     38       1.6597      1.00000
     39       1.9706      1.00000
     40       2.0926      1.00000
     41       2.1258      1.00000
     42       2.2341      1.00000
     43       2.3496      1.00000
     44       2.5409      1.00000
     45       2.6318      1.00000
     46       2.6794      1.00000
     47       2.9024      1.00000
     48       3.0355      1.00000
     49       6.0369      0.00000
     50       6.1446      0.00000
     51       6.2888      0.00000
     52       6.4008      0.00000
     53       6.7743      0.00000
     54       6.9721      0.00000
     55       6.9897      0.00000
     56       7.1695      0.00000
     57       7.4095      0.00000
     58       7.5275      0.00000
     59       7.9503      0.00000
     60       8.0679      0.00000
     61       8.1874      0.00000
     62       8.2999      0.00000
     63       8.3592      0.00000
     64       8.5047      0.00000

 k-point    43 :      -0.3333    0.4000    0.1667
  band No.  band energies     occupation 
      1     -32.3793      1.00000
      2     -32.3754      1.00000
      3     -32.3665      1.00000
      4     -32.3660      1.00000
      5     -13.9205      1.00000
      6     -13.9026      1.00000
      7     -13.8326      1.00000
      8     -13.8158      1.00000
      9     -13.7936      1.00000
     10     -13.7865      1.00000
     11     -13.7794      1.00000
     12     -13.7613      1.00000
     13     -13.7334      1.00000
     14     -13.7298      1.00000
     15     -13.7076      1.00000
     16     -13.6908      1.00000
     17      -7.2765      1.00000
     18      -7.1267      1.00000
     19      -6.3396      1.00000
     20      -6.1507      1.00000
     21      -6.0569      1.00000
     22      -5.9702      1.00000
     23      -5.8575      1.00000
     24      -5.8131      1.00000
     25      -1.6203      1.00000
     26      -1.4354      1.00000
     27      -0.5309      1.00000
     28      -0.4769      1.00000
     29       0.1703      1.00000
     30       0.3780      1.00000
     31       0.6023      1.00000
     32       0.8566      1.00000
     33       1.0313      1.00000
     34       1.1949      1.00000
     35       1.3635      1.00000
     36       1.4095      1.00000
     37       1.5648      1.00000
     38       1.6408      1.00000
     39       1.9278      1.00000
     40       2.0522      1.00000
     41       2.1187      1.00000
     42       2.2552      1.00000
     43       2.5214      1.00000
     44       2.6192      1.00000
     45       2.7305      1.00000
     46       2.7904      1.00000
     47       2.9540      1.00000
     48       3.1686      1.00000
     49       6.0550      0.00000
     50       6.1589      0.00000
     51       6.4944      0.00000
     52       6.5200      0.00000
     53       6.7419      0.00000
     54       6.8947      0.00000
     55       6.9770      0.00000
     56       7.1483      0.00000
     57       7.5043      0.00000
     58       7.5844      0.00000
     59       7.9187      0.00000
     60       8.0056      0.00000
     61       8.0285      0.00000
     62       8.2863      0.00000
     63       8.3315      0.00000
     64       8.3719      0.00000

 k-point    44 :       0.3333    0.4000   -0.1667
  band No.  band energies     occupation 
      1     -32.3793      1.00000
      2     -32.3754      1.00000
      3     -32.3665      1.00000
      4     -32.3660      1.00000
      5     -13.9205      1.00000
      6     -13.9026      1.00000
      7     -13.8326      1.00000
      8     -13.8158      1.00000
      9     -13.7936      1.00000
     10     -13.7865      1.00000
     11     -13.7794      1.00000
     12     -13.7613      1.00000
     13     -13.7334      1.00000
     14     -13.7298      1.00000
     15     -13.7076      1.00000
     16     -13.6908      1.00000
     17      -7.2765      1.00000
     18      -7.1267      1.00000
     19      -6.3396      1.00000
     20      -6.1507      1.00000
     21      -6.0569      1.00000
     22      -5.9702      1.00000
     23      -5.8575      1.00000
     24      -5.8131      1.00000
     25      -1.6203      1.00000
     26      -1.4354      1.00000
     27      -0.5309      1.00000
     28      -0.4769      1.00000
     29       0.1703      1.00000
     30       0.3780      1.00000
     31       0.6023      1.00000
     32       0.8566      1.00000
     33       1.0313      1.00000
     34       1.1949      1.00000
     35       1.3635      1.00000
     36       1.4095      1.00000
     37       1.5648      1.00000
     38       1.6408      1.00000
     39       1.9278      1.00000
     40       2.0522      1.00000
     41       2.1187      1.00000
     42       2.2552      1.00000
     43       2.5214      1.00000
     44       2.6192      1.00000
     45       2.7305      1.00000
     46       2.7904      1.00000
     47       2.9540      1.00000
     48       3.1686      1.00000
     49       6.0550      0.00000
     50       6.1589      0.00000
     51       6.4944      0.00000
     52       6.5200      0.00000
     53       6.7419      0.00000
     54       6.8947      0.00000
     55       6.9770      0.00000
     56       7.1483      0.00000
     57       7.5043      0.00000
     58       7.5844      0.00000
     59       7.9187      0.00000
     60       8.0056      0.00000
     61       8.0285      0.00000
     62       8.2866      0.00000
     63       8.3309      0.00000
     64       8.3751      0.00000

 k-point    45 :      -0.1667    0.4000    0.1667
  band No.  band energies     occupation 
      1     -32.3793      1.00000
      2     -32.3754      1.00000
      3     -32.3665      1.00000
      4     -32.3660      1.00000
      5     -13.9207      1.00000
      6     -13.9028      1.00000
      7     -13.8325      1.00000
      8     -13.8159      1.00000
      9     -13.7927      1.00000
     10     -13.7861      1.00000
     11     -13.7790      1.00000
     12     -13.7611      1.00000
     13     -13.7331      1.00000
     14     -13.7295      1.00000
     15     -13.7077      1.00000
     16     -13.6908      1.00000
     17      -7.3594      1.00000
     18      -7.1643      1.00000
     19      -6.2803      1.00000
     20      -6.1233      1.00000
     21      -5.9828      1.00000
     22      -5.9121      1.00000
     23      -5.8670      1.00000
     24      -5.8282      1.00000
     25      -1.6282      1.00000
     26      -1.3936      1.00000
     27      -0.7083      1.00000
     28      -0.5269      1.00000
     29       0.0141      1.00000
     30       0.2838      1.00000
     31       0.5651      1.00000
     32       0.7716      1.00000
     33       1.1119      1.00000
     34       1.2080      1.00000
     35       1.4306      1.00000
     36       1.5174      1.00000
     37       1.5952      1.00000
     38       1.6084      1.00000
     39       1.8811      1.00000
     40       2.0491      1.00000
     41       2.1193      1.00000
     42       2.2758      1.00000
     43       2.4505      1.00000
     44       2.5733      1.00000
     45       2.7783      1.00000
     46       2.9864      1.00000
     47       3.0259      1.00000
     48       3.1947      1.00000
     49       5.9763      0.00000
     50       6.2613      0.00000
     51       6.4256      0.00000
     52       6.7744      0.00000
     53       6.8924      0.00000
     54       7.0822      0.00000
     55       7.1679      0.00000
     56       7.4387      0.00000
     57       7.6435      0.00000
     58       7.6727      0.00000
     59       7.8953      0.00000
     60       7.9372      0.00000
     61       8.0178      0.00000
     62       8.2485      0.00000
     63       8.2758      0.00000
     64       8.3362      0.00000

 k-point    46 :       0.1667    0.4000   -0.1667
  band No.  band energies     occupation 
      1     -32.3793      1.00000
      2     -32.3754      1.00000
      3     -32.3665      1.00000
      4     -32.3660      1.00000
      5     -13.9207      1.00000
      6     -13.9028      1.00000
      7     -13.8325      1.00000
      8     -13.8159      1.00000
      9     -13.7927      1.00000
     10     -13.7861      1.00000
     11     -13.7791      1.00000
     12     -13.7611      1.00000
     13     -13.7331      1.00000
     14     -13.7295      1.00000
     15     -13.7077      1.00000
     16     -13.6908      1.00000
     17      -7.3594      1.00000
     18      -7.1643      1.00000
     19      -6.2803      1.00000
     20      -6.1232      1.00000
     21      -5.9828      1.00000
     22      -5.9121      1.00000
     23      -5.8670      1.00000
     24      -5.8282      1.00000
     25      -1.6282      1.00000
     26      -1.3936      1.00000
     27      -0.7083      1.00000
     28      -0.5269      1.00000
     29       0.0141      1.00000
     30       0.2838      1.00000
     31       0.5651      1.00000
     32       0.7716      1.00000
     33       1.1119      1.00000
     34       1.2080      1.00000
     35       1.4306      1.00000
     36       1.5174      1.00000
     37       1.5952      1.00000
     38       1.6084      1.00000
     39       1.8811      1.00000
     40       2.0491      1.00000
     41       2.1193      1.00000
     42       2.2758      1.00000
     43       2.4505      1.00000
     44       2.5733      1.00000
     45       2.7783      1.00000
     46       2.9864      1.00000
     47       3.0259      1.00000
     48       3.1947      1.00000
     49       5.9763      0.00000
     50       6.2613      0.00000
     51       6.4256      0.00000
     52       6.7744      0.00000
     53       6.8924      0.00000
     54       7.0822      0.00000
     55       7.1679      0.00000
     56       7.4387      0.00000
     57       7.6435      0.00000
     58       7.6727      0.00000
     59       7.8953      0.00000
     60       7.9372      0.00000
     61       8.0178      0.00000
     62       8.2501      0.00000
     63       8.2711      0.00000
     64       8.3322      0.00000

 k-point    47 :      -0.0000    0.0000    0.3333
  band No.  band energies     occupation 
      1     -32.3801      1.00000
      2     -32.3718      1.00000
      3     -32.3677      1.00000
      4     -32.3677      1.00000
      5     -13.9374      1.00000
      6     -13.9365      1.00000
      7     -13.8936      1.00000
      8     -13.8015      1.00000
      9     -13.7686      1.00000
     10     -13.7589      1.00000
     11     -13.7434      1.00000
     12     -13.7389      1.00000
     13     -13.7385      1.00000
     14     -13.7305      1.00000
     15     -13.7164      1.00000
     16     -13.6827      1.00000
     17      -7.4327      1.00000
     18      -6.9734      1.00000
     19      -6.3764      1.00000
     20      -6.1108      1.00000
     21      -5.9995      1.00000
     22      -5.9848      1.00000
     23      -5.8633      1.00000
     24      -5.8499      1.00000
     25      -1.5685      1.00000
     26      -1.0774      1.00000
     27      -0.9316      1.00000
     28      -0.6670      1.00000
     29      -0.0412      1.00000
     30       0.2565      1.00000
     31       0.4067      1.00000
     32       1.1103      1.00000
     33       1.1918      1.00000
     34       1.2273      1.00000
     35       1.3396      1.00000
     36       1.5606      1.00000
     37       1.7612      1.00000
     38       1.7810      1.00000
     39       1.8735      1.00000
     40       2.2193      1.00000
     41       2.2865      1.00000
     42       2.3248      1.00000
     43       2.3955      1.00000
     44       2.5559      1.00000
     45       2.5872      1.00000
     46       2.7877      1.00000
     47       3.0449      1.00000
     48       3.1473      1.00000
     49       5.4334      0.00000
     50       5.4465      0.00000
     51       5.7523      0.00000
     52       6.4429      0.00000
     53       6.9023      0.00000
     54       7.1575      0.00000
     55       7.3963      0.00000
     56       7.6846      0.00000
     57       7.7454      0.00000
     58       7.8448      0.00000
     59       7.9103      0.00000
     60       8.1987      0.00000
     61       8.2472      0.00000
     62       8.3416      0.00000
     63       8.4396      0.00000
     64       8.4950      0.00000

 k-point    48 :       0.1667   -0.0000    0.3333
  band No.  band energies     occupation 
      1     -32.3801      1.00000
      2     -32.3718      1.00000
      3     -32.3677      1.00000
      4     -32.3677      1.00000
      5     -13.9373      1.00000
      6     -13.9364      1.00000
      7     -13.8935      1.00000
      8     -13.8021      1.00000
      9     -13.7686      1.00000
     10     -13.7592      1.00000
     11     -13.7435      1.00000
     12     -13.7391      1.00000
     13     -13.7388      1.00000
     14     -13.7304      1.00000
     15     -13.7164      1.00000
     16     -13.6827      1.00000
     17      -7.3823      1.00000
     18      -6.9528      1.00000
     19      -6.4367      1.00000
     20      -6.1161      1.00000
     21      -5.9931      1.00000
     22      -5.9865      1.00000
     23      -5.8984      1.00000
     24      -5.8708      1.00000
     25      -1.5114      1.00000
     26      -1.0214      1.00000
     27      -0.9295      1.00000
     28      -0.7357      1.00000
     29       0.1645      1.00000
     30       0.3126      1.00000
     31       0.4660      1.00000
     32       1.0221      1.00000
     33       1.0627      1.00000
     34       1.2407      1.00000
     35       1.4238      1.00000
     36       1.5067      1.00000
     37       1.6701      1.00000
     38       1.8159      1.00000
     39       2.0453      1.00000
     40       2.1347      1.00000
     41       2.1616      1.00000
     42       2.1968      1.00000
     43       2.3464      1.00000
     44       2.5501      1.00000
     45       2.6441      1.00000
     46       2.7485      1.00000
     47       3.0713      1.00000
     48       3.2361      1.00000
     49       5.4671      0.00000
     50       5.4692      0.00000
     51       5.7239      0.00000
     52       6.5575      0.00000
     53       6.9139      0.00000
     54       6.9555      0.00000
     55       7.2039      0.00000
     56       7.4490      0.00000
     57       7.5060      0.00000
     58       7.8277      0.00000
     59       7.8481      0.00000
     60       7.9064      0.00000
     61       8.1655      0.00000
     62       8.2821      0.00000
     63       8.4447      0.00000
     64       8.6204      0.00000

 k-point    49 :       0.3333    0.0000    0.3333
  band No.  band energies     occupation 
      1     -32.3801      1.00000
      2     -32.3718      1.00000
      3     -32.3677      1.00000
      4     -32.3677      1.00000
      5     -13.9370      1.00000
      6     -13.9361      1.00000
      7     -13.8931      1.00000
      8     -13.8035      1.00000
      9     -13.7685      1.00000
     10     -13.7597      1.00000
     11     -13.7435      1.00000
     12     -13.7395      1.00000
     13     -13.7392      1.00000
     14     -13.7304      1.00000
     15     -13.7164      1.00000
     16     -13.6827      1.00000
     17      -7.2775      1.00000
     18      -6.9402      1.00000
     19      -6.5670      1.00000
     20      -6.2038      1.00000
     21      -6.0104      1.00000
     22      -5.9406      1.00000
     23      -5.8687      1.00000
     24      -5.8612      1.00000
     25      -1.5151      1.00000
     26      -1.0744      1.00000
     27      -0.9413      1.00000
     28      -0.7470      1.00000
     29       0.3414      1.00000
     30       0.4451      1.00000
     31       0.5785      1.00000
     32       0.8528      1.00000
     33       1.0093      1.00000
     34       1.2615      1.00000
     35       1.3226      1.00000
     36       1.4699      1.00000
     37       1.5561      1.00000
     38       1.9760      1.00000
     39       2.0611      1.00000
     40       2.1045      1.00000
     41       2.2732      1.00000
     42       2.2903      1.00000
     43       2.5900      1.00000
     44       2.6412      1.00000
     45       2.6761      1.00000
     46       2.7477      1.00000
     47       2.9471      1.00000
     48       3.1720      1.00000
     49       5.5365      0.00000
     50       5.5650      0.00000
     51       5.6982      0.00000
     52       6.5236      0.00000
     53       6.7248      0.00000
     54       6.8908      0.00000
     55       6.9451      0.00000
     56       7.0309      0.00000
     57       7.2991      0.00000
     58       7.3638      0.00000
     59       7.5997      0.00000
     60       7.8754      0.00000
     61       8.0175      0.00000
     62       8.1200      0.00000
     63       8.1805      0.00000
     64       8.3821      0.00000

 k-point    50 :       0.5000   -0.0000    0.3333
  band No.  band energies     occupation 
      1     -32.3801      1.00000
      2     -32.3718      1.00000
      3     -32.3677      1.00000
      4     -32.3677      1.00000
      5     -13.9368      1.00000
      6     -13.9360      1.00000
      7     -13.8929      1.00000
      8     -13.8042      1.00000
      9     -13.7685      1.00000
     10     -13.7600      1.00000
     11     -13.7436      1.00000
     12     -13.7396      1.00000
     13     -13.7394      1.00000
     14     -13.7303      1.00000
     15     -13.7164      1.00000
     16     -13.6827      1.00000
     17      -7.2250      1.00000
     18      -6.9488      1.00000
     19      -6.6183      1.00000
     20      -6.2586      1.00000
     21      -6.0766      1.00000
     22      -5.9105      1.00000
     23      -5.8179      1.00000
     24      -5.7996      1.00000
     25      -1.5891      1.00000
     26      -1.1699      1.00000
     27      -0.9062      1.00000
     28      -0.7612      1.00000
     29       0.3863      1.00000
     30       0.4087      1.00000
     31       0.6702      1.00000
     32       0.8058      1.00000
     33       1.0067      1.00000
     34       1.2126      1.00000
     35       1.3184      1.00000
     36       1.3614      1.00000
     37       1.7746      1.00000
     38       1.9489      1.00000
     39       1.9833      1.00000
     40       2.2312      1.00000
     41       2.3708      1.00000
     42       2.4268      1.00000
     43       2.6179      1.00000
     44       2.7233      1.00000
     45       2.7666      1.00000
     46       2.8028      1.00000
     47       3.0482      1.00000
     48       3.0572      1.00000
     49       5.5929      0.00000
     50       5.6064      0.00000
     51       5.8291      0.00000
     52       6.1495      0.00000
     53       6.4174      0.00000
     54       6.6649      0.00000
     55       6.7758      0.00000
     56       6.8608      0.00000
     57       7.0658      0.00000
     58       7.4480      0.00000
     59       7.6045      0.00000
     60       7.7006      0.00000
     61       8.0807      0.00000
     62       8.1335      0.00000
     63       8.2564      0.00000
     64       8.3290      0.00000

 k-point    51 :      -0.3333    0.0000    0.3333
  band No.  band energies     occupation 
      1     -32.3801      1.00000
      2     -32.3718      1.00000
      3     -32.3677      1.00000
      4     -32.3677      1.00000
      5     -13.9368      1.00000
      6     -13.9361      1.00000
      7     -13.8930      1.00000
      8     -13.8036      1.00000
      9     -13.7685      1.00000
     10     -13.7598      1.00000
     11     -13.7436      1.00000
     12     -13.7394      1.00000
     13     -13.7392      1.00000
     14     -13.7303      1.00000
     15     -13.7164      1.00000
     16     -13.6827      1.00000
     17      -7.3015      1.00000
     18      -6.9691      1.00000
     19      -6.5308      1.00000
     20      -6.2594      1.00000
     21      -6.0586      1.00000
     22      -5.8862      1.00000
     23      -5.8229      1.00000
     24      -5.7823      1.00000
     25      -1.6516      1.00000
     26      -1.1573      1.00000
     27      -0.8849      1.00000
     28      -0.7796      1.00000
     29       0.1120      1.00000
     30       0.2884      1.00000
     31       0.6324      1.00000
     32       0.8823      1.00000
     33       1.0294      1.00000
     34       1.3286      1.00000
     35       1.3312      1.00000
     36       1.5261      1.00000
     37       1.8200      1.00000
     38       1.8588      1.00000
     39       1.9547      1.00000
     40       2.2753      1.00000
     41       2.4063      1.00000
     42       2.4856      1.00000
     43       2.6922      1.00000
     44       2.7437      1.00000
     45       2.7530      1.00000
     46       2.7954      1.00000
     47       3.0030      1.00000
     48       3.0483      1.00000
     49       5.4582      0.00000
     50       5.4955      0.00000
     51       5.8792      0.00000
     52       6.3707      0.00000
     53       6.4727      0.00000
     54       6.7496      0.00000
     55       6.7599      0.00000
     56       6.8938      0.00000
     57       6.9463      0.00000
     58       7.4490      0.00000
     59       7.6453      0.00000
     60       7.7724      0.00000
     61       8.1756      0.00000
     62       8.1843      0.00000
     63       8.2314      0.00000
     64       8.3754      0.00000

 k-point    52 :      -0.1667    0.0000    0.3333
  band No.  band energies     occupation 
      1     -32.3801      1.00000
      2     -32.3718      1.00000
      3     -32.3677      1.00000
      4     -32.3677      1.00000
      5     -13.9371      1.00000
      6     -13.9364      1.00000
      7     -13.8934      1.00000
      8     -13.8022      1.00000
      9     -13.7686      1.00000
     10     -13.7592      1.00000
     11     -13.7435      1.00000
     12     -13.7390      1.00000
     13     -13.7387      1.00000
     14     -13.7304      1.00000
     15     -13.7164      1.00000
     16     -13.6827      1.00000
     17      -7.3988      1.00000
     18      -6.9811      1.00000
     19      -6.4289      1.00000
     20      -6.2041      1.00000
     21      -5.9509      1.00000
     22      -5.9185      1.00000
     23      -5.8953      1.00000
     24      -5.8014      1.00000
     25      -1.6364      1.00000
     26      -1.0598      1.00000
     27      -1.0074      1.00000
     28      -0.6459      1.00000
     29      -0.1435      1.00000
     30       0.2561      1.00000
     31       0.5014      1.00000
     32       1.0747      1.00000
     33       1.0857      1.00000
     34       1.2909      1.00000
     35       1.3166      1.00000
     36       1.5604      1.00000
     37       1.8092      1.00000
     38       1.8109      1.00000
     39       2.0277      1.00000
     40       2.2533      1.00000
     41       2.3628      1.00000
     42       2.3843      1.00000
     43       2.6235      1.00000
     44       2.6483      1.00000
     45       2.7599      1.00000
     46       2.7819      1.00000
     47       2.9547      1.00000
     48       2.9764      1.00000
     49       5.4347      0.00000
     50       5.4575      0.00000
     51       5.7711      0.00000
     52       6.4674      0.00000
     53       6.7671      0.00000
     54       6.8039      0.00000
     55       7.2247      0.00000
     56       7.3313      0.00000
     57       7.4451      0.00000
     58       7.6864      0.00000
     59       7.7223      0.00000
     60       8.0000      0.00000
     61       8.2119      0.00000
     62       8.2463      0.00000
     63       8.4105      0.00000
     64       8.4450      0.00000

 k-point    53 :      -0.0000    0.2000    0.3333
  band No.  band energies     occupation 
      1     -32.3792      1.00000
      2     -32.3720      1.00000
      3     -32.3689      1.00000
      4     -32.3672      1.00000
      5     -13.9325      1.00000
      6     -13.9135      1.00000
      7     -13.8923      1.00000
      8     -13.7969      1.00000
      9     -13.7777      1.00000
     10     -13.7617      1.00000
     11     -13.7543      1.00000
     12     -13.7463      1.00000
     13     -13.7391      1.00000
     14     -13.7333      1.00000
     15     -13.7143      1.00000
     16     -13.6871      1.00000
     17      -7.3883      1.00000
     18      -7.0047      1.00000
     19      -6.4124      1.00000
     20      -6.1684      1.00000
     21      -5.9930      1.00000
     22      -5.9245      1.00000
     23      -5.8601      1.00000
     24      -5.8503      1.00000
     25      -1.4902      1.00000
     26      -1.0582      1.00000
     27      -0.9122      1.00000
     28      -0.5834      1.00000
     29      -0.0542      1.00000
     30       0.3118      1.00000
     31       0.4242      1.00000
     32       0.8547      1.00000
     33       1.0784      1.00000
     34       1.2997      1.00000
     35       1.3981      1.00000
     36       1.5425      1.00000
     37       1.7719      1.00000
     38       1.8169      1.00000
     39       1.8502      1.00000
     40       2.1109      1.00000
     41       2.2134      1.00000
     42       2.2677      1.00000
     43       2.3754      1.00000
     44       2.5023      1.00000
     45       2.6832      1.00000
     46       2.7321      1.00000
     47       2.8651      1.00000
     48       3.2461      1.00000
     49       5.3921      0.00000
     50       5.8286      0.00000
     51       6.0477      0.00000
     52       6.5398      0.00000
     53       6.8557      0.00000
     54       7.1487      0.00000
     55       7.3954      0.00000
     56       7.6571      0.00000
     57       7.7212      0.00000
     58       7.8201      0.00000
     59       7.9405      0.00000
     60       8.1684      0.00000
     61       8.2639      0.00000
     62       8.3436      0.00000
     63       8.4258      0.00000
     64       8.5892      0.00000

 k-point    54 :       0.0000    0.2000   -0.3333
  band No.  band energies     occupation 
      1     -32.3792      1.00000
      2     -32.3720      1.00000
      3     -32.3689      1.00000
      4     -32.3672      1.00000
      5     -13.9325      1.00000
      6     -13.9135      1.00000
      7     -13.8923      1.00000
      8     -13.7969      1.00000
      9     -13.7777      1.00000
     10     -13.7617      1.00000
     11     -13.7543      1.00000
     12     -13.7463      1.00000
     13     -13.7391      1.00000
     14     -13.7333      1.00000
     15     -13.7143      1.00000
     16     -13.6871      1.00000
     17      -7.3883      1.00000
     18      -7.0047      1.00000
     19      -6.4124      1.00000
     20      -6.1684      1.00000
     21      -5.9930      1.00000
     22      -5.9245      1.00000
     23      -5.8601      1.00000
     24      -5.8503      1.00000
     25      -1.4902      1.00000
     26      -1.0582      1.00000
     27      -0.9122      1.00000
     28      -0.5834      1.00000
     29      -0.0542      1.00000
     30       0.3118      1.00000
     31       0.4242      1.00000
     32       0.8547      1.00000
     33       1.0784      1.00000
     34       1.2997      1.00000
     35       1.3981      1.00000
     36       1.5425      1.00000
     37       1.7719      1.00000
     38       1.8169      1.00000
     39       1.8502      1.00000
     40       2.1109      1.00000
     41       2.2134      1.00000
     42       2.2677      1.00000
     43       2.3754      1.00000
     44       2.5023      1.00000
     45       2.6832      1.00000
     46       2.7321      1.00000
     47       2.8651      1.00000
     48       3.2461      1.00000
     49       5.3921      0.00000
     50       5.8286      0.00000
     51       6.0477      0.00000
     52       6.5398      0.00000
     53       6.8557      0.00000
     54       7.1487      0.00000
     55       7.3954      0.00000
     56       7.6571      0.00000
     57       7.7212      0.00000
     58       7.8201      0.00000
     59       7.9405      0.00000
     60       8.1684      0.00000
     61       8.2639      0.00000
     62       8.3436      0.00000
     63       8.4258      0.00000
     64       8.5601      0.00000

 k-point    55 :       0.1667    0.2000    0.3333
  band No.  band energies     occupation 
      1     -32.3792      1.00000
      2     -32.3720      1.00000
      3     -32.3689      1.00000
      4     -32.3672      1.00000
      5     -13.9323      1.00000
      6     -13.9135      1.00000
      7     -13.8921      1.00000
      8     -13.7975      1.00000
      9     -13.7776      1.00000
     10     -13.7618      1.00000
     11     -13.7545      1.00000
     12     -13.7466      1.00000
     13     -13.7391      1.00000
     14     -13.7335      1.00000
     15     -13.7143      1.00000
     16     -13.6871      1.00000
     17      -7.3400      1.00000
     18      -6.9844      1.00000
     19      -6.4431      1.00000
     20      -6.1921      1.00000
     21      -6.0039      1.00000
     22      -5.9412      1.00000
     23      -5.8924      1.00000
     24      -5.8494      1.00000
     25      -1.4502      1.00000
     26      -1.0691      1.00000
     27      -0.8720      1.00000
     28      -0.6072      1.00000
     29       0.1675      1.00000
     30       0.3303      1.00000
     31       0.4803      1.00000
     32       0.8478      1.00000
     33       1.0748      1.00000
     34       1.2448      1.00000
     35       1.3471      1.00000
     36       1.4661      1.00000
     37       1.6978      1.00000
     38       1.8427      1.00000
     39       1.9600      1.00000
     40       2.1019      1.00000
     41       2.1389      1.00000
     42       2.2614      1.00000
     43       2.3625      1.00000
     44       2.5531      1.00000
     45       2.6425      1.00000
     46       2.7055      1.00000
     47       2.8811      1.00000
     48       3.1467      1.00000
     49       5.4039      0.00000
     50       5.8158      0.00000
     51       6.0251      0.00000
     52       6.6921      0.00000
     53       6.7582      0.00000
     54       6.9246      0.00000
     55       7.1143      0.00000
     56       7.4274      0.00000
     57       7.6430      0.00000
     58       7.7439      0.00000
     59       7.9646      0.00000
     60       8.1648      0.00000
     61       8.2235      0.00000
     62       8.4796      0.00000
     63       8.5117      0.00000
     64       8.5456      0.00000

 k-point    56 :      -0.1667    0.2000   -0.3333
  band No.  band energies     occupation 
      1     -32.3792      1.00000
      2     -32.3720      1.00000
      3     -32.3689      1.00000
      4     -32.3672      1.00000
      5     -13.9323      1.00000
      6     -13.9135      1.00000
      7     -13.8921      1.00000
      8     -13.7975      1.00000
      9     -13.7776      1.00000
     10     -13.7618      1.00000
     11     -13.7545      1.00000
     12     -13.7466      1.00000
     13     -13.7391      1.00000
     14     -13.7335      1.00000
     15     -13.7143      1.00000
     16     -13.6871      1.00000
     17      -7.3400      1.00000
     18      -6.9844      1.00000
     19      -6.4431      1.00000
     20      -6.1921      1.00000
     21      -6.0039      1.00000
     22      -5.9412      1.00000
     23      -5.8924      1.00000
     24      -5.8494      1.00000
     25      -1.4502      1.00000
     26      -1.0691      1.00000
     27      -0.8720      1.00000
     28      -0.6072      1.00000
     29       0.1675      1.00000
     30       0.3303      1.00000
     31       0.4803      1.00000
     32       0.8478      1.00000
     33       1.0748      1.00000
     34       1.2448      1.00000
     35       1.3471      1.00000
     36       1.4661      1.00000
     37       1.6978      1.00000
     38       1.8427      1.00000
     39       1.9600      1.00000
     40       2.1019      1.00000
     41       2.1389      1.00000
     42       2.2614      1.00000
     43       2.3626      1.00000
     44       2.5531      1.00000
     45       2.6425      1.00000
     46       2.7055      1.00000
     47       2.8811      1.00000
     48       3.1467      1.00000
     49       5.4039      0.00000
     50       5.8158      0.00000
     51       6.0251      0.00000
     52       6.6921      0.00000
     53       6.7582      0.00000
     54       6.9246      0.00000
     55       7.1143      0.00000
     56       7.4274      0.00000
     57       7.6430      0.00000
     58       7.7439      0.00000
     59       7.9646      0.00000
     60       8.1648      0.00000
     61       8.2235      0.00000
     62       8.4799      0.00000
     63       8.5114      0.00000
     64       8.5489      0.00000

 k-point    57 :       0.3333    0.2000    0.3333
  band No.  band energies     occupation 
      1     -32.3792      1.00000
      2     -32.3720      1.00000
      3     -32.3689      1.00000
      4     -32.3672      1.00000
      5     -13.9321      1.00000
      6     -13.9133      1.00000
      7     -13.8917      1.00000
      8     -13.7988      1.00000
      9     -13.7775      1.00000
     10     -13.7619      1.00000
     11     -13.7549      1.00000
     12     -13.7471      1.00000
     13     -13.7392      1.00000
     14     -13.7337      1.00000
     15     -13.7143      1.00000
     16     -13.6871      1.00000
     17      -7.2465      1.00000
     18      -6.9757      1.00000
     19      -6.5282      1.00000
     20      -6.2254      1.00000
     21      -6.0135      1.00000
     22      -5.9677      1.00000
     23      -5.9119      1.00000
     24      -5.8146      1.00000
     25      -1.4592      1.00000
     26      -1.1654      1.00000
     27      -0.7929      1.00000
     28      -0.6748      1.00000
     29       0.3678      1.00000
     30       0.4860      1.00000
     31       0.5439      1.00000
     32       0.8564      1.00000
     33       0.9279      1.00000
     34       1.2363      1.00000
     35       1.3160      1.00000
     36       1.4029      1.00000
     37       1.6693      1.00000
     38       1.8952      1.00000
     39       1.9805      1.00000
     40       2.1158      1.00000
     41       2.2235      1.00000
     42       2.3018      1.00000
     43       2.5541      1.00000
     44       2.5832      1.00000
     45       2.6913      1.00000
     46       2.7429      1.00000
     47       2.8181      1.00000
     48       3.0369      1.00000
     49       5.4941      0.00000
     50       5.7873      0.00000
     51       5.9723      0.00000
     52       6.6308      0.00000
     53       6.7378      0.00000
     54       6.8323      0.00000
     55       6.9810      0.00000
     56       7.0586      0.00000
     57       7.1755      0.00000
     58       7.4714      0.00000
     59       7.7255      0.00000
     60       7.7660      0.00000
     61       8.1410      0.00000
     62       8.3804      0.00000
     63       8.4434      0.00000
     64       8.5147      0.00000

 k-point    58 :      -0.3333    0.2000   -0.3333
  band No.  band energies     occupation 
      1     -32.3792      1.00000
      2     -32.3720      1.00000
      3     -32.3689      1.00000
      4     -32.3672      1.00000
      5     -13.9321      1.00000
      6     -13.9133      1.00000
      7     -13.8917      1.00000
      8     -13.7988      1.00000
      9     -13.7775      1.00000
     10     -13.7619      1.00000
     11     -13.7549      1.00000
     12     -13.7471      1.00000
     13     -13.7392      1.00000
     14     -13.7337      1.00000
     15     -13.7143      1.00000
     16     -13.6871      1.00000
     17      -7.2465      1.00000
     18      -6.9757      1.00000
     19      -6.5282      1.00000
     20      -6.2254      1.00000
     21      -6.0135      1.00000
     22      -5.9677      1.00000
     23      -5.9119      1.00000
     24      -5.8146      1.00000
     25      -1.4592      1.00000
     26      -1.1654      1.00000
     27      -0.7929      1.00000
     28      -0.6748      1.00000
     29       0.3678      1.00000
     30       0.4860      1.00000
     31       0.5439      1.00000
     32       0.8564      1.00000
     33       0.9279      1.00000
     34       1.2363      1.00000
     35       1.3160      1.00000
     36       1.4029      1.00000
     37       1.6693      1.00000
     38       1.8952      1.00000
     39       1.9805      1.00000
     40       2.1158      1.00000
     41       2.2235      1.00000
     42       2.3018      1.00000
     43       2.5541      1.00000
     44       2.5832      1.00000
     45       2.6913      1.00000
     46       2.7429      1.00000
     47       2.8181      1.00000
     48       3.0369      1.00000
     49       5.4941      0.00000
     50       5.7873      0.00000
     51       5.9723      0.00000
     52       6.6308      0.00000
     53       6.7378      0.00000
     54       6.8323      0.00000
     55       6.9810      0.00000
     56       7.0586      0.00000
     57       7.1755      0.00000
     58       7.4714      0.00000
     59       7.7255      0.00000
     60       7.7660      0.00000
     61       8.1410      0.00000
     62       8.3804      0.00000
     63       8.4434      0.00000
     64       8.5128      0.00000

 k-point    59 :       0.5000    0.2000    0.3333
  band No.  band energies     occupation 
      1     -32.3792      1.00000
      2     -32.3720      1.00000
      3     -32.3689      1.00000
      4     -32.3672      1.00000
      5     -13.9319      1.00000
      6     -13.9131      1.00000
      7     -13.8915      1.00000
      8     -13.7994      1.00000
      9     -13.7776      1.00000
     10     -13.7620      1.00000
     11     -13.7551      1.00000
     12     -13.7474      1.00000
     13     -13.7392      1.00000
     14     -13.7338      1.00000
     15     -13.7142      1.00000
     16     -13.6871      1.00000
     17      -7.2045      1.00000
     18      -6.9890      1.00000
     19      -6.5538      1.00000
     20      -6.2587      1.00000
     21      -6.0786      1.00000
     22      -5.9046      1.00000
     23      -5.8785      1.00000
     24      -5.8076      1.00000
     25      -1.5194      1.00000
     26      -1.2124      1.00000
     27      -0.8005      1.00000
     28      -0.7135      1.00000
     29       0.3994      1.00000
     30       0.4448      1.00000
     31       0.6757      1.00000
     32       0.7741      1.00000
     33       0.9972      1.00000
     34       1.1578      1.00000
     35       1.2990      1.00000
     36       1.4027      1.00000
     37       1.7991      1.00000
     38       1.9116      1.00000
     39       1.9845      1.00000
     40       2.1798      1.00000
     41       2.2336      1.00000
     42       2.3223      1.00000
     43       2.5548      1.00000
     44       2.7506      1.00000
     45       2.7616      1.00000
     46       2.8064      1.00000
     47       2.8645      1.00000
     48       3.0211      1.00000
     49       5.6216      0.00000
     50       5.7517      0.00000
     51       6.0530      0.00000
     52       6.2992      0.00000
     53       6.6013      0.00000
     54       6.7336      0.00000
     55       6.8267      0.00000
     56       6.8626      0.00000
     57       7.0632      0.00000
     58       7.4565      0.00000
     59       7.5776      0.00000
     60       7.7669      0.00000
     61       7.8742      0.00000
     62       8.2286      0.00000
     63       8.2687      0.00000
     64       8.5139      0.00000

 k-point    60 :       0.5000    0.2000   -0.3333
  band No.  band energies     occupation 
      1     -32.3792      1.00000
      2     -32.3720      1.00000
      3     -32.3689      1.00000
      4     -32.3672      1.00000
      5     -13.9319      1.00000
      6     -13.9131      1.00000
      7     -13.8915      1.00000
      8     -13.7994      1.00000
      9     -13.7776      1.00000
     10     -13.7620      1.00000
     11     -13.7551      1.00000
     12     -13.7474      1.00000
     13     -13.7392      1.00000
     14     -13.7338      1.00000
     15     -13.7142      1.00000
     16     -13.6871      1.00000
     17      -7.2045      1.00000
     18      -6.9890      1.00000
     19      -6.5538      1.00000
     20      -6.2587      1.00000
     21      -6.0786      1.00000
     22      -5.9046      1.00000
     23      -5.8785      1.00000
     24      -5.8076      1.00000
     25      -1.5194      1.00000
     26      -1.2124      1.00000
     27      -0.8005      1.00000
     28      -0.7135      1.00000
     29       0.3994      1.00000
     30       0.4448      1.00000
     31       0.6757      1.00000
     32       0.7741      1.00000
     33       0.9972      1.00000
     34       1.1578      1.00000
     35       1.2990      1.00000
     36       1.4027      1.00000
     37       1.7991      1.00000
     38       1.9116      1.00000
     39       1.9845      1.00000
     40       2.1798      1.00000
     41       2.2336      1.00000
     42       2.3223      1.00000
     43       2.5548      1.00000
     44       2.7506      1.00000
     45       2.7616      1.00000
     46       2.8064      1.00000
     47       2.8645      1.00000
     48       3.0211      1.00000
     49       5.6216      0.00000
     50       5.7517      0.00000
     51       6.0530      0.00000
     52       6.2992      0.00000
     53       6.6013      0.00000
     54       6.7336      0.00000
     55       6.8267      0.00000
     56       6.8626      0.00000
     57       7.0632      0.00000
     58       7.4565      0.00000
     59       7.5776      0.00000
     60       7.7669      0.00000
     61       7.8742      0.00000
     62       8.2288      0.00000
     63       8.2687      0.00000
     64       8.4765      0.00000

 k-point    61 :      -0.3333    0.2000    0.3333
  band No.  band energies     occupation 
      1     -32.3792      1.00000
      2     -32.3720      1.00000
      3     -32.3689      1.00000
      4     -32.3672      1.00000
      5     -13.9320      1.00000
      6     -13.9131      1.00000
      7     -13.8917      1.00000
      8     -13.7988      1.00000
      9     -13.7776      1.00000
     10     -13.7618      1.00000
     11     -13.7549      1.00000
     12     -13.7472      1.00000
     13     -13.7392      1.00000
     14     -13.7337      1.00000
     15     -13.7143      1.00000
     16     -13.6871      1.00000
     17      -7.2740      1.00000
     18      -7.0057      1.00000
     19      -6.4960      1.00000
     20      -6.2423      1.00000
     21      -6.0590      1.00000
     22      -5.8932      1.00000
     23      -5.8490      1.00000
     24      -5.8126      1.00000
     25      -1.5700      1.00000
     26      -1.1729      1.00000
     27      -0.8206      1.00000
     28      -0.7348      1.00000
     29       0.1512      1.00000
     30       0.3333      1.00000
     31       0.6592      1.00000
     32       0.8398      1.00000
     33       0.9980      1.00000
     34       1.2766      1.00000
     35       1.2968      1.00000
     36       1.5099      1.00000
     37       1.7611      1.00000
     38       1.8355      1.00000
     39       1.9210      1.00000
     40       2.1430      1.00000
     41       2.2885      1.00000
     42       2.5283      1.00000
     43       2.6007      1.00000
     44       2.6777      1.00000
     45       2.8269      1.00000
     46       2.8460      1.00000
     47       2.9265      1.00000
     48       3.0051      1.00000
     49       5.4950      0.00000
     50       5.7408      0.00000
     51       6.0708      0.00000
     52       6.4982      0.00000
     53       6.5997      0.00000
     54       6.7432      0.00000
     55       6.8752      0.00000
     56       6.9711      0.00000
     57       7.0716      0.00000
     58       7.4238      0.00000
     59       7.6162      0.00000
     60       7.7873      0.00000
     61       8.1290      0.00000
     62       8.2113      0.00000
     63       8.2601      0.00000
     64       8.3788      0.00000

 k-point    62 :       0.3333    0.2000   -0.3333
  band No.  band energies     occupation 
      1     -32.3792      1.00000
      2     -32.3720      1.00000
      3     -32.3689      1.00000
      4     -32.3672      1.00000
      5     -13.9320      1.00000
      6     -13.9131      1.00000
      7     -13.8917      1.00000
      8     -13.7988      1.00000
      9     -13.7776      1.00000
     10     -13.7618      1.00000
     11     -13.7549      1.00000
     12     -13.7472      1.00000
     13     -13.7392      1.00000
     14     -13.7337      1.00000
     15     -13.7143      1.00000
     16     -13.6871      1.00000
     17      -7.2740      1.00000
     18      -7.0057      1.00000
     19      -6.4960      1.00000
     20      -6.2423      1.00000
     21      -6.0590      1.00000
     22      -5.8932      1.00000
     23      -5.8490      1.00000
     24      -5.8126      1.00000
     25      -1.5700      1.00000
     26      -1.1729      1.00000
     27      -0.8206      1.00000
     28      -0.7348      1.00000
     29       0.1512      1.00000
     30       0.3333      1.00000
     31       0.6592      1.00000
     32       0.8398      1.00000
     33       0.9980      1.00000
     34       1.2766      1.00000
     35       1.2968      1.00000
     36       1.5099      1.00000
     37       1.7611      1.00000
     38       1.8355      1.00000
     39       1.9210      1.00000
     40       2.1430      1.00000
     41       2.2885      1.00000
     42       2.5283      1.00000
     43       2.6007      1.00000
     44       2.6777      1.00000
     45       2.8269      1.00000
     46       2.8460      1.00000
     47       2.9265      1.00000
     48       3.0051      1.00000
     49       5.4950      0.00000
     50       5.7408      0.00000
     51       6.0708      0.00000
     52       6.4982      0.00000
     53       6.5997      0.00000
     54       6.7432      0.00000
     55       6.8752      0.00000
     56       6.9711      0.00000
     57       7.0716      0.00000
     58       7.4238      0.00000
     59       7.6162      0.00000
     60       7.7873      0.00000
     61       8.1290      0.00000
     62       8.2114      0.00000
     63       8.2609      0.00000
     64       8.3754      0.00000

 k-point    63 :      -0.1667    0.2000    0.3333
  band No.  band energies     occupation 
      1     -32.3792      1.00000
      2     -32.3720      1.00000
      3     -32.3689      1.00000
      4     -32.3672      1.00000
      5     -13.9323      1.00000
      6     -13.9133      1.00000
      7     -13.8921      1.00000
      8     -13.7975      1.00000
      9     -13.7777      1.00000
     10     -13.7617      1.00000
     11     -13.7545      1.00000
     12     -13.7466      1.00000
     13     -13.7392      1.00000
     14     -13.7334      1.00000
     15     -13.7143      1.00000
     16     -13.6871      1.00000
     17      -7.3602      1.00000
     18      -7.0142      1.00000
     19      -6.4443      1.00000
     20      -6.1830      1.00000
     21      -5.9903      1.00000
     22      -5.9234      1.00000
     23      -5.8663      1.00000
     24      -5.8134      1.00000
     25      -1.5518      1.00000
     26      -1.0949      1.00000
     27      -0.9068      1.00000
     28      -0.6283      1.00000
     29      -0.0976      1.00000
     30       0.3121      1.00000
     31       0.5355      1.00000
     32       0.8538      1.00000
     33       1.0630      1.00000
     34       1.2760      1.00000
     35       1.3447      1.00000
     36       1.6174      1.00000
     37       1.7513      1.00000
     38       1.7986      1.00000
     39       1.8796      1.00000
     40       2.0831      1.00000
     41       2.2997      1.00000
     42       2.4500      1.00000
     43       2.4856      1.00000
     44       2.5786      1.00000
     45       2.7621      1.00000
     46       2.8247      1.00000
     47       2.9380      1.00000
     48       3.1022      1.00000
     49       5.4157      0.00000
     50       5.8013      0.00000
     51       6.0278      0.00000
     52       6.5680      0.00000
     53       6.8000      0.00000
     54       6.9324      0.00000
     55       7.1135      0.00000
     56       7.3923      0.00000
     57       7.5503      0.00000
     58       7.6602      0.00000
     59       7.7787      0.00000
     60       8.0219      0.00000
     61       8.1007      0.00000
     62       8.2310      0.00000
     63       8.3129      0.00000
     64       8.4166      0.00000

 k-point    64 :       0.1667    0.2000   -0.3333
  band No.  band energies     occupation 
      1     -32.3792      1.00000
      2     -32.3720      1.00000
      3     -32.3689      1.00000
      4     -32.3672      1.00000
      5     -13.9323      1.00000
      6     -13.9133      1.00000
      7     -13.8921      1.00000
      8     -13.7975      1.00000
      9     -13.7777      1.00000
     10     -13.7617      1.00000
     11     -13.7545      1.00000
     12     -13.7466      1.00000
     13     -13.7392      1.00000
     14     -13.7334      1.00000
     15     -13.7143      1.00000
     16     -13.6871      1.00000
     17      -7.3602      1.00000
     18      -7.0142      1.00000
     19      -6.4443      1.00000
     20      -6.1830      1.00000
     21      -5.9903      1.00000
     22      -5.9234      1.00000
     23      -5.8663      1.00000
     24      -5.8134      1.00000
     25      -1.5518      1.00000
     26      -1.0949      1.00000
     27      -0.9068      1.00000
     28      -0.6283      1.00000
     29      -0.0976      1.00000
     30       0.3121      1.00000
     31       0.5355      1.00000
     32       0.8538      1.00000
     33       1.0630      1.00000
     34       1.2760      1.00000
     35       1.3447      1.00000
     36       1.6174      1.00000
     37       1.7513      1.00000
     38       1.7986      1.00000
     39       1.8796      1.00000
     40       2.0831      1.00000
     41       2.2997      1.00000
     42       2.4500      1.00000
     43       2.4856      1.00000
     44       2.5786      1.00000
     45       2.7621      1.00000
     46       2.8247      1.00000
     47       2.9380      1.00000
     48       3.1022      1.00000
     49       5.4157      0.00000
     50       5.8013      0.00000
     51       6.0278      0.00000
     52       6.5680      0.00000
     53       6.8000      0.00000
     54       6.9324      0.00000
     55       7.1135      0.00000
     56       7.3923      0.00000
     57       7.5503      0.00000
     58       7.6602      0.00000
     59       7.7787      0.00000
     60       8.0219      0.00000
     61       8.1007      0.00000
     62       8.2310      0.00000
     63       8.3125      0.00000
     64       8.4123      0.00000

 k-point    65 :      -0.0000    0.4000    0.3333
  band No.  band energies     occupation 
      1     -32.3769      1.00000
      2     -32.3740      1.00000
      3     -32.3687      1.00000
      4     -32.3677      1.00000
      5     -13.9107      1.00000
      6     -13.8945      1.00000
      7     -13.8663      1.00000
      8     -13.8125      1.00000
      9     -13.7840      1.00000
     10     -13.7733      1.00000
     11     -13.7678      1.00000
     12     -13.7610      1.00000
     13     -13.7439      1.00000
     14     -13.7376      1.00000
     15     -13.7051      1.00000
     16     -13.6956      1.00000
     17      -7.2681      1.00000
     18      -7.1154      1.00000
     19      -6.4021      1.00000
     20      -6.2996      1.00000
     21      -5.9296      1.00000
     22      -5.8982      1.00000
     23      -5.8548      1.00000
     24      -5.8517      1.00000
     25      -1.3027      1.00000
     26      -1.1256      1.00000
     27      -0.7488      1.00000
     28      -0.5704      1.00000
     29       0.0207      1.00000
     30       0.2683      1.00000
     31       0.5708      1.00000
     32       0.6908      1.00000
     33       0.9506      1.00000
     34       1.1025      1.00000
     35       1.4283      1.00000
     36       1.5345      1.00000
     37       1.6264      1.00000
     38       1.7866      1.00000
     39       1.8584      1.00000
     40       1.9093      1.00000
     41       2.1892      1.00000
     42       2.2310      1.00000
     43       2.4091      1.00000
     44       2.5827      1.00000
     45       2.6301      1.00000
     46       2.7899      1.00000
     47       2.8474      1.00000
     48       3.0862      1.00000
     49       5.6307      0.00000
     50       6.1152      0.00000
     51       6.3881      0.00000
     52       6.7867      0.00000
     53       6.9033      0.00000
     54       7.1682      0.00000
     55       7.4333      0.00000
     56       7.6103      0.00000
     57       7.7628      0.00000
     58       7.8274      0.00000
     59       7.9369      0.00000
     60       8.0427      0.00000
     61       8.1826      0.00000
     62       8.3262      0.00000
     63       8.3869      0.00000
     64       8.5393      0.00000

 k-point    66 :       0.0000    0.4000   -0.3333
  band No.  band energies     occupation 
      1     -32.3769      1.00000
      2     -32.3740      1.00000
      3     -32.3687      1.00000
      4     -32.3677      1.00000
      5     -13.9108      1.00000
      6     -13.8945      1.00000
      7     -13.8663      1.00000
      8     -13.8125      1.00000
      9     -13.7840      1.00000
     10     -13.7733      1.00000
     11     -13.7678      1.00000
     12     -13.7610      1.00000
     13     -13.7439      1.00000
     14     -13.7376      1.00000
     15     -13.7051      1.00000
     16     -13.6956      1.00000
     17      -7.2681      1.00000
     18      -7.1154      1.00000
     19      -6.4021      1.00000
     20      -6.2996      1.00000
     21      -5.9296      1.00000
     22      -5.8982      1.00000
     23      -5.8548      1.00000
     24      -5.8517      1.00000
     25      -1.3027      1.00000
     26      -1.1256      1.00000
     27      -0.7488      1.00000
     28      -0.5704      1.00000
     29       0.0207      1.00000
     30       0.2683      1.00000
     31       0.5708      1.00000
     32       0.6908      1.00000
     33       0.9506      1.00000
     34       1.1025      1.00000
     35       1.4283      1.00000
     36       1.5345      1.00000
     37       1.6264      1.00000
     38       1.7866      1.00000
     39       1.8584      1.00000
     40       1.9093      1.00000
     41       2.1892      1.00000
     42       2.2310      1.00000
     43       2.4091      1.00000
     44       2.5827      1.00000
     45       2.6301      1.00000
     46       2.7899      1.00000
     47       2.8474      1.00000
     48       3.0862      1.00000
     49       5.6307      0.00000
     50       6.1152      0.00000
     51       6.3881      0.00000
     52       6.7867      0.00000
     53       6.9033      0.00000
     54       7.1682      0.00000
     55       7.4333      0.00000
     56       7.6103      0.00000
     57       7.7628      0.00000
     58       7.8274      0.00000
     59       7.9369      0.00000
     60       8.0427      0.00000
     61       8.1826      0.00000
     62       8.3262      0.00000
     63       8.3872      0.00000
     64       8.5315      0.00000

 k-point    67 :       0.1667    0.4000    0.3333
  band No.  band energies     occupation 
      1     -32.3769      1.00000
      2     -32.3740      1.00000
      3     -32.3687      1.00000
      4     -32.3677      1.00000
      5     -13.9106      1.00000
      6     -13.8943      1.00000
      7     -13.8663      1.00000
      8     -13.8126      1.00000
      9     -13.7842      1.00000
     10     -13.7735      1.00000
     11     -13.7679      1.00000
     12     -13.7612      1.00000
     13     -13.7442      1.00000
     14     -13.7378      1.00000
     15     -13.7051      1.00000
     16     -13.6956      1.00000
     17      -7.2270      1.00000
     18      -7.0867      1.00000
     19      -6.4152      1.00000
     20      -6.3215      1.00000
     21      -5.9655      1.00000
     22      -5.9413      1.00000
     23      -5.8670      1.00000
     24      -5.8385      1.00000
     25      -1.3022      1.00000
     26      -1.1577      1.00000
     27      -0.6873      1.00000
     28      -0.5289      1.00000
     29       0.1752      1.00000
     30       0.2928      1.00000
     31       0.6342      1.00000
     32       0.7348      1.00000
     33       0.9478      1.00000
     34       1.0226      1.00000
     35       1.3748      1.00000
     36       1.5030      1.00000
     37       1.6896      1.00000
     38       1.8124      1.00000
     39       1.8926      1.00000
     40       1.9133      1.00000
     41       2.2481      1.00000
     42       2.2993      1.00000
     43       2.3630      1.00000
     44       2.5071      1.00000
     45       2.5825      1.00000
     46       2.6578      1.00000
     47       2.8159      1.00000
     48       2.9416      1.00000
     49       5.6141      0.00000
     50       6.0977      0.00000
     51       6.2558      0.00000
     52       6.5657      0.00000
     53       6.9489      0.00000
     54       7.0103      0.00000
     55       7.2142      0.00000
     56       7.4863      0.00000
     57       7.5332      0.00000
     58       7.7721      0.00000
     59       8.2463      0.00000
     60       8.3136      0.00000
     61       8.4163      0.00000
     62       8.4346      0.00000
     63       8.5371      0.00000
     64       8.7330      0.00000

 k-point    68 :      -0.1667    0.4000   -0.3333
  band No.  band energies     occupation 
      1     -32.3769      1.00000
      2     -32.3740      1.00000
      3     -32.3687      1.00000
      4     -32.3677      1.00000
      5     -13.9106      1.00000
      6     -13.8943      1.00000
      7     -13.8663      1.00000
      8     -13.8126      1.00000
      9     -13.7842      1.00000
     10     -13.7735      1.00000
     11     -13.7679      1.00000
     12     -13.7612      1.00000
     13     -13.7442      1.00000
     14     -13.7378      1.00000
     15     -13.7051      1.00000
     16     -13.6956      1.00000
     17      -7.2270      1.00000
     18      -7.0867      1.00000
     19      -6.4152      1.00000
     20      -6.3215      1.00000
     21      -5.9655      1.00000
     22      -5.9413      1.00000
     23      -5.8670      1.00000
     24      -5.8385      1.00000
     25      -1.3022      1.00000
     26      -1.1577      1.00000
     27      -0.6873      1.00000
     28      -0.5289      1.00000
     29       0.1752      1.00000
     30       0.2928      1.00000
     31       0.6342      1.00000
     32       0.7348      1.00000
     33       0.9478      1.00000
     34       1.0226      1.00000
     35       1.3748      1.00000
     36       1.5030      1.00000
     37       1.6896      1.00000
     38       1.8124      1.00000
     39       1.8926      1.00000
     40       1.9133      1.00000
     41       2.2481      1.00000
     42       2.2993      1.00000
     43       2.3630      1.00000
     44       2.5071      1.00000
     45       2.5825      1.00000
     46       2.6578      1.00000
     47       2.8159      1.00000
     48       2.9416      1.00000
     49       5.6141      0.00000
     50       6.0977      0.00000
     51       6.2558      0.00000
     52       6.5657      0.00000
     53       6.9489      0.00000
     54       7.0103      0.00000
     55       7.2142      0.00000
     56       7.4863      0.00000
     57       7.5332      0.00000
     58       7.7721      0.00000
     59       8.2463      0.00000
     60       8.3136      0.00000
     61       8.4163      0.00000
     62       8.4346      0.00000
     63       8.5371      0.00000
     64       8.7311      0.00000

 k-point    69 :       0.3333    0.4000    0.3333
  band No.  band energies     occupation 
      1     -32.3769      1.00000
      2     -32.3740      1.00000
      3     -32.3687      1.00000
      4     -32.3677      1.00000
      5     -13.9103      1.00000
      6     -13.8940      1.00000
      7     -13.8660      1.00000
      8     -13.8125      1.00000
      9     -13.7851      1.00000
     10     -13.7737      1.00000
     11     -13.7682      1.00000
     12     -13.7616      1.00000
     13     -13.7446      1.00000
     14     -13.7382      1.00000
     15     -13.7050      1.00000
     16     -13.6956      1.00000
     17      -7.1647      1.00000
     18      -7.0622      1.00000
     19      -6.4316      1.00000
     20      -6.3123      1.00000
     21      -6.0178      1.00000
     22      -6.0087      1.00000
     23      -5.8802      1.00000
     24      -5.8287      1.00000
     25      -1.3369      1.00000
     26      -1.2364      1.00000
     27      -0.6440      1.00000
     28      -0.5716      1.00000
     29       0.4108      1.00000
     30       0.4990      1.00000
     31       0.6669      1.00000
     32       0.7266      1.00000
     33       0.9537      1.00000
     34       0.9707      1.00000
     35       1.2699      1.00000
     36       1.4934      1.00000
     37       1.7753      1.00000
     38       1.8647      1.00000
     39       1.9150      1.00000
     40       1.9657      1.00000
     41       2.2258      1.00000
     42       2.2916      1.00000
     43       2.3596      1.00000
     44       2.4659      1.00000
     45       2.5968      1.00000
     46       2.6660      1.00000
     47       2.8551      1.00000
     48       2.9357      1.00000
     49       5.6758      0.00000
     50       6.0662      0.00000
     51       6.1428      0.00000
     52       6.2890      0.00000
     53       6.8443      0.00000
     54       6.9747      0.00000
     55       7.0336      0.00000
     56       7.1445      0.00000
     57       7.3068      0.00000
     58       7.5148      0.00000
     59       7.9747      0.00000
     60       8.1917      0.00000
     61       8.3776      0.00000
     62       8.4514      0.00000
     63       8.6002      0.00000
     64       8.7379      0.00000

 k-point    70 :      -0.3333    0.4000   -0.3333
  band No.  band energies     occupation 
      1     -32.3769      1.00000
      2     -32.3740      1.00000
      3     -32.3687      1.00000
      4     -32.3677      1.00000
      5     -13.9103      1.00000
      6     -13.8940      1.00000
      7     -13.8660      1.00000
      8     -13.8125      1.00000
      9     -13.7851      1.00000
     10     -13.7737      1.00000
     11     -13.7682      1.00000
     12     -13.7616      1.00000
     13     -13.7446      1.00000
     14     -13.7382      1.00000
     15     -13.7050      1.00000
     16     -13.6956      1.00000
     17      -7.1647      1.00000
     18      -7.0622      1.00000
     19      -6.4316      1.00000
     20      -6.3123      1.00000
     21      -6.0178      1.00000
     22      -6.0087      1.00000
     23      -5.8802      1.00000
     24      -5.8287      1.00000
     25      -1.3369      1.00000
     26      -1.2364      1.00000
     27      -0.6440      1.00000
     28      -0.5716      1.00000
     29       0.4108      1.00000
     30       0.4990      1.00000
     31       0.6669      1.00000
     32       0.7266      1.00000
     33       0.9537      1.00000
     34       0.9707      1.00000
     35       1.2699      1.00000
     36       1.4934      1.00000
     37       1.7753      1.00000
     38       1.8647      1.00000
     39       1.9150      1.00000
     40       1.9657      1.00000
     41       2.2258      1.00000
     42       2.2916      1.00000
     43       2.3596      1.00000
     44       2.4659      1.00000
     45       2.5968      1.00000
     46       2.6660      1.00000
     47       2.8551      1.00000
     48       2.9357      1.00000
     49       5.6758      0.00000
     50       6.0662      0.00000
     51       6.1428      0.00000
     52       6.2890      0.00000
     53       6.8443      0.00000
     54       6.9747      0.00000
     55       7.0336      0.00000
     56       7.1445      0.00000
     57       7.3068      0.00000
     58       7.5148      0.00000
     59       7.9747      0.00000
     60       8.1917      0.00000
     61       8.3776      0.00000
     62       8.4514      0.00000
     63       8.6007      0.00000
     64       8.7358      0.00000

 k-point    71 :       0.5000    0.4000    0.3333
  band No.  band energies     occupation 
      1     -32.3769      1.00000
      2     -32.3740      1.00000
      3     -32.3687      1.00000
      4     -32.3677      1.00000
      5     -13.9102      1.00000
      6     -13.8939      1.00000
      7     -13.8658      1.00000
      8     -13.8123      1.00000
      9     -13.7856      1.00000
     10     -13.7737      1.00000
     11     -13.7684      1.00000
     12     -13.7618      1.00000
     13     -13.7449      1.00000
     14     -13.7384      1.00000
     15     -13.7050      1.00000
     16     -13.6956      1.00000
     17      -7.1478      1.00000
     18      -7.0688      1.00000
     19      -6.4164      1.00000
     20      -6.2960      1.00000
     21      -6.0618      1.00000
     22      -5.9873      1.00000
     23      -5.8823      1.00000
     24      -5.8469      1.00000
     25      -1.3738      1.00000
     26      -1.2686      1.00000
     27      -0.6669      1.00000
     28      -0.6365      1.00000
     29       0.4323      1.00000
     30       0.5251      1.00000
     31       0.6355      1.00000
     32       0.8315      1.00000
     33       0.8822      1.00000
     34       1.0789      1.00000
     35       1.2675      1.00000
     36       1.5377      1.00000
     37       1.7534      1.00000
     38       1.8412      1.00000
     39       1.9637      1.00000
     40       2.0090      1.00000
     41       2.1694      1.00000
     42       2.2773      1.00000
     43       2.3484      1.00000
     44       2.5471      1.00000
     45       2.6910      1.00000
     46       2.7254      1.00000
     47       2.9384      1.00000
     48       3.0186      1.00000
     49       5.8348      0.00000
     50       5.9945      0.00000
     51       6.2461      0.00000
     52       6.3125      0.00000
     53       6.6586      0.00000
     54       6.7426      0.00000
     55       6.8944      0.00000
     56       7.0637      0.00000
     57       7.1794      0.00000
     58       7.3623      0.00000
     59       7.7727      0.00000
     60       7.9673      0.00000
     61       8.1622      0.00000
     62       8.3551      0.00000
     63       8.4585      0.00000
     64       8.5314      0.00000

 k-point    72 :       0.5000    0.4000   -0.3333
  band No.  band energies     occupation 
      1     -32.3769      1.00000
      2     -32.3740      1.00000
      3     -32.3687      1.00000
      4     -32.3677      1.00000
      5     -13.9102      1.00000
      6     -13.8939      1.00000
      7     -13.8658      1.00000
      8     -13.8123      1.00000
      9     -13.7856      1.00000
     10     -13.7737      1.00000
     11     -13.7684      1.00000
     12     -13.7618      1.00000
     13     -13.7449      1.00000
     14     -13.7384      1.00000
     15     -13.7050      1.00000
     16     -13.6956      1.00000
     17      -7.1478      1.00000
     18      -7.0688      1.00000
     19      -6.4164      1.00000
     20      -6.2960      1.00000
     21      -6.0618      1.00000
     22      -5.9873      1.00000
     23      -5.8823      1.00000
     24      -5.8469      1.00000
     25      -1.3738      1.00000
     26      -1.2686      1.00000
     27      -0.6669      1.00000
     28      -0.6365      1.00000
     29       0.4323      1.00000
     30       0.5251      1.00000
     31       0.6355      1.00000
     32       0.8315      1.00000
     33       0.8822      1.00000
     34       1.0789      1.00000
     35       1.2675      1.00000
     36       1.5377      1.00000
     37       1.7534      1.00000
     38       1.8412      1.00000
     39       1.9637      1.00000
     40       2.0090      1.00000
     41       2.1694      1.00000
     42       2.2773      1.00000
     43       2.3484      1.00000
     44       2.5471      1.00000
     45       2.6910      1.00000
     46       2.7254      1.00000
     47       2.9384      1.00000
     48       3.0186      1.00000
     49       5.8348      0.00000
     50       5.9945      0.00000
     51       6.2461      0.00000
     52       6.3125      0.00000
     53       6.6586      0.00000
     54       6.7426      0.00000
     55       6.8944      0.00000
     56       7.0637      0.00000
     57       7.1794      0.00000
     58       7.3623      0.00000
     59       7.7727      0.00000
     60       7.9673      0.00000
     61       8.1622      0.00000
     62       8.3550      0.00000
     63       8.4517      0.00000
     64       8.5265      0.00000

 k-point    73 :      -0.3333    0.4000    0.3333
  band No.  band energies     occupation 
      1     -32.3769      1.00000
      2     -32.3740      1.00000
      3     -32.3687      1.00000
      4     -32.3677      1.00000
      5     -13.9103      1.00000
      6     -13.8940      1.00000
      7     -13.8658      1.00000
      8     -13.8122      1.00000
      9     -13.7854      1.00000
     10     -13.7736      1.00000
     11     -13.7683      1.00000
     12     -13.7616      1.00000
     13     -13.7446      1.00000
     14     -13.7382      1.00000
     15     -13.7050      1.00000
     16     -13.6956      1.00000
     17      -7.1986      1.00000
     18      -7.0966      1.00000
     19      -6.3955      1.00000
     20      -6.2751      1.00000
     21      -6.0244      1.00000
     22      -5.9207      1.00000
     23      -5.8890      1.00000
     24      -5.8652      1.00000
     25      -1.3870      1.00000
     26      -1.2345      1.00000
     27      -0.7113      1.00000
     28      -0.6778      1.00000
     29       0.2915      1.00000
     30       0.4880      1.00000
     31       0.5404      1.00000
     32       0.7804      1.00000
     33       0.9507      1.00000
     34       1.0802      1.00000
     35       1.2737      1.00000
     36       1.5147      1.00000
     37       1.7609      1.00000
     38       1.8253      1.00000
     39       1.8762      1.00000
     40       1.9632      1.00000
     41       2.1764      1.00000
     42       2.2423      1.00000
     43       2.5633      1.00000
     44       2.6445      1.00000
     45       2.7465      1.00000
     46       2.8183      1.00000
     47       3.0155      1.00000
     48       3.0605      1.00000
     49       5.7951      0.00000
     50       6.1107      0.00000
     51       6.2914      0.00000
     52       6.4231      0.00000
     53       6.6715      0.00000
     54       6.7474      0.00000
     55       6.9805      0.00000
     56       7.0795      0.00000
     57       7.3117      0.00000
     58       7.4271      0.00000
     59       7.8452      0.00000
     60       7.9672      0.00000
     61       8.0532      0.00000
     62       8.1949      0.00000
     63       8.2579      0.00000
     64       8.3314      0.00000

 k-point    74 :       0.3333    0.4000   -0.3333
  band No.  band energies     occupation 
      1     -32.3769      1.00000
      2     -32.3740      1.00000
      3     -32.3687      1.00000
      4     -32.3677      1.00000
      5     -13.9103      1.00000
      6     -13.8940      1.00000
      7     -13.8658      1.00000
      8     -13.8122      1.00000
      9     -13.7854      1.00000
     10     -13.7736      1.00000
     11     -13.7683      1.00000
     12     -13.7616      1.00000
     13     -13.7446      1.00000
     14     -13.7382      1.00000
     15     -13.7050      1.00000
     16     -13.6956      1.00000
     17      -7.1986      1.00000
     18      -7.0966      1.00000
     19      -6.3955      1.00000
     20      -6.2751      1.00000
     21      -6.0244      1.00000
     22      -5.9207      1.00000
     23      -5.8890      1.00000
     24      -5.8652      1.00000
     25      -1.3870      1.00000
     26      -1.2345      1.00000
     27      -0.7113      1.00000
     28      -0.6778      1.00000
     29       0.2915      1.00000
     30       0.4880      1.00000
     31       0.5404      1.00000
     32       0.7804      1.00000
     33       0.9507      1.00000
     34       1.0802      1.00000
     35       1.2737      1.00000
     36       1.5147      1.00000
     37       1.7609      1.00000
     38       1.8253      1.00000
     39       1.8762      1.00000
     40       1.9632      1.00000
     41       2.1764      1.00000
     42       2.2423      1.00000
     43       2.5633      1.00000
     44       2.6445      1.00000
     45       2.7465      1.00000
     46       2.8183      1.00000
     47       3.0155      1.00000
     48       3.0605      1.00000
     49       5.7951      0.00000
     50       6.1107      0.00000
     51       6.2914      0.00000
     52       6.4231      0.00000
     53       6.6715      0.00000
     54       6.7474      0.00000
     55       6.9805      0.00000
     56       7.0795      0.00000
     57       7.3117      0.00000
     58       7.4271      0.00000
     59       7.8452      0.00000
     60       7.9672      0.00000
     61       8.0532      0.00000
     62       8.1949      0.00000
     63       8.2580      0.00000
     64       8.3347      0.00000

 k-point    75 :      -0.1667    0.4000    0.3333
  band No.  band energies     occupation 
      1     -32.3769      1.00000
      2     -32.3740      1.00000
      3     -32.3687      1.00000
      4     -32.3677      1.00000
      5     -13.9106      1.00000
      6     -13.8943      1.00000
      7     -13.8660      1.00000
      8     -13.8123      1.00000
      9     -13.7846      1.00000
     10     -13.7734      1.00000
     11     -13.7680      1.00000
     12     -13.7612      1.00000
     13     -13.7442      1.00000
     14     -13.7378      1.00000
     15     -13.7051      1.00000
     16     -13.6956      1.00000
     17      -7.2553      1.00000
     18      -7.1196      1.00000
     19      -6.3965      1.00000
     20      -6.2713      1.00000
     21      -5.9555      1.00000
     22      -5.8890      1.00000
     23      -5.8830      1.00000
     24      -5.8503      1.00000
     25      -1.3529      1.00000
     26      -1.1717      1.00000
     27      -0.7516      1.00000
     28      -0.6476      1.00000
     29       0.0959      1.00000
     30       0.4312      1.00000
     31       0.4997      1.00000
     32       0.6620      1.00000
     33       0.9959      1.00000
     34       1.0743      1.00000
     35       1.3541      1.00000
     36       1.4969      1.00000
     37       1.7146      1.00000
     38       1.8090      1.00000
     39       1.8422      1.00000
     40       1.9189      1.00000
     41       2.1624      1.00000
     42       2.1971      1.00000
     43       2.4977      1.00000
     44       2.6587      1.00000
     45       2.7822      1.00000
     46       2.8546      1.00000
     47       2.9747      1.00000
     48       3.1286      1.00000
     49       5.6732      0.00000
     50       6.1335      0.00000
     51       6.3590      0.00000
     52       6.5928      0.00000
     53       6.9549      0.00000
     54       7.0382      0.00000
     55       7.2226      0.00000
     56       7.3284      0.00000
     57       7.4689      0.00000
     58       7.6194      0.00000
     59       7.8993      0.00000
     60       8.0288      0.00000
     61       8.0922      0.00000
     62       8.1862      0.00000
     63       8.2630      0.00000
     64       8.4009      0.00000

 k-point    76 :       0.1667    0.4000   -0.3333
  band No.  band energies     occupation 
      1     -32.3769      1.00000
      2     -32.3740      1.00000
      3     -32.3687      1.00000
      4     -32.3677      1.00000
      5     -13.9106      1.00000
      6     -13.8943      1.00000
      7     -13.8660      1.00000
      8     -13.8123      1.00000
      9     -13.7846      1.00000
     10     -13.7734      1.00000
     11     -13.7680      1.00000
     12     -13.7612      1.00000
     13     -13.7442      1.00000
     14     -13.7378      1.00000
     15     -13.7051      1.00000
     16     -13.6956      1.00000
     17      -7.2553      1.00000
     18      -7.1196      1.00000
     19      -6.3965      1.00000
     20      -6.2713      1.00000
     21      -5.9555      1.00000
     22      -5.8890      1.00000
     23      -5.8830      1.00000
     24      -5.8503      1.00000
     25      -1.3529      1.00000
     26      -1.1717      1.00000
     27      -0.7516      1.00000
     28      -0.6476      1.00000
     29       0.0959      1.00000
     30       0.4312      1.00000
     31       0.4997      1.00000
     32       0.6620      1.00000
     33       0.9959      1.00000
     34       1.0743      1.00000
     35       1.3541      1.00000
     36       1.4969      1.00000
     37       1.7146      1.00000
     38       1.8090      1.00000
     39       1.8422      1.00000
     40       1.9189      1.00000
     41       2.1624      1.00000
     42       2.1971      1.00000
     43       2.4977      1.00000
     44       2.6587      1.00000
     45       2.7822      1.00000
     46       2.8546      1.00000
     47       2.9747      1.00000
     48       3.1286      1.00000
     49       5.6732      0.00000
     50       6.1335      0.00000
     51       6.3590      0.00000
     52       6.5928      0.00000
     53       6.9549      0.00000
     54       7.0382      0.00000
     55       7.2226      0.00000
     56       7.3284      0.00000
     57       7.4689      0.00000
     58       7.6194      0.00000
     59       7.8993      0.00000
     60       8.0288      0.00000
     61       8.0922      0.00000
     62       8.1860      0.00000
     63       8.2633      0.00000
     64       8.3971      0.00000

 k-point    77 :      -0.0000    0.0000    0.5000
  band No.  band energies     occupation 
      1     -32.3759      1.00000
      2     -32.3759      1.00000
      3     -32.3678      1.00000
      4     -32.3678      1.00000
      5     -13.9480      1.00000
      6     -13.9480      1.00000
      7     -13.8277      1.00000
      8     -13.8277      1.00000
      9     -13.7793      1.00000
     10     -13.7793      1.00000
     11     -13.7386      1.00000
     12     -13.7386      1.00000
     13     -13.7315      1.00000
     14     -13.7315      1.00000
     15     -13.6988      1.00000
     16     -13.6988      1.00000
     17      -7.2095      1.00000
     18      -7.2095      1.00000
     19      -6.2309      1.00000
     20      -6.2309      1.00000
     21      -6.0239      1.00000
     22      -6.0239      1.00000
     23      -5.8571      1.00000
     24      -5.8571      1.00000
     25      -1.2427      1.00000
     26      -1.2427      1.00000
     27      -0.8232      1.00000
     28      -0.8232      1.00000
     29       0.0401      1.00000
     30       0.0401      1.00000
     31       0.8995      1.00000
     32       0.8995      1.00000
     33       1.2666      1.00000
     34       1.2666      1.00000
     35       1.4736      1.00000
     36       1.4736      1.00000
     37       1.7136      1.00000
     38       1.7136      1.00000
     39       1.8865      1.00000
     40       1.8865      1.00000
     41       2.3075      1.00000
     42       2.3075      1.00000
     43       2.5609      1.00000
     44       2.5609      1.00000
     45       2.7661      1.00000
     46       2.7661      1.00000
     47       2.9420      1.00000
     48       2.9420      1.00000
     49       5.1464      0.00000
     50       5.1464      0.00000
     51       6.0717      0.00000
     52       6.0717      0.00000
     53       7.1040      0.00000
     54       7.1040      0.00000
     55       7.4365      0.00000
     56       7.4365      0.00000
     57       7.7790      0.00000
     58       7.7790      0.00000
     59       8.0615      0.00000
     60       8.0615      0.00000
     61       8.3335      0.00000
     62       8.3335      0.00000
     63       8.5312      0.00000
     64       8.5312      0.00000

 k-point    78 :       0.1667   -0.0000    0.5000
  band No.  band energies     occupation 
      1     -32.3759      1.00000
      2     -32.3759      1.00000
      3     -32.3678      1.00000
      4     -32.3678      1.00000
      5     -13.9479      1.00000
      6     -13.9478      1.00000
      7     -13.8276      1.00000
      8     -13.8275      1.00000
      9     -13.7798      1.00000
     10     -13.7797      1.00000
     11     -13.7388      1.00000
     12     -13.7388      1.00000
     13     -13.7315      1.00000
     14     -13.7314      1.00000
     15     -13.6988      1.00000
     16     -13.6988      1.00000
     17      -7.1847      1.00000
     18      -7.1825      1.00000
     19      -6.3174      1.00000
     20      -6.2797      1.00000
     21      -5.9863      1.00000
     22      -5.9496      1.00000
     23      -5.9224      1.00000
     24      -5.8307      1.00000
     25      -1.2781      1.00000
     26      -1.2003      1.00000
     27      -0.9325      1.00000
     28      -0.8150      1.00000
     29       0.0253      1.00000
     30       0.2434      1.00000
     31       0.8209      1.00000
     32       0.9424      1.00000
     33       1.1699      1.00000
     34       1.2627      1.00000
     35       1.3703      1.00000
     36       1.4283      1.00000
     37       1.7336      1.00000
     38       1.8213      1.00000
     39       1.9319      1.00000
     40       2.0187      1.00000
     41       2.2830      1.00000
     42       2.3573      1.00000
     43       2.5236      1.00000
     44       2.6523      1.00000
     45       2.6717      1.00000
     46       2.8388      1.00000
     47       2.9538      1.00000
     48       3.0740      1.00000
     49       5.1763      0.00000
     50       5.1946      0.00000
     51       6.0217      0.00000
     52       6.1372      0.00000
     53       6.8403      0.00000
     54       6.8703      0.00000
     55       7.1242      0.00000
     56       7.2911      0.00000
     57       7.4489      0.00000
     58       7.8421      0.00000
     59       7.8934      0.00000
     60       8.1104      0.00000
     61       8.1115      0.00000
     62       8.3853      0.00000
     63       8.4381      0.00000
     64       8.6901      0.00000

 k-point    79 :       0.3333    0.0000    0.5000
  band No.  band energies     occupation 
      1     -32.3759      1.00000
      2     -32.3759      1.00000
      3     -32.3678      1.00000
      4     -32.3678      1.00000
      5     -13.9476      1.00000
      6     -13.9475      1.00000
      7     -13.8274      1.00000
      8     -13.8273      1.00000
      9     -13.7808      1.00000
     10     -13.7807      1.00000
     11     -13.7392      1.00000
     12     -13.7392      1.00000
     13     -13.7314      1.00000
     14     -13.7314      1.00000
     15     -13.6988      1.00000
     16     -13.6988      1.00000
     17      -7.1280      1.00000
     18      -7.1237      1.00000
     19      -6.4172      1.00000
     20      -6.3721      1.00000
     21      -6.0114      1.00000
     22      -5.9756      1.00000
     23      -5.8345      1.00000
     24      -5.8108      1.00000
     25      -1.3023      1.00000
     26      -1.1869      1.00000
     27      -0.9681      1.00000
     28      -0.9518      1.00000
     29       0.2495      1.00000
     30       0.4063      1.00000
     31       0.7647      1.00000
     32       0.9561      1.00000
     33       1.0450      1.00000
     34       1.1613      1.00000
     35       1.3651      1.00000
     36       1.3750      1.00000
     37       1.6418      1.00000
     38       1.9158      1.00000
     39       2.0245      1.00000
     40       2.1616      1.00000
     41       2.3502      1.00000
     42       2.3725      1.00000
     43       2.6828      1.00000
     44       2.7268      1.00000
     45       2.7590      1.00000
     46       2.7916      1.00000
     47       3.0349      1.00000
     48       3.1303      1.00000
     49       5.2849      0.00000
     50       5.3078      0.00000
     51       5.9702      0.00000
     52       6.2895      0.00000
     53       6.4096      0.00000
     54       6.6234      0.00000
     55       6.7005      0.00000
     56       6.8791      0.00000
     57       7.2365      0.00000
     58       7.4335      0.00000
     59       7.7124      0.00000
     60       7.8446      0.00000
     61       8.0754      0.00000
     62       8.2625      0.00000
     63       8.4369      0.00000
     64       8.4827      0.00000

 k-point    80 :       0.5000   -0.0000    0.5000
  band No.  band energies     occupation 
      1     -32.3759      1.00000
      2     -32.3759      1.00000
      3     -32.3678      1.00000
      4     -32.3678      1.00000
      5     -13.9474      1.00000
      6     -13.9474      1.00000
      7     -13.8272      1.00000
      8     -13.8272      1.00000
      9     -13.7812      1.00000
     10     -13.7812      1.00000
     11     -13.7394      1.00000
     12     -13.7394      1.00000
     13     -13.7314      1.00000
     14     -13.7314      1.00000
     15     -13.6988      1.00000
     16     -13.6988      1.00000
     17      -7.0930      1.00000
     18      -7.0930      1.00000
     19      -6.4386      1.00000
     20      -6.4386      1.00000
     21      -6.0177      1.00000
     22      -6.0177      1.00000
     23      -5.7921      1.00000
     24      -5.7921      1.00000
     25      -1.2650      1.00000
     26      -1.2650      1.00000
     27      -0.9769      1.00000
     28      -0.9769      1.00000
     29       0.4127      1.00000
     30       0.4127      1.00000
     31       0.8651      1.00000
     32       0.8651      1.00000
     33       1.0197      1.00000
     34       1.0197      1.00000
     35       1.3688      1.00000
     36       1.3688      1.00000
     37       1.8262      1.00000
     38       1.8262      1.00000
     39       2.1221      1.00000
     40       2.1221      1.00000
     41       2.3389      1.00000
     42       2.3389      1.00000
     43       2.7247      1.00000
     44       2.7247      1.00000
     45       2.8437      1.00000
     46       2.8437      1.00000
     47       3.1248      1.00000
     48       3.1248      1.00000
     49       5.4106      0.00000
     50       5.4106      0.00000
     51       5.9713      0.00000
     52       5.9713      0.00000
     53       6.3648      0.00000
     54       6.3648      0.00000
     55       6.8423      0.00000
     56       6.8423      0.00000
     57       7.2296      0.00000
     58       7.2296      0.00000
     59       7.5079      0.00000
     60       7.5079      0.00000
     61       8.1668      0.00000
     62       8.1668      0.00000
     63       8.4479      0.00000
     64       8.4484      0.00000

 k-point    81 :      -0.0000    0.2000    0.5000
  band No.  band energies     occupation 
      1     -32.3753      1.00000
      2     -32.3753      1.00000
      3     -32.3684      1.00000
      4     -32.3683      1.00000
      5     -13.9335      1.00000
      6     -13.9335      1.00000
      7     -13.8333      1.00000
      8     -13.8333      1.00000
      9     -13.7763      1.00000
     10     -13.7763      1.00000
     11     -13.7438      1.00000
     12     -13.7438      1.00000
     13     -13.7357      1.00000
     14     -13.7357      1.00000
     15     -13.7023      1.00000
     16     -13.7023      1.00000
     17      -7.1854      1.00000
     18      -7.1854      1.00000
     19      -6.3203      1.00000
     20      -6.3203      1.00000
     21      -5.9666      1.00000
     22      -5.9666      1.00000
     23      -5.8554      1.00000
     24      -5.8554      1.00000
     25      -1.1709      1.00000
     26      -1.1709      1.00000
     27      -0.7860      1.00000
     28      -0.7860      1.00000
     29       0.0813      1.00000
     30       0.0813      1.00000
     31       0.8404      1.00000
     32       0.8404      1.00000
     33       1.1178      1.00000
     34       1.1178      1.00000
     35       1.4773      1.00000
     36       1.4773      1.00000
     37       1.6596      1.00000
     38       1.6596      1.00000
     39       1.9736      1.00000
     40       1.9736      1.00000
     41       2.2245      1.00000
     42       2.2245      1.00000
     43       2.5733      1.00000
     44       2.5733      1.00000
     45       2.5988      1.00000
     46       2.5988      1.00000
     47       3.0288      1.00000
     48       3.0288      1.00000
     49       5.3322      0.00000
     50       5.3322      0.00000
     51       6.3724      0.00000
     52       6.3724      0.00000
     53       6.9196      0.00000
     54       6.9196      0.00000
     55       7.5082      0.00000
     56       7.5082      0.00000
     57       7.9212      0.00000
     58       7.9212      0.00000
     59       8.0379      0.00000
     60       8.0379      0.00000
     61       8.2232      0.00000
     62       8.2232      0.00000
     63       8.5488      0.00000
     64       8.5489      0.00000

 k-point    82 :       0.1667    0.2000    0.5000
  band No.  band energies     occupation 
      1     -32.3753      1.00000
      2     -32.3753      1.00000
      3     -32.3684      1.00000
      4     -32.3683      1.00000
      5     -13.9334      1.00000
      6     -13.9333      1.00000
      7     -13.8332      1.00000
      8     -13.8332      1.00000
      9     -13.7768      1.00000
     10     -13.7767      1.00000
     11     -13.7440      1.00000
     12     -13.7440      1.00000
     13     -13.7357      1.00000
     14     -13.7357      1.00000
     15     -13.7023      1.00000
     16     -13.7023      1.00000
     17      -7.1714      1.00000
     18      -7.1553      1.00000
     19      -6.3986      1.00000
     20      -6.2827      1.00000
     21      -6.0063      1.00000
     22      -5.9201      1.00000
     23      -5.9094      1.00000
     24      -5.8239      1.00000
     25      -1.2246      1.00000
     26      -1.1370      1.00000
     27      -0.8848      1.00000
     28      -0.7699      1.00000
     29       0.0736      1.00000
     30       0.2962      1.00000
     31       0.7775      1.00000
     32       0.8666      1.00000
     33       1.0231      1.00000
     34       1.2034      1.00000
     35       1.3250      1.00000
     36       1.4954      1.00000
     37       1.5784      1.00000
     38       1.8079      1.00000
     39       1.8993      1.00000
     40       2.0751      1.00000
     41       2.2429      1.00000
     42       2.4141      1.00000
     43       2.5236      1.00000
     44       2.5950      1.00000
     45       2.6469      1.00000
     46       2.7256      1.00000
     47       2.9078      1.00000
     48       3.0639      1.00000
     49       5.3386      0.00000
     50       5.3775      0.00000
     51       6.3304      0.00000
     52       6.3862      0.00000
     53       6.6993      0.00000
     54       6.9515      0.00000
     55       7.0725      0.00000
     56       7.3541      0.00000
     57       7.5513      0.00000
     58       7.8162      0.00000
     59       7.9120      0.00000
     60       8.0293      0.00000
     61       8.1720      0.00000
     62       8.3598      0.00000
     63       8.4357      0.00000
     64       8.6414      0.00000

 k-point    83 :      -0.1667    0.2000    0.5000
  band No.  band energies     occupation 
      1     -32.3753      1.00000
      2     -32.3753      1.00000
      3     -32.3684      1.00000
      4     -32.3683      1.00000
      5     -13.9334      1.00000
      6     -13.9333      1.00000
      7     -13.8332      1.00000
      8     -13.8332      1.00000
      9     -13.7768      1.00000
     10     -13.7767      1.00000
     11     -13.7440      1.00000
     12     -13.7440      1.00000
     13     -13.7357      1.00000
     14     -13.7357      1.00000
     15     -13.7023      1.00000
     16     -13.7023      1.00000
     17      -7.1714      1.00000
     18      -7.1553      1.00000
     19      -6.3986      1.00000
     20      -6.2827      1.00000
     21      -6.0063      1.00000
     22      -5.9201      1.00000
     23      -5.9094      1.00000
     24      -5.8239      1.00000
     25      -1.2246      1.00000
     26      -1.1370      1.00000
     27      -0.8848      1.00000
     28      -0.7699      1.00000
     29       0.0736      1.00000
     30       0.2962      1.00000
     31       0.7775      1.00000
     32       0.8666      1.00000
     33       1.0231      1.00000
     34       1.2034      1.00000
     35       1.3250      1.00000
     36       1.4954      1.00000
     37       1.5784      1.00000
     38       1.8079      1.00000
     39       1.8993      1.00000
     40       2.0751      1.00000
     41       2.2429      1.00000
     42       2.4141      1.00000
     43       2.5236      1.00000
     44       2.5950      1.00000
     45       2.6469      1.00000
     46       2.7256      1.00000
     47       2.9078      1.00000
     48       3.0639      1.00000
     49       5.3386      0.00000
     50       5.3775      0.00000
     51       6.3304      0.00000
     52       6.3862      0.00000
     53       6.6993      0.00000
     54       6.9515      0.00000
     55       7.0725      0.00000
     56       7.3541      0.00000
     57       7.5513      0.00000
     58       7.8162      0.00000
     59       7.9120      0.00000
     60       8.0293      0.00000
     61       8.1720      0.00000
     62       8.3599      0.00000
     63       8.4364      0.00000
     64       8.6502      0.00000

 k-point    84 :       0.3333    0.2000    0.5000
  band No.  band energies     occupation 
      1     -32.3753      1.00000
      2     -32.3753      1.00000
      3     -32.3684      1.00000
      4     -32.3683      1.00000
      5     -13.9331      1.00000
      6     -13.9329      1.00000
      7     -13.8330      1.00000
      8     -13.8329      1.00000
      9     -13.7777      1.00000
     10     -13.7776      1.00000
     11     -13.7444      1.00000
     12     -13.7444      1.00000
     13     -13.7358      1.00000
     14     -13.7357      1.00000
     15     -13.7023      1.00000
     16     -13.7023      1.00000
     17      -7.1255      1.00000
     18      -7.1058      1.00000
     19      -6.4451      1.00000
     20      -6.3433      1.00000
     21      -6.0078      1.00000
     22      -5.9707      1.00000
     23      -5.8934      1.00000
     24      -5.8000      1.00000
     25      -1.2590      1.00000
     26      -1.1548      1.00000
     27      -0.9206      1.00000
     28      -0.8771      1.00000
     29       0.2912      1.00000
     30       0.4582      1.00000
     31       0.7226      1.00000
     32       0.8892      1.00000
     33       0.9986      1.00000
     34       1.0912      1.00000
     35       1.3089      1.00000
     36       1.3802      1.00000
     37       1.6746      1.00000
     38       1.8728      1.00000
     39       2.0476      1.00000
     40       2.1181      1.00000
     41       2.3301      1.00000
     42       2.4280      1.00000
     43       2.5792      1.00000
     44       2.6277      1.00000
     45       2.6861      1.00000
     46       2.8458      1.00000
     47       2.9376      1.00000
     48       3.0060      1.00000
     49       5.4220      0.00000
     50       5.4655      0.00000
     51       6.2295      0.00000
     52       6.3983      0.00000
     53       6.5138      0.00000
     54       6.7442      0.00000
     55       6.8189      0.00000
     56       6.8521      0.00000
     57       7.2588      0.00000
     58       7.5105      0.00000
     59       7.7193      0.00000
     60       7.8607      0.00000
     61       8.0370      0.00000
     62       8.2332      0.00000
     63       8.2727      0.00000
     64       8.4825      0.00000

 k-point    85 :      -0.3333    0.2000    0.5000
  band No.  band energies     occupation 
      1     -32.3753      1.00000
      2     -32.3753      1.00000
      3     -32.3684      1.00000
      4     -32.3683      1.00000
      5     -13.9331      1.00000
      6     -13.9329      1.00000
      7     -13.8330      1.00000
      8     -13.8329      1.00000
      9     -13.7777      1.00000
     10     -13.7776      1.00000
     11     -13.7444      1.00000
     12     -13.7444      1.00000
     13     -13.7358      1.00000
     14     -13.7357      1.00000
     15     -13.7023      1.00000
     16     -13.7023      1.00000
     17      -7.1255      1.00000
     18      -7.1058      1.00000
     19      -6.4451      1.00000
     20      -6.3433      1.00000
     21      -6.0078      1.00000
     22      -5.9707      1.00000
     23      -5.8934      1.00000
     24      -5.8000      1.00000
     25      -1.2590      1.00000
     26      -1.1548      1.00000
     27      -0.9206      1.00000
     28      -0.8771      1.00000
     29       0.2912      1.00000
     30       0.4582      1.00000
     31       0.7226      1.00000
     32       0.8892      1.00000
     33       0.9986      1.00000
     34       1.0912      1.00000
     35       1.3089      1.00000
     36       1.3802      1.00000
     37       1.6746      1.00000
     38       1.8728      1.00000
     39       2.0476      1.00000
     40       2.1181      1.00000
     41       2.3301      1.00000
     42       2.4280      1.00000
     43       2.5792      1.00000
     44       2.6277      1.00000
     45       2.6861      1.00000
     46       2.8458      1.00000
     47       2.9376      1.00000
     48       3.0060      1.00000
     49       5.4220      0.00000
     50       5.4655      0.00000
     51       6.2295      0.00000
     52       6.3983      0.00000
     53       6.5138      0.00000
     54       6.7442      0.00000
     55       6.8189      0.00000
     56       6.8521      0.00000
     57       7.2588      0.00000
     58       7.5105      0.00000
     59       7.7193      0.00000
     60       7.8607      0.00000
     61       8.0370      0.00000
     62       8.2331      0.00000
     63       8.2727      0.00000
     64       8.5052      0.00000

 k-point    86 :       0.5000    0.2000    0.5000
  band No.  band energies     occupation 
      1     -32.3753      1.00000
      2     -32.3753      1.00000
      3     -32.3684      1.00000
      4     -32.3683      1.00000
      5     -13.9329      1.00000
      6     -13.9329      1.00000
      7     -13.8328      1.00000
      8     -13.8328      1.00000
      9     -13.7781      1.00000
     10     -13.7781      1.00000
     11     -13.7446      1.00000
     12     -13.7446      1.00000
     13     -13.7358      1.00000
     14     -13.7358      1.00000
     15     -13.7023      1.00000
     16     -13.7023      1.00000
     17      -7.0897      1.00000
     18      -7.0897      1.00000
     19      -6.4225      1.00000
     20      -6.4225      1.00000
     21      -6.0127      1.00000
     22      -6.0127      1.00000
     23      -5.8268      1.00000
     24      -5.8268      1.00000
     25      -1.2262      1.00000
     26      -1.2262      1.00000
     27      -0.9214      1.00000
     28      -0.9214      1.00000
     29       0.4449      1.00000
     30       0.4449      1.00000
     31       0.7923      1.00000
     32       0.7923      1.00000
     33       1.0461      1.00000
     34       1.0461      1.00000
     35       1.3141      1.00000
     36       1.3141      1.00000
     37       1.8793      1.00000
     38       1.8793      1.00000
     39       2.1313      1.00000
     40       2.1313      1.00000
     41       2.2920      1.00000
     42       2.2920      1.00000
     43       2.5793      1.00000
     44       2.5793      1.00000
     45       2.8363      1.00000
     46       2.8363      1.00000
     47       3.0077      1.00000
     48       3.0077      1.00000
     49       5.5379      0.00000
     50       5.5379      0.00000
     51       6.1814      0.00000
     52       6.1814      0.00000
     53       6.5099      0.00000
     54       6.5099      0.00000
     55       6.8369      0.00000
     56       6.8369      0.00000
     57       7.2539      0.00000
     58       7.2539      0.00000
     59       7.6107      0.00000
     60       7.6107      0.00000
     61       8.0365      0.00000
     62       8.0365      0.00000
     63       8.2775      0.00000
     64       8.2792      0.00000

 k-point    87 :      -0.0000    0.4000    0.5000
  band No.  band energies     occupation 
      1     -32.3741      1.00000
      2     -32.3741      1.00000
      3     -32.3696      1.00000
      4     -32.3696      1.00000
      5     -13.8967      1.00000
      6     -13.8967      1.00000
      7     -13.8564      1.00000
      8     -13.8564      1.00000
      9     -13.7679      1.00000
     10     -13.7679      1.00000
     11     -13.7554      1.00000
     12     -13.7554      1.00000
     13     -13.7436      1.00000
     14     -13.7436      1.00000
     15     -13.7064      1.00000
     16     -13.7064      1.00000
     17      -7.1408      1.00000
     18      -7.1408      1.00000
     19      -6.4324      1.00000
     20      -6.4324      1.00000
     21      -5.9095      1.00000
     22      -5.9095      1.00000
     23      -5.8551      1.00000
     24      -5.8551      1.00000
     25      -1.0336      1.00000
     26      -1.0336      1.00000
     27      -0.7306      1.00000
     28      -0.7306      1.00000
     29       0.1581      1.00000
     30       0.1581      1.00000
     31       0.7699      1.00000
     32       0.7699      1.00000
     33       0.9473      1.00000
     34       0.9473      1.00000
     35       1.2272      1.00000
     36       1.2272      1.00000
     37       1.7424      1.00000
     38       1.7424      1.00000
     39       1.9537      1.00000
     40       1.9537      1.00000
     41       2.2436      1.00000
     42       2.2436      1.00000
     43       2.4047      1.00000
     44       2.4047      1.00000
     45       2.7310      1.00000
     46       2.7310      1.00000
     47       2.9465      1.00000
     48       2.9466      1.00000
     49       5.8022      0.00000
     50       5.8022      0.00000
     51       6.4183      0.00000
     52       6.4183      0.00000
     53       7.0265      0.00000
     54       7.0265      0.00000
     55       7.5236      0.00000
     56       7.5236      0.00000
     57       7.9597      0.00000
     58       7.9597      0.00000
     59       8.0920      0.00000
     60       8.0920      0.00000
     61       8.3644      0.00000
     62       8.3646      0.00000
     63       8.4818      0.00000
     64       8.4878      0.00000

 k-point    88 :       0.1667    0.4000    0.5000
  band No.  band energies     occupation 
      1     -32.3741      1.00000
      2     -32.3741      1.00000
      3     -32.3696      1.00000
      4     -32.3696      1.00000
      5     -13.8966      1.00000
      6     -13.8964      1.00000
      7     -13.8563      1.00000
      8     -13.8562      1.00000
      9     -13.7683      1.00000
     10     -13.7682      1.00000
     11     -13.7557      1.00000
     12     -13.7556      1.00000
     13     -13.7437      1.00000
     14     -13.7437      1.00000
     15     -13.7064      1.00000
     16     -13.7064      1.00000
     17      -7.1333      1.00000
     18      -7.1213      1.00000
     19      -6.4511      1.00000
     20      -6.3920      1.00000
     21      -5.9528      1.00000
     22      -5.9160      1.00000
     23      -5.8844      1.00000
     24      -5.8400      1.00000
     25      -1.0998      1.00000
     26      -1.0535      1.00000
     27      -0.7803      1.00000
     28      -0.7184      1.00000
     29       0.2235      1.00000
     30       0.3697      1.00000
     31       0.7117      1.00000
     32       0.7518      1.00000
     33       0.8108      1.00000
     34       0.9320      1.00000
     35       1.2748      1.00000
     36       1.3663      1.00000
     37       1.7091      1.00000
     38       1.7963      1.00000
     39       1.9432      1.00000
     40       1.9830      1.00000
     41       2.1874      1.00000
     42       2.3596      1.00000
     43       2.4319      1.00000
     44       2.4736      1.00000
     45       2.6885      1.00000
     46       2.8182      1.00000
     47       2.8574      1.00000
     48       2.9437      1.00000
     49       5.7576      0.00000
     50       5.8370      0.00000
     51       6.2720      0.00000
     52       6.5028      0.00000
     53       6.8633      0.00000
     54       7.1167      0.00000
     55       7.1737      0.00000
     56       7.3923      0.00000
     57       7.5592      0.00000
     58       7.6216      0.00000
     59       8.0995      0.00000
     60       8.2124      0.00000
     61       8.2969      0.00000
     62       8.3861      0.00000
     63       8.5265      0.00000
     64       8.5814      0.00000

 k-point    89 :      -0.1667    0.4000    0.5000
  band No.  band energies     occupation 
      1     -32.3741      1.00000
      2     -32.3741      1.00000
      3     -32.3696      1.00000
      4     -32.3696      1.00000
      5     -13.8966      1.00000
      6     -13.8964      1.00000
      7     -13.8563      1.00000
      8     -13.8562      1.00000
      9     -13.7683      1.00000
     10     -13.7682      1.00000
     11     -13.7557      1.00000
     12     -13.7556      1.00000
     13     -13.7437      1.00000
     14     -13.7437      1.00000
     15     -13.7064      1.00000
     16     -13.7064      1.00000
     17      -7.1333      1.00000
     18      -7.1213      1.00000
     19      -6.4511      1.00000
     20      -6.3920      1.00000
     21      -5.9528      1.00000
     22      -5.9160      1.00000
     23      -5.8844      1.00000
     24      -5.8400      1.00000
     25      -1.0998      1.00000
     26      -1.0535      1.00000
     27      -0.7803      1.00000
     28      -0.7184      1.00000
     29       0.2235      1.00000
     30       0.3697      1.00000
     31       0.7117      1.00000
     32       0.7518      1.00000
     33       0.8108      1.00000
     34       0.9320      1.00000
     35       1.2748      1.00000
     36       1.3663      1.00000
     37       1.7091      1.00000
     38       1.7963      1.00000
     39       1.9432      1.00000
     40       1.9830      1.00000
     41       2.1874      1.00000
     42       2.3596      1.00000
     43       2.4319      1.00000
     44       2.4736      1.00000
     45       2.6885      1.00000
     46       2.8182      1.00000
     47       2.8574      1.00000
     48       2.9437      1.00000
     49       5.7576      0.00000
     50       5.8370      0.00000
     51       6.2720      0.00000
     52       6.5028      0.00000
     53       6.8633      0.00000
     54       7.1167      0.00000
     55       7.1737      0.00000
     56       7.3923      0.00000
     57       7.5592      0.00000
     58       7.6216      0.00000
     59       8.0995      0.00000
     60       8.2124      0.00000
     61       8.2969      0.00000
     62       8.3861      0.00000
     63       8.5344      0.00000
     64       8.6011      0.00000

 k-point    90 :       0.3333    0.4000    0.5000
  band No.  band energies     occupation 
      1     -32.3741      1.00000
      2     -32.3741      1.00000
      3     -32.3696      1.00000
      4     -32.3696      1.00000
      5     -13.8963      1.00000
      6     -13.8962      1.00000
      7     -13.8560      1.00000
      8     -13.8559      1.00000
      9     -13.7690      1.00000
     10     -13.7689      1.00000
     11     -13.7562      1.00000
     12     -13.7562      1.00000
     13     -13.7439      1.00000
     14     -13.7438      1.00000
     15     -13.7064      1.00000
     16     -13.7064      1.00000
     17      -7.1057      1.00000
     18      -7.0925      1.00000
     19      -6.4340      1.00000
     20      -6.3711      1.00000
     21      -5.9710      1.00000
     22      -5.9648      1.00000
     23      -5.9264      1.00000
     24      -5.8558      1.00000
     25      -1.1558      1.00000
     26      -1.1113      1.00000
     27      -0.8228      1.00000
     28      -0.7853      1.00000
     29       0.4476      1.00000
     30       0.5922      1.00000
     31       0.6606      1.00000
     32       0.7428      1.00000
     33       0.7741      1.00000
     34       0.8398      1.00000
     35       1.4384      1.00000
     36       1.4641      1.00000
     37       1.7261      1.00000
     38       1.8754      1.00000
     39       1.9293      1.00000
     40       1.9592      1.00000
     41       2.2933      1.00000
     42       2.3822      1.00000
     43       2.5082      1.00000
     44       2.5325      1.00000
     45       2.7095      1.00000
     46       2.7585      1.00000
     47       2.8253      1.00000
     48       2.8828      1.00000
     49       5.7813      0.00000
     50       5.8753      0.00000
     51       6.1779      0.00000
     52       6.4063      0.00000
     53       6.8029      0.00000
     54       6.8522      0.00000
     55       7.0060      0.00000
     56       7.1258      0.00000
     57       7.2013      0.00000
     58       7.3128      0.00000
     59       7.8298      0.00000
     60       7.9732      0.00000
     61       8.1497      0.00000
     62       8.3160      0.00000
     63       8.3715      0.00000
     64       8.4816      0.00000

 k-point    91 :      -0.3333    0.4000    0.5000
  band No.  band energies     occupation 
      1     -32.3741      1.00000
      2     -32.3741      1.00000
      3     -32.3696      1.00000
      4     -32.3696      1.00000
      5     -13.8963      1.00000
      6     -13.8962      1.00000
      7     -13.8560      1.00000
      8     -13.8559      1.00000
      9     -13.7690      1.00000
     10     -13.7689      1.00000
     11     -13.7562      1.00000
     12     -13.7562      1.00000
     13     -13.7439      1.00000
     14     -13.7438      1.00000
     15     -13.7064      1.00000
     16     -13.7064      1.00000
     17      -7.1057      1.00000
     18      -7.0925      1.00000
     19      -6.4340      1.00000
     20      -6.3711      1.00000
     21      -5.9710      1.00000
     22      -5.9648      1.00000
     23      -5.9264      1.00000
     24      -5.8558      1.00000
     25      -1.1558      1.00000
     26      -1.1113      1.00000
     27      -0.8228      1.00000
     28      -0.7853      1.00000
     29       0.4476      1.00000
     30       0.5922      1.00000
     31       0.6606      1.00000
     32       0.7428      1.00000
     33       0.7741      1.00000
     34       0.8398      1.00000
     35       1.4384      1.00000
     36       1.4641      1.00000
     37       1.7261      1.00000
     38       1.8754      1.00000
     39       1.9293      1.00000
     40       1.9592      1.00000
     41       2.2933      1.00000
     42       2.3822      1.00000
     43       2.5082      1.00000
     44       2.5325      1.00000
     45       2.7095      1.00000
     46       2.7585      1.00000
     47       2.8253      1.00000
     48       2.8828      1.00000
     49       5.7813      0.00000
     50       5.8753      0.00000
     51       6.1779      0.00000
     52       6.4063      0.00000
     53       6.8029      0.00000
     54       6.8522      0.00000
     55       7.0060      0.00000
     56       7.1258      0.00000
     57       7.2013      0.00000
     58       7.3128      0.00000
     59       7.8298      0.00000
     60       7.9732      0.00000
     61       8.1497      0.00000
     62       8.3159      0.00000
     63       8.3712      0.00000
     64       8.4811      0.00000

 k-point    92 :       0.5000    0.4000    0.5000
  band No.  band energies     occupation 
      1     -32.3741      1.00000
      2     -32.3741      1.00000
      3     -32.3696      1.00000
      4     -32.3696      1.00000
      5     -13.8961      1.00000
      6     -13.8961      1.00000
      7     -13.8558      1.00000
      8     -13.8558      1.00000
      9     -13.7693      1.00000
     10     -13.7693      1.00000
     11     -13.7564      1.00000
     12     -13.7564      1.00000
     13     -13.7439      1.00000
     14     -13.7439      1.00000
     15     -13.7064      1.00000
     16     -13.7064      1.00000
     17      -7.0844      1.00000
     18      -7.0844      1.00000
     19      -6.3951      1.00000
     20      -6.3951      1.00000
     21      -5.9829      1.00000
     22      -5.9829      1.00000
     23      -5.9059      1.00000
     24      -5.9059      1.00000
     25      -1.1517      1.00000
     26      -1.1517      1.00000
     27      -0.8358      1.00000
     28      -0.8358      1.00000
     29       0.5392      1.00000
     30       0.5392      1.00000
     31       0.6719      1.00000
     32       0.6719      1.00000
     33       0.9291      1.00000
     34       0.9291      1.00000
     35       1.4758      1.00000
     36       1.4758      1.00000
     37       1.8275      1.00000
     38       1.8275      1.00000
     39       1.9678      1.00000
     40       1.9678      1.00000
     41       2.3325      1.00000
     42       2.3325      1.00000
     43       2.5123      1.00000
     44       2.5123      1.00000
     45       2.7569      1.00000
     46       2.7569      1.00000
     47       2.8188      1.00000
     48       2.8188      1.00000
     49       5.8670      0.00000
     50       5.8670      0.00000
     51       6.3038      0.00000
     52       6.3038      0.00000
     53       6.6878      0.00000
     54       6.6878      0.00000
     55       6.8838      0.00000
     56       6.8838      0.00000
     57       7.2365      0.00000
     58       7.2365      0.00000
     59       7.7402      0.00000
     60       7.7402      0.00000
     61       8.0805      0.00000
     62       8.0805      0.00000
     63       8.4576      0.00000
     64       8.4614      0.00000

 spin component 2

 k-point     1 :       0.0000    0.0000    0.0000
  band No.  band energies     occupation 
      1     -32.3843      1.00000
      2     -32.3688      1.00000
      3     -32.3676      1.00000
      4     -32.3663      1.00000
      5     -13.9621      1.00000
      6     -13.8895      1.00000
      7     -13.8816      1.00000
      8     -13.8175      1.00000
      9     -13.8038      1.00000
     10     -13.7997      1.00000
     11     -13.7400      1.00000
     12     -13.7394      1.00000
     13     -13.7345      1.00000
     14     -13.7327      1.00000
     15     -13.6763      1.00000
     16     -13.6674      1.00000
     17      -7.6409      1.00000
     18      -6.7469      1.00000
     19      -6.5179      1.00000
     20      -6.0034      1.00000
     21      -5.9127      1.00000
     22      -5.8981      1.00000
     23      -5.8823      1.00000
     24      -5.8254      1.00000
     25      -2.0106      1.00000
     26      -1.1023      1.00000
     27      -1.0998      1.00000
     28      -0.3640      1.00000
     29       0.1874      1.00000
     30       0.3513      1.00000
     31       0.3544      1.00000
     32       0.6027      1.00000
     33       0.6036      1.00000
     34       1.2211      1.00000
     35       1.3718      1.00000
     36       1.6223      1.00000
     37       1.6853      1.00000
     38       1.8806      1.00000
     39       1.9238      1.00000
     40       2.0085      1.00000
     41       2.3616      1.00000
     42       2.3718      1.00000
     43       2.4758      1.00000
     44       2.5283      1.00000
     45       2.7831      1.00000
     46       3.3134      1.00000
     47       3.4615      1.00000
     48       3.4671      1.00000
     49       5.2989      0.00000
     50       6.3060      0.00000
     51       6.5432      0.00000
     52       6.8436      0.00000
     53       7.0069      0.00000
     54       7.1300      0.00000
     55       7.1619      0.00000
     56       7.4280      0.00000
     57       7.5468      0.00000
     58       7.6347      0.00000
     59       7.6639      0.00000
     60       7.6928      0.00000
     61       7.8163      0.00000
     62       7.8321      0.00000
     63       8.0933      0.00000
     64       8.3049      0.00000

 k-point     2 :       0.1667   -0.0000   -0.0000
  band No.  band energies     occupation 
      1     -32.3843      1.00000
      2     -32.3688      1.00000
      3     -32.3676      1.00000
      4     -32.3663      1.00000
      5     -13.9619      1.00000
      6     -13.8894      1.00000
      7     -13.8814      1.00000
      8     -13.8183      1.00000
      9     -13.8037      1.00000
     10     -13.7997      1.00000
     11     -13.7401      1.00000
     12     -13.7396      1.00000
     13     -13.7346      1.00000
     14     -13.7329      1.00000
     15     -13.6763      1.00000
     16     -13.6674      1.00000
     17      -7.5858      1.00000
     18      -6.7581      1.00000
     19      -6.5636      1.00000
     20      -6.0223      1.00000
     21      -5.9497      1.00000
     22      -5.8973      1.00000
     23      -5.8749      1.00000
     24      -5.8139      1.00000
     25      -1.9902      1.00000
     26      -1.1763      1.00000
     27      -0.9373      1.00000
     28      -0.3778      1.00000
     29       0.2126      1.00000
     30       0.2739      1.00000
     31       0.4742      1.00000
     32       0.4911      1.00000
     33       0.7801      1.00000
     34       1.1599      1.00000
     35       1.4064      1.00000
     36       1.4634      1.00000
     37       1.8300      1.00000
     38       1.9547      1.00000
     39       1.9640      1.00000
     40       2.0151      1.00000
     41       2.3021      1.00000
     42       2.4391      1.00000
     43       2.5744      1.00000
     44       2.6050      1.00000
     45       2.7728      1.00000
     46       2.9084      1.00000
     47       3.3679      1.00000
     48       3.3819      1.00000
     49       5.3180      0.00000
     50       6.3679      0.00000
     51       6.5048      0.00000
     52       6.7735      0.00000
     53       7.0147      0.00000
     54       7.0818      0.00000
     55       7.1680      0.00000
     56       7.2934      0.00000
     57       7.3351      0.00000
     58       7.5295      0.00000
     59       7.6530      0.00000
     60       7.6679      0.00000
     61       7.8419      0.00000
     62       7.8723      0.00000
     63       8.1189      0.00000
     64       8.2637      0.00000

 k-point     3 :       0.3333   -0.0000   -0.0000
  band No.  band energies     occupation 
      1     -32.3843      1.00000
      2     -32.3688      1.00000
      3     -32.3676      1.00000
      4     -32.3663      1.00000
      5     -13.9616      1.00000
      6     -13.8894      1.00000
      7     -13.8811      1.00000
      8     -13.8199      1.00000
      9     -13.8036      1.00000
     10     -13.7996      1.00000
     11     -13.7404      1.00000
     12     -13.7400      1.00000
     13     -13.7347      1.00000
     14     -13.7332      1.00000
     15     -13.6763      1.00000
     16     -13.6673      1.00000
     17      -7.4461      1.00000
     18      -6.7796      1.00000
     19      -6.6963      1.00000
     20      -6.0457      1.00000
     21      -6.0414      1.00000
     22      -5.8926      1.00000
     23      -5.8552      1.00000
     24      -5.7794      1.00000
     25      -1.9372      1.00000
     26      -1.3364      1.00000
     27      -0.5890      1.00000
     28      -0.4040      1.00000
     29       0.2556      1.00000
     30       0.3436      1.00000
     31       0.4680      1.00000
     32       0.5900      1.00000
     33       0.9615      1.00000
     34       1.0593      1.00000
     35       1.2782      1.00000
     36       1.6277      1.00000
     37       1.7436      1.00000
     38       1.9462      1.00000
     39       1.9734      1.00000
     40       1.9996      1.00000
     41       2.1563      1.00000
     42       2.4416      1.00000
     43       2.6837      1.00000
     44       2.7075      1.00000
     45       2.7587      1.00000
     46       2.8156      1.00000
     47       3.1482      1.00000
     48       3.1770      1.00000
     49       5.4104      0.00000
     50       6.2059      0.00000
     51       6.2934      0.00000
     52       6.5892      0.00000
     53       6.7441      0.00000
     54       6.8216      0.00000
     55       6.9832      0.00000
     56       7.0312      0.00000
     57       7.2699      0.00000
     58       7.3965      0.00000
     59       7.8013      0.00000
     60       7.8238      0.00000
     61       7.8431      0.00000
     62       8.1917      0.00000
     63       8.3718      0.00000
     64       8.4363      0.00000

 k-point     4 :       0.5000   -0.0000    0.0000
  band No.  band energies     occupation 
      1     -32.3843      1.00000
      2     -32.3688      1.00000
      3     -32.3676      1.00000
      4     -32.3663      1.00000
      5     -13.9615      1.00000
      6     -13.8894      1.00000
      7     -13.8810      1.00000
      8     -13.8207      1.00000
      9     -13.8036      1.00000
     10     -13.7996      1.00000
     11     -13.7405      1.00000
     12     -13.7402      1.00000
     13     -13.7348      1.00000
     14     -13.7334      1.00000
     15     -13.6763      1.00000
     16     -13.6673      1.00000
     17      -7.3457      1.00000
     18      -6.7999      1.00000
     19      -6.7901      1.00000
     20      -6.0793      1.00000
     21      -6.0543      1.00000
     22      -5.8893      1.00000
     23      -5.8508      1.00000
     24      -5.7600      1.00000
     25      -1.8997      1.00000
     26      -1.4251      1.00000
     27      -0.4222      1.00000
     28      -0.4203      1.00000
     29       0.2683      1.00000
     30       0.4855      1.00000
     31       0.5739      1.00000
     32       0.6348      1.00000
     33       1.0035      1.00000
     34       1.0376      1.00000
     35       1.2528      1.00000
     36       1.4368      1.00000
     37       1.6922      1.00000
     38       1.8038      1.00000
     39       1.9216      1.00000
     40       1.9278      1.00000
     41       2.2153      1.00000
     42       2.4357      1.00000
     43       2.8360      1.00000
     44       2.8445      1.00000
     45       2.9020      1.00000
     46       2.9125      1.00000
     47       2.9200      1.00000
     48       2.9751      1.00000
     49       5.5593      0.00000
     50       6.1449      0.00000
     51       6.2105      0.00000
     52       6.2512      0.00000
     53       6.5204      0.00000
     54       6.7399      0.00000
     55       6.8102      0.00000
     56       6.9794      0.00000
     57       7.1752      0.00000
     58       7.3154      0.00000
     59       7.6364      0.00000
     60       7.9500      0.00000
     61       8.1996      0.00000
     62       8.3311      0.00000
     63       8.5056      0.00000
     64       8.5620      0.00000

 k-point     5 :      -0.0000    0.2000   -0.0000
  band No.  band energies     occupation 
      1     -32.3832      1.00000
      2     -32.3717      1.00000
      3     -32.3661      1.00000
      4     -32.3661      1.00000
      5     -13.9536      1.00000
      6     -13.8771      1.00000
      7     -13.8618      1.00000
      8     -13.8468      1.00000
      9     -13.8106      1.00000
     10     -13.7675      1.00000
     11     -13.7523      1.00000
     12     -13.7514      1.00000
     13     -13.7313      1.00000
     14     -13.7285      1.00000
     15     -13.6847      1.00000
     16     -13.6809      1.00000
     17      -7.5861      1.00000
     18      -6.9322      1.00000
     19      -6.3692      1.00000
     20      -5.9863      1.00000
     21      -5.9480      1.00000
     22      -5.9100      1.00000
     23      -5.8676      1.00000
     24      -5.8331      1.00000
     25      -1.9334      1.00000
     26      -1.2137      1.00000
     27      -1.0202      1.00000
     28      -0.3204      1.00000
     29      -0.0426      1.00000
     30       0.3052      1.00000
     31       0.5761      1.00000
     32       0.6728      1.00000
     33       0.7278      1.00000
     34       1.2035      1.00000
     35       1.3806      1.00000
     36       1.6192      1.00000
     37       1.6689      1.00000
     38       1.8227      1.00000
     39       1.9260      1.00000
     40       2.0285      1.00000
     41       2.3048      1.00000
     42       2.3766      1.00000
     43       2.4448      1.00000
     44       2.4846      1.00000
     45       2.8148      1.00000
     46       3.1037      1.00000
     47       3.2134      1.00000
     48       3.3664      1.00000
     49       5.6900      0.00000
     50       6.3687      0.00000
     51       6.5736      0.00000
     52       6.7230      0.00000
     53       7.0108      0.00000
     54       7.1486      0.00000
     55       7.2965      0.00000
     56       7.3834      0.00000
     57       7.6151      0.00000
     58       7.7329      0.00000
     59       7.8256      0.00000
     60       7.9104      0.00000
     61       7.9974      0.00000
     62       8.0923      0.00000
     63       8.1207      0.00000
     64       8.3421      0.00000

 k-point     6 :       0.1667    0.2000   -0.0000
  band No.  band energies     occupation 
      1     -32.3832      1.00000
      2     -32.3717      1.00000
      3     -32.3661      1.00000
      4     -32.3661      1.00000
      5     -13.9535      1.00000
      6     -13.8771      1.00000
      7     -13.8618      1.00000
      8     -13.8467      1.00000
      9     -13.8114      1.00000
     10     -13.7676      1.00000
     11     -13.7524      1.00000
     12     -13.7515      1.00000
     13     -13.7314      1.00000
     14     -13.7287      1.00000
     15     -13.6847      1.00000
     16     -13.6809      1.00000
     17      -7.5347      1.00000
     18      -6.9318      1.00000
     19      -6.4170      1.00000
     20      -6.0133      1.00000
     21      -5.9601      1.00000
     22      -5.9102      1.00000
     23      -5.8847      1.00000
     24      -5.8219      1.00000
     25      -1.9128      1.00000
     26      -1.2659      1.00000
     27      -0.8678      1.00000
     28      -0.3249      1.00000
     29       0.0030      1.00000
     30       0.3270      1.00000
     31       0.4946      1.00000
     32       0.7096      1.00000
     33       0.8294      1.00000
     34       1.1515      1.00000
     35       1.4020      1.00000
     36       1.5475      1.00000
     37       1.7140      1.00000
     38       1.8385      1.00000
     39       1.9486      1.00000
     40       2.1101      1.00000
     41       2.3002      1.00000
     42       2.4102      1.00000
     43       2.4829      1.00000
     44       2.5625      1.00000
     45       2.7191      1.00000
     46       2.7871      1.00000
     47       3.1718      1.00000
     48       3.3150      1.00000
     49       5.6725      0.00000
     50       6.3866      0.00000
     51       6.5405      0.00000
     52       6.8329      0.00000
     53       6.9202      0.00000
     54       7.0511      0.00000
     55       7.3095      0.00000
     56       7.3182      0.00000
     57       7.4692      0.00000
     58       7.5861      0.00000
     59       7.7222      0.00000
     60       7.7679      0.00000
     61       7.9112      0.00000
     62       8.0145      0.00000
     63       8.1659      0.00000
     64       8.3741      0.00000

 k-point     7 :      -0.1667    0.2000   -0.0000
  band No.  band energies     occupation 
      1     -32.3832      1.00000
      2     -32.3717      1.00000
      3     -32.3661      1.00000
      4     -32.3661      1.00000
      5     -13.9535      1.00000
      6     -13.8771      1.00000
      7     -13.8618      1.00000
      8     -13.8467      1.00000
      9     -13.8114      1.00000
     10     -13.7676      1.00000
     11     -13.7524      1.00000
     12     -13.7515      1.00000
     13     -13.7314      1.00000
     14     -13.7287      1.00000
     15     -13.6847      1.00000
     16     -13.6809      1.00000
     17      -7.5347      1.00000
     18      -6.9318      1.00000
     19      -6.4170      1.00000
     20      -6.0133      1.00000
     21      -5.9601      1.00000
     22      -5.9102      1.00000
     23      -5.8847      1.00000
     24      -5.8219      1.00000
     25      -1.9128      1.00000
     26      -1.2659      1.00000
     27      -0.8678      1.00000
     28      -0.3249      1.00000
     29       0.0030      1.00000
     30       0.3270      1.00000
     31       0.4946      1.00000
     32       0.7096      1.00000
     33       0.8294      1.00000
     34       1.1515      1.00000
     35       1.4020      1.00000
     36       1.5475      1.00000
     37       1.7140      1.00000
     38       1.8385      1.00000
     39       1.9486      1.00000
     40       2.1101      1.00000
     41       2.3002      1.00000
     42       2.4102      1.00000
     43       2.4829      1.00000
     44       2.5625      1.00000
     45       2.7191      1.00000
     46       2.7871      1.00000
     47       3.1718      1.00000
     48       3.3150      1.00000
     49       5.6725      0.00000
     50       6.3866      0.00000
     51       6.5405      0.00000
     52       6.8329      0.00000
     53       6.9202      0.00000
     54       7.0511      0.00000
     55       7.3095      0.00000
     56       7.3182      0.00000
     57       7.4692      0.00000
     58       7.5861      0.00000
     59       7.7222      0.00000
     60       7.7679      0.00000
     61       7.9112      0.00000
     62       8.0145      0.00000
     63       8.1659      0.00000
     64       8.4089      0.00000

 k-point     8 :       0.3333    0.2000    0.0000
  band No.  band energies     occupation 
      1     -32.3832      1.00000
      2     -32.3717      1.00000
      3     -32.3661      1.00000
      4     -32.3661      1.00000
      5     -13.9532      1.00000
      6     -13.8770      1.00000
      7     -13.8617      1.00000
      8     -13.8465      1.00000
      9     -13.8128      1.00000
     10     -13.7679      1.00000
     11     -13.7527      1.00000
     12     -13.7515      1.00000
     13     -13.7317      1.00000
     14     -13.7289      1.00000
     15     -13.6846      1.00000
     16     -13.6809      1.00000
     17      -7.4065      1.00000
     18      -6.9397      1.00000
     19      -6.5376      1.00000
     20      -6.0690      1.00000
     21      -5.9779      1.00000
     22      -5.9570      1.00000
     23      -5.8754      1.00000
     24      -5.7888      1.00000
     25      -1.8611      1.00000
     26      -1.3802      1.00000
     27      -0.5440      1.00000
     28      -0.3418      1.00000
     29       0.1316      1.00000
     30       0.4207      1.00000
     31       0.4957      1.00000
     32       0.6783      1.00000
     33       0.9687      1.00000
     34       1.0946      1.00000
     35       1.3573      1.00000
     36       1.5332      1.00000
     37       1.7364      1.00000
     38       1.7800      1.00000
     39       2.0112      1.00000
     40       2.0837      1.00000
     41       2.1804      1.00000
     42       2.3853      1.00000
     43       2.4961      1.00000
     44       2.5967      1.00000
     45       2.7070      1.00000
     46       2.7816      1.00000
     47       2.9411      1.00000
     48       3.1796      1.00000
     49       5.6736      0.00000
     50       6.2451      0.00000
     51       6.4627      0.00000
     52       6.7209      0.00000
     53       6.8184      0.00000
     54       6.8694      0.00000
     55       7.0046      0.00000
     56       7.0743      0.00000
     57       7.3670      0.00000
     58       7.6083      0.00000
     59       7.7445      0.00000
     60       7.8810      0.00000
     61       7.9427      0.00000
     62       8.0007      0.00000
     63       8.3082      0.00000
     64       8.3890      0.00000

 k-point     9 :      -0.3333    0.2000   -0.0000
  band No.  band energies     occupation 
      1     -32.3832      1.00000
      2     -32.3717      1.00000
      3     -32.3661      1.00000
      4     -32.3661      1.00000
      5     -13.9532      1.00000
      6     -13.8770      1.00000
      7     -13.8617      1.00000
      8     -13.8465      1.00000
      9     -13.8128      1.00000
     10     -13.7679      1.00000
     11     -13.7527      1.00000
     12     -13.7515      1.00000
     13     -13.7317      1.00000
     14     -13.7289      1.00000
     15     -13.6846      1.00000
     16     -13.6809      1.00000
     17      -7.4065      1.00000
     18      -6.9397      1.00000
     19      -6.5376      1.00000
     20      -6.0690      1.00000
     21      -5.9779      1.00000
     22      -5.9570      1.00000
     23      -5.8754      1.00000
     24      -5.7888      1.00000
     25      -1.8611      1.00000
     26      -1.3802      1.00000
     27      -0.5440      1.00000
     28      -0.3418      1.00000
     29       0.1316      1.00000
     30       0.4207      1.00000
     31       0.4957      1.00000
     32       0.6783      1.00000
     33       0.9687      1.00000
     34       1.0946      1.00000
     35       1.3573      1.00000
     36       1.5332      1.00000
     37       1.7364      1.00000
     38       1.7800      1.00000
     39       2.0112      1.00000
     40       2.0837      1.00000
     41       2.1804      1.00000
     42       2.3853      1.00000
     43       2.4961      1.00000
     44       2.5967      1.00000
     45       2.7070      1.00000
     46       2.7816      1.00000
     47       2.9411      1.00000
     48       3.1796      1.00000
     49       5.6736      0.00000
     50       6.2451      0.00000
     51       6.4627      0.00000
     52       6.7209      0.00000
     53       6.8184      0.00000
     54       6.8694      0.00000
     55       7.0046      0.00000
     56       7.0743      0.00000
     57       7.3670      0.00000
     58       7.6083      0.00000
     59       7.7445      0.00000
     60       7.8810      0.00000
     61       7.9427      0.00000
     62       8.0007      0.00000
     63       8.3094      0.00000
     64       8.3887      0.00000

 k-point    10 :       0.5000    0.2000   -0.0000
  band No.  band energies     occupation 
      1     -32.3832      1.00000
      2     -32.3717      1.00000
      3     -32.3661      1.00000
      4     -32.3661      1.00000
      5     -13.9530      1.00000
      6     -13.8769      1.00000
      7     -13.8616      1.00000
      8     -13.8465      1.00000
      9     -13.8135      1.00000
     10     -13.7681      1.00000
     11     -13.7529      1.00000
     12     -13.7515      1.00000
     13     -13.7319      1.00000
     14     -13.7291      1.00000
     15     -13.6846      1.00000
     16     -13.6809      1.00000
     17      -7.3169      1.00000
     18      -6.9575      1.00000
     19      -6.6149      1.00000
     20      -6.0925      1.00000
     21      -5.9831      1.00000
     22      -5.9808      1.00000
     23      -5.8723      1.00000
     24      -5.7710      1.00000
     25      -1.8253      1.00000
     26      -1.4468      1.00000
     27      -0.3763      1.00000
     28      -0.3637      1.00000
     29       0.2276      1.00000
     30       0.5069      1.00000
     31       0.6314      1.00000
     32       0.6505      1.00000
     33       0.9256      1.00000
     34       1.1142      1.00000
     35       1.3602      1.00000
     36       1.4323      1.00000
     37       1.5102      1.00000
     38       1.7946      1.00000
     39       2.0262      1.00000
     40       2.0410      1.00000
     41       2.1383      1.00000
     42       2.3789      1.00000
     43       2.5783      1.00000
     44       2.6881      1.00000
     45       2.7376      1.00000
     46       2.7823      1.00000
     47       2.9492      1.00000
     48       2.9933      1.00000
     49       5.7383      0.00000
     50       6.2330      0.00000
     51       6.4176      0.00000
     52       6.4415      0.00000
     53       6.5643      0.00000
     54       6.8056      0.00000
     55       6.9226      0.00000
     56       6.9354      0.00000
     57       7.4132      0.00000
     58       7.5296      0.00000
     59       7.8208      0.00000
     60       7.9205      0.00000
     61       8.2514      0.00000
     62       8.2584      0.00000
     63       8.4285      0.00000
     64       8.5010      0.00000

 k-point    11 :      -0.0000    0.4000   -0.0000
  band No.  band energies     occupation 
      1     -32.3802      1.00000
      2     -32.3760      1.00000
      3     -32.3656      1.00000
      4     -32.3654      1.00000
      5     -13.9289      1.00000
      6     -13.8913      1.00000
      7     -13.8408      1.00000
      8     -13.8179      1.00000
      9     -13.7941      1.00000
     10     -13.7884      1.00000
     11     -13.7818      1.00000
     12     -13.7481      1.00000
     13     -13.7280      1.00000
     14     -13.7260      1.00000
     15     -13.7103      1.00000
     16     -13.6944      1.00000
     17      -7.4302      1.00000
     18      -7.1982      1.00000
     19      -6.1892      1.00000
     20      -6.0455      1.00000
     21      -5.9484      1.00000
     22      -5.9216      1.00000
     23      -5.8585      1.00000
     24      -5.8491      1.00000
     25      -1.7263      1.00000
     26      -1.4566      1.00000
     27      -0.7954      1.00000
     28      -0.4949      1.00000
     29      -0.0627      1.00000
     30       0.1353      1.00000
     31       0.7781      1.00000
     32       0.8050      1.00000
     33       1.0748      1.00000
     34       1.2645      1.00000
     35       1.4031      1.00000
     36       1.4636      1.00000
     37       1.5710      1.00000
     38       1.6764      1.00000
     39       1.9681      1.00000
     40       2.1635      1.00000
     41       2.2894      1.00000
     42       2.3113      1.00000
     43       2.3285      1.00000
     44       2.4778      1.00000
     45       2.5823      1.00000
     46       2.8867      1.00000
     47       3.0029      1.00000
     48       3.2102      1.00000
     49       6.4432      0.00000
     50       6.5173      0.00000
     51       6.5207      0.00000
     52       6.7055      0.00000
     53       6.8132      0.00000
     54       7.1396      0.00000
     55       7.3900      0.00000
     56       7.5612      0.00000
     57       7.6853      0.00000
     58       7.7851      0.00000
     59       7.8811      0.00000
     60       7.8838      0.00000
     61       7.9888      0.00000
     62       8.0531      0.00000
     63       8.3631      0.00000
     64       8.5051      0.00000

 k-point    12 :       0.1667    0.4000    0.0000
  band No.  band energies     occupation 
      1     -32.3802      1.00000
      2     -32.3760      1.00000
      3     -32.3656      1.00000
      4     -32.3654      1.00000
      5     -13.9287      1.00000
      6     -13.8912      1.00000
      7     -13.8408      1.00000
      8     -13.8181      1.00000
      9     -13.7942      1.00000
     10     -13.7888      1.00000
     11     -13.7821      1.00000
     12     -13.7481      1.00000
     13     -13.7282      1.00000
     14     -13.7261      1.00000
     15     -13.7103      1.00000
     16     -13.6944      1.00000
     17      -7.3900      1.00000
     18      -7.1761      1.00000
     19      -6.2325      1.00000
     20      -6.0741      1.00000
     21      -5.9732      1.00000
     22      -5.9252      1.00000
     23      -5.8739      1.00000
     24      -5.8418      1.00000
     25      -1.7129      1.00000
     26      -1.4690      1.00000
     27      -0.6814      1.00000
     28      -0.4424      1.00000
     29      -0.0066      1.00000
     30       0.1761      1.00000
     31       0.7231      1.00000
     32       0.8988      1.00000
     33       1.0356      1.00000
     34       1.2846      1.00000
     35       1.3298      1.00000
     36       1.4656      1.00000
     37       1.5697      1.00000
     38       1.6916      1.00000
     39       1.9474      1.00000
     40       2.1434      1.00000
     41       2.1617      1.00000
     42       2.3583      1.00000
     43       2.3704      1.00000
     44       2.4816      1.00000
     45       2.5933      1.00000
     46       2.8961      1.00000
     47       2.9409      1.00000
     48       3.0852      1.00000
     49       6.3369      0.00000
     50       6.4630      0.00000
     51       6.6127      0.00000
     52       6.6853      0.00000
     53       6.7946      0.00000
     54       7.0410      0.00000
     55       7.2432      0.00000
     56       7.4294      0.00000
     57       7.6047      0.00000
     58       7.6947      0.00000
     59       7.8082      0.00000
     60       7.9968      0.00000
     61       8.1189      0.00000
     62       8.2089      0.00000
     63       8.3090      0.00000
     64       8.4361      0.00000

 k-point    13 :      -0.1667    0.4000    0.0000
  band No.  band energies     occupation 
      1     -32.3802      1.00000
      2     -32.3760      1.00000
      3     -32.3656      1.00000
      4     -32.3654      1.00000
      5     -13.9287      1.00000
      6     -13.8912      1.00000
      7     -13.8408      1.00000
      8     -13.8181      1.00000
      9     -13.7942      1.00000
     10     -13.7888      1.00000
     11     -13.7821      1.00000
     12     -13.7481      1.00000
     13     -13.7282      1.00000
     14     -13.7261      1.00000
     15     -13.7103      1.00000
     16     -13.6944      1.00000
     17      -7.3900      1.00000
     18      -7.1761      1.00000
     19      -6.2325      1.00000
     20      -6.0741      1.00000
     21      -5.9732      1.00000
     22      -5.9252      1.00000
     23      -5.8739      1.00000
     24      -5.8418      1.00000
     25      -1.7129      1.00000
     26      -1.4690      1.00000
     27      -0.6814      1.00000
     28      -0.4424      1.00000
     29      -0.0066      1.00000
     30       0.1761      1.00000
     31       0.7231      1.00000
     32       0.8988      1.00000
     33       1.0356      1.00000
     34       1.2846      1.00000
     35       1.3298      1.00000
     36       1.4656      1.00000
     37       1.5697      1.00000
     38       1.6916      1.00000
     39       1.9474      1.00000
     40       2.1434      1.00000
     41       2.1617      1.00000
     42       2.3583      1.00000
     43       2.3704      1.00000
     44       2.4816      1.00000
     45       2.5933      1.00000
     46       2.8961      1.00000
     47       2.9409      1.00000
     48       3.0852      1.00000
     49       6.3369      0.00000
     50       6.4630      0.00000
     51       6.6127      0.00000
     52       6.6853      0.00000
     53       6.7946      0.00000
     54       7.0410      0.00000
     55       7.2432      0.00000
     56       7.4294      0.00000
     57       7.6047      0.00000
     58       7.6947      0.00000
     59       7.8082      0.00000
     60       7.9968      0.00000
     61       8.1189      0.00000
     62       8.2089      0.00000
     63       8.3090      0.00000
     64       8.4351      0.00000

 k-point    14 :       0.3333    0.4000    0.0000
  band No.  band energies     occupation 
      1     -32.3801      1.00000
      2     -32.3760      1.00000
      3     -32.3656      1.00000
      4     -32.3654      1.00000
      5     -13.9285      1.00000
      6     -13.8910      1.00000
      7     -13.8407      1.00000
      8     -13.8185      1.00000
      9     -13.7943      1.00000
     10     -13.7894      1.00000
     11     -13.7829      1.00000
     12     -13.7481      1.00000
     13     -13.7284      1.00000
     14     -13.7264      1.00000
     15     -13.7102      1.00000
     16     -13.6943      1.00000
     17      -7.2947      1.00000
     18      -7.1302      1.00000
     19      -6.3385      1.00000
     20      -6.1410      1.00000
     21      -6.0200      1.00000
     22      -5.9439      1.00000
     23      -5.8852      1.00000
     24      -5.8230      1.00000
     25      -1.6810      1.00000
     26      -1.4988      1.00000
     27      -0.4414      1.00000
     28      -0.3403      1.00000
     29       0.1387      1.00000
     30       0.2930      1.00000
     31       0.7278      1.00000
     32       0.9095      1.00000
     33       1.0610      1.00000
     34       1.1316      1.00000
     35       1.3044      1.00000
     36       1.4535      1.00000
     37       1.4987      1.00000
     38       1.7323      1.00000
     39       1.9067      1.00000
     40       2.0291      1.00000
     41       2.1738      1.00000
     42       2.3026      1.00000
     43       2.4374      1.00000
     44       2.5596      1.00000
     45       2.6260      1.00000
     46       2.7283      1.00000
     47       2.7947      1.00000
     48       2.9670      1.00000
     49       6.1432      0.00000
     50       6.3545      0.00000
     51       6.6192      0.00000
     52       6.7034      0.00000
     53       6.7752      0.00000
     54       6.9661      0.00000
     55       7.1278      0.00000
     56       7.2529      0.00000
     57       7.4680      0.00000
     58       7.6500      0.00000
     59       7.8966      0.00000
     60       8.0153      0.00000
     61       8.1165      0.00000
     62       8.1912      0.00000
     63       8.4525      0.00000
     64       8.5091      0.00000

 k-point    15 :      -0.3333    0.4000    0.0000
  band No.  band energies     occupation 
      1     -32.3801      1.00000
      2     -32.3760      1.00000
      3     -32.3656      1.00000
      4     -32.3654      1.00000
      5     -13.9285      1.00000
      6     -13.8910      1.00000
      7     -13.8407      1.00000
      8     -13.8185      1.00000
      9     -13.7943      1.00000
     10     -13.7894      1.00000
     11     -13.7829      1.00000
     12     -13.7481      1.00000
     13     -13.7284      1.00000
     14     -13.7264      1.00000
     15     -13.7102      1.00000
     16     -13.6943      1.00000
     17      -7.2947      1.00000
     18      -7.1302      1.00000
     19      -6.3385      1.00000
     20      -6.1410      1.00000
     21      -6.0200      1.00000
     22      -5.9439      1.00000
     23      -5.8852      1.00000
     24      -5.8230      1.00000
     25      -1.6810      1.00000
     26      -1.4988      1.00000
     27      -0.4414      1.00000
     28      -0.3403      1.00000
     29       0.1387      1.00000
     30       0.2930      1.00000
     31       0.7278      1.00000
     32       0.9095      1.00000
     33       1.0610      1.00000
     34       1.1316      1.00000
     35       1.3044      1.00000
     36       1.4535      1.00000
     37       1.4987      1.00000
     38       1.7323      1.00000
     39       1.9067      1.00000
     40       2.0291      1.00000
     41       2.1738      1.00000
     42       2.3026      1.00000
     43       2.4374      1.00000
     44       2.5596      1.00000
     45       2.6260      1.00000
     46       2.7283      1.00000
     47       2.7947      1.00000
     48       2.9670      1.00000
     49       6.1432      0.00000
     50       6.3545      0.00000
     51       6.6192      0.00000
     52       6.7034      0.00000
     53       6.7752      0.00000
     54       6.9661      0.00000
     55       7.1278      0.00000
     56       7.2529      0.00000
     57       7.4680      0.00000
     58       7.6500      0.00000
     59       7.8966      0.00000
     60       8.0153      0.00000
     61       8.1165      0.00000
     62       8.1912      0.00000
     63       8.4535      0.00000
     64       8.5166      0.00000

 k-point    16 :       0.5000    0.4000    0.0000
  band No.  band energies     occupation 
      1     -32.3801      1.00000
      2     -32.3760      1.00000
      3     -32.3656      1.00000
      4     -32.3654      1.00000
      5     -13.9283      1.00000
      6     -13.8909      1.00000
      7     -13.8407      1.00000
      8     -13.8188      1.00000
      9     -13.7944      1.00000
     10     -13.7897      1.00000
     11     -13.7832      1.00000
     12     -13.7481      1.00000
     13     -13.7286      1.00000
     14     -13.7265      1.00000
     15     -13.7102      1.00000
     16     -13.6943      1.00000
     17      -7.2340      1.00000
     18      -7.1084      1.00000
     19      -6.4046      1.00000
     20      -6.1772      1.00000
     21      -6.0433      1.00000
     22      -5.9515      1.00000
     23      -5.8878      1.00000
     24      -5.8132      1.00000
     25      -1.6605      1.00000
     26      -1.5184      1.00000
     27      -0.3113      1.00000
     28      -0.2981      1.00000
     29       0.2407      1.00000
     30       0.3876      1.00000
     31       0.7879      1.00000
     32       0.8453      1.00000
     33       0.9932      1.00000
     34       1.1656      1.00000
     35       1.2477      1.00000
     36       1.3442      1.00000
     37       1.4958      1.00000
     38       1.7443      1.00000
     39       1.9014      1.00000
     40       2.0971      1.00000
     41       2.1722      1.00000
     42       2.2182      1.00000
     43       2.3721      1.00000
     44       2.5916      1.00000
     45       2.6560      1.00000
     46       2.6992      1.00000
     47       2.7307      1.00000
     48       2.9020      1.00000
     49       6.0477      0.00000
     50       6.2500      0.00000
     51       6.6210      0.00000
     52       6.7073      0.00000
     53       6.7937      0.00000
     54       6.9967      0.00000
     55       7.0305      0.00000
     56       7.1724      0.00000
     57       7.5406      0.00000
     58       7.7876      0.00000
     59       7.8908      0.00000
     60       7.9353      0.00000
     61       8.1825      0.00000
     62       8.2350      0.00000
     63       8.3138      0.00000
     64       8.3798      0.00000

 k-point    17 :      -0.0000   -0.0000    0.1667
  band No.  band energies     occupation 
      1     -32.3832      1.00000
      2     -32.3693      1.00000
      3     -32.3676      1.00000
      4     -32.3670      1.00000
      5     -13.9452      1.00000
      6     -13.9095      1.00000
      7     -13.9034      1.00000
      8     -13.8161      1.00000
      9     -13.7798      1.00000
     10     -13.7773      1.00000
     11     -13.7404      1.00000
     12     -13.7391      1.00000
     13     -13.7373      1.00000
     14     -13.7315      1.00000
     15     -13.6942      1.00000
     16     -13.6714      1.00000
     17      -7.5865      1.00000
     18      -6.8035      1.00000
     19      -6.4807      1.00000
     20      -6.0441      1.00000
     21      -5.9379      1.00000
     22      -5.9221      1.00000
     23      -5.8725      1.00000
     24      -5.8360      1.00000
     25      -1.8824      1.00000
     26      -1.0779      1.00000
     27      -1.0372      1.00000
     28      -0.4774      1.00000
     29       0.0842      1.00000
     30       0.1558      1.00000
     31       0.5095      1.00000
     32       0.7605      1.00000
     33       0.8464      1.00000
     34       1.1693      1.00000
     35       1.4229      1.00000
     36       1.5317      1.00000
     37       1.7491      1.00000
     38       1.8981      1.00000
     39       1.9895      1.00000
     40       2.0298      1.00000
     41       2.3376      1.00000
     42       2.3411      1.00000
     43       2.5242      1.00000
     44       2.5286      1.00000
     45       2.6931      1.00000
     46       3.0486      1.00000
     47       3.2629      1.00000
     48       3.3651      1.00000
     49       5.3762      0.00000
     50       6.1746      0.00000
     51       6.2922      0.00000
     52       6.4402      0.00000
     53       6.7911      0.00000
     54       7.1843      0.00000
     55       7.3721      0.00000
     56       7.6348      0.00000
     57       7.6888      0.00000
     58       7.7441      0.00000
     59       7.7501      0.00000
     60       7.9080      0.00000
     61       7.9147      0.00000
     62       8.0044      0.00000
     63       8.3547      0.00000
     64       8.4071      0.00000

 k-point    18 :       0.1667   -0.0000    0.1667
  band No.  band energies     occupation 
      1     -32.3832      1.00000
      2     -32.3693      1.00000
      3     -32.3676      1.00000
      4     -32.3670      1.00000
      5     -13.9451      1.00000
      6     -13.9095      1.00000
      7     -13.9032      1.00000
      8     -13.8167      1.00000
      9     -13.7798      1.00000
     10     -13.7773      1.00000
     11     -13.7406      1.00000
     12     -13.7392      1.00000
     13     -13.7376      1.00000
     14     -13.7315      1.00000
     15     -13.6942      1.00000
     16     -13.6714      1.00000
     17      -7.5281      1.00000
     18      -6.7907      1.00000
     19      -6.5289      1.00000
     20      -6.0164      1.00000
     21      -5.9584      1.00000
     22      -5.9537      1.00000
     23      -5.9059      1.00000
     24      -5.8620      1.00000
     25      -1.8230      1.00000
     26      -1.0643      1.00000
     27      -0.9435      1.00000
     28      -0.4914      1.00000
     29       0.2281      1.00000
     30       0.2444      1.00000
     31       0.5681      1.00000
     32       0.7310      1.00000
     33       0.7382      1.00000
     34       1.0835      1.00000
     35       1.5594      1.00000
     36       1.6154      1.00000
     37       1.6453      1.00000
     38       1.9122      1.00000
     39       1.9225      1.00000
     40       2.0693      1.00000
     41       2.2733      1.00000
     42       2.3070      1.00000
     43       2.5150      1.00000
     44       2.5643      1.00000
     45       2.6672      1.00000
     46       2.7055      1.00000
     47       3.2000      1.00000
     48       3.3755      1.00000
     49       5.3818      0.00000
     50       6.2208      0.00000
     51       6.3215      0.00000
     52       6.6011      0.00000
     53       6.8367      0.00000
     54       6.9037      0.00000
     55       7.2520      0.00000
     56       7.5181      0.00000
     57       7.5955      0.00000
     58       7.7277      0.00000
     59       7.7291      0.00000
     60       7.8091      0.00000
     61       7.9163      0.00000
     62       8.1308      0.00000
     63       8.2305      0.00000
     64       8.3110      0.00000

 k-point    19 :       0.3333    0.0000    0.1667
  band No.  band energies     occupation 
      1     -32.3832      1.00000
      2     -32.3693      1.00000
      3     -32.3676      1.00000
      4     -32.3670      1.00000
      5     -13.9448      1.00000
      6     -13.9094      1.00000
      7     -13.9028      1.00000
      8     -13.8183      1.00000
      9     -13.7798      1.00000
     10     -13.7772      1.00000
     11     -13.7409      1.00000
     12     -13.7396      1.00000
     13     -13.7381      1.00000
     14     -13.7315      1.00000
     15     -13.6941      1.00000
     16     -13.6714      1.00000
     17      -7.3950      1.00000
     18      -6.8071      1.00000
     19      -6.6684      1.00000
     20      -6.0744      1.00000
     21      -6.0100      1.00000
     22      -5.9167      1.00000
     23      -5.8876      1.00000
     24      -5.8430      1.00000
     25      -1.7887      1.00000
     26      -1.2291      1.00000
     27      -0.6802      1.00000
     28      -0.5058      1.00000
     29       0.3042      1.00000
     30       0.3537      1.00000
     31       0.6020      1.00000
     32       0.7748      1.00000
     33       0.7829      1.00000
     34       1.0653      1.00000
     35       1.3677      1.00000
     36       1.7090      1.00000
     37       1.7546      1.00000
     38       1.7984      1.00000
     39       1.9660      1.00000
     40       2.0169      1.00000
     41       2.1902      1.00000
     42       2.4335      1.00000
     43       2.5600      1.00000
     44       2.6039      1.00000
     45       2.6842      1.00000
     46       2.7925      1.00000
     47       2.9483      1.00000
     48       3.2162      1.00000
     49       5.4541      0.00000
     50       6.1125      0.00000
     51       6.2353      0.00000
     52       6.5761      0.00000
     53       6.7299      0.00000
     54       6.8567      0.00000
     55       6.9327      0.00000
     56       7.1535      0.00000
     57       7.3942      0.00000
     58       7.5009      0.00000
     59       7.5735      0.00000
     60       7.7244      0.00000
     61       7.9864      0.00000
     62       8.0913      0.00000
     63       8.1705      0.00000
     64       8.3176      0.00000

 k-point    20 :       0.5000   -0.0000    0.1667
  band No.  band energies     occupation 
      1     -32.3832      1.00000
      2     -32.3693      1.00000
      3     -32.3676      1.00000
      4     -32.3670      1.00000
      5     -13.9447      1.00000
      6     -13.9091      1.00000
      7     -13.9026      1.00000
      8     -13.8192      1.00000
      9     -13.7797      1.00000
     10     -13.7772      1.00000
     11     -13.7410      1.00000
     12     -13.7398      1.00000
     13     -13.7383      1.00000
     14     -13.7316      1.00000
     15     -13.6940      1.00000
     16     -13.6714      1.00000
     17      -7.3144      1.00000
     18      -6.8343      1.00000
     19      -6.7511      1.00000
     20      -6.1148      1.00000
     21      -6.0859      1.00000
     22      -5.8636      1.00000
     23      -5.8381      1.00000
     24      -5.7963      1.00000
     25      -1.8191      1.00000
     26      -1.3442      1.00000
     27      -0.5850      1.00000
     28      -0.5237      1.00000
     29       0.3376      1.00000
     30       0.4478      1.00000
     31       0.4687      1.00000
     32       0.8237      1.00000
     33       0.9318      1.00000
     34       1.1448      1.00000
     35       1.2778      1.00000
     36       1.4101      1.00000
     37       1.7881      1.00000
     38       1.8216      1.00000
     39       2.0031      1.00000
     40       2.0292      1.00000
     41       2.2946      1.00000
     42       2.4749      1.00000
     43       2.7092      1.00000
     44       2.7460      1.00000
     45       2.8256      1.00000
     46       2.8329      1.00000
     47       2.9592      1.00000
     48       2.9977      1.00000
     49       5.6349      0.00000
     50       5.9427      0.00000
     51       6.0333      0.00000
     52       6.2963      0.00000
     53       6.5572      0.00000
     54       6.5906      0.00000
     55       6.8454      0.00000
     56       7.0900      0.00000
     57       7.2962      0.00000
     58       7.3795      0.00000
     59       7.5106      0.00000
     60       7.7108      0.00000
     61       7.8969      0.00000
     62       8.2483      0.00000
     63       8.3072      0.00000
     64       8.5153      0.00000

 k-point    21 :      -0.3333    0.0000    0.1667
  band No.  band energies     occupation 
      1     -32.3832      1.00000
      2     -32.3693      1.00000
      3     -32.3676      1.00000
      4     -32.3670      1.00000
      5     -13.9448      1.00000
      6     -13.9091      1.00000
      7     -13.9028      1.00000
      8     -13.8186      1.00000
      9     -13.7797      1.00000
     10     -13.7773      1.00000
     11     -13.7409      1.00000
     12     -13.7396      1.00000
     13     -13.7381      1.00000
     14     -13.7315      1.00000
     15     -13.6941      1.00000
     16     -13.6714      1.00000
     17      -7.4146      1.00000
     18      -6.8452      1.00000
     19      -6.6466      1.00000
     20      -6.1238      1.00000
     21      -6.0679      1.00000
     22      -5.8459      1.00000
     23      -5.8236      1.00000
     24      -5.7734      1.00000
     25      -1.8923      1.00000
     26      -1.3009      1.00000
     27      -0.6817      1.00000
     28      -0.5275      1.00000
     29       0.1211      1.00000
     30       0.2239      1.00000
     31       0.4918      1.00000
     32       0.8072      1.00000
     33       0.9807      1.00000
     34       1.2146      1.00000
     35       1.2360      1.00000
     36       1.6347      1.00000
     37       1.8669      1.00000
     38       1.8876      1.00000
     39       2.0680      1.00000
     40       2.0713      1.00000
     41       2.2901      1.00000
     42       2.4471      1.00000
     43       2.7121      1.00000
     44       2.7663      1.00000
     45       2.8427      1.00000
     46       2.8676      1.00000
     47       2.9616      1.00000
     48       3.0951      1.00000
     49       5.5169      0.00000
     50       5.8308      0.00000
     51       5.9518      0.00000
     52       6.5007      0.00000
     53       6.6282      0.00000
     54       6.9929      0.00000
     55       6.9980      0.00000
     56       7.1842      0.00000
     57       7.2245      0.00000
     58       7.4037      0.00000
     59       7.4815      0.00000
     60       7.5858      0.00000
     61       7.7795      0.00000
     62       7.9979      0.00000
     63       8.3762      0.00000
     64       8.4769      0.00000

 k-point    22 :      -0.1667    0.0000    0.1667
  band No.  band energies     occupation 
      1     -32.3832      1.00000
      2     -32.3693      1.00000
      3     -32.3676      1.00000
      4     -32.3670      1.00000
      5     -13.9450      1.00000
      6     -13.9093      1.00000
      7     -13.9032      1.00000
      8     -13.8170      1.00000
      9     -13.7797      1.00000
     10     -13.7773      1.00000
     11     -13.7406      1.00000
     12     -13.7392      1.00000
     13     -13.7376      1.00000
     14     -13.7315      1.00000
     15     -13.6941      1.00000
     16     -13.6714      1.00000
     17      -7.5410      1.00000
     18      -6.8307      1.00000
     19      -6.5292      1.00000
     20      -6.0981      1.00000
     21      -5.9574      1.00000
     22      -5.8790      1.00000
     23      -5.8545      1.00000
     24      -5.7939      1.00000
     25      -1.9190      1.00000
     26      -1.1606      1.00000
     27      -0.9386      1.00000
     28      -0.4798      1.00000
     29      -0.0424      1.00000
     30       0.1437      1.00000
     31       0.5210      1.00000
     32       0.7988      1.00000
     33       0.9741      1.00000
     34       1.2026      1.00000
     35       1.2605      1.00000
     36       1.5394      1.00000
     37       1.8567      1.00000
     38       1.9067      1.00000
     39       2.0280      1.00000
     40       2.1927      1.00000
     41       2.3223      1.00000
     42       2.5786      1.00000
     43       2.6384      1.00000
     44       2.6499      1.00000
     45       2.7421      1.00000
     46       2.8116      1.00000
     47       3.1849      1.00000
     48       3.1926      1.00000
     49       5.4059      0.00000
     50       6.0354      0.00000
     51       6.0512      0.00000
     52       6.6179      0.00000
     53       6.9524      0.00000
     54       7.0822      0.00000
     55       7.2498      0.00000
     56       7.3074      0.00000
     57       7.3621      0.00000
     58       7.5750      0.00000
     59       7.6395      0.00000
     60       7.8153      0.00000
     61       7.8397      0.00000
     62       8.0510      0.00000
     63       8.2888      0.00000
     64       8.3730      0.00000

 k-point    23 :      -0.0000    0.2000    0.1667
  band No.  band energies     occupation 
      1     -32.3821      1.00000
      2     -32.3715      1.00000
      3     -32.3672      1.00000
      4     -32.3662      1.00000
      5     -13.9388      1.00000
      6     -13.9056      1.00000
      7     -13.8809      1.00000
      8     -13.8151      1.00000
      9     -13.8026      1.00000
     10     -13.7595      1.00000
     11     -13.7489      1.00000
     12     -13.7465      1.00000
     13     -13.7357      1.00000
     14     -13.7298      1.00000
     15     -13.7060      1.00000
     16     -13.6778      1.00000
     17      -7.5340      1.00000
     18      -6.9361      1.00000
     19      -6.3959      1.00000
     20      -6.0384      1.00000
     21      -5.9824      1.00000
     22      -5.8933      1.00000
     23      -5.8695      1.00000
     24      -5.8408      1.00000
     25      -1.8050      1.00000
     26      -1.1443      1.00000
     27      -0.9880      1.00000
     28      -0.3992      1.00000
     29      -0.0782      1.00000
     30       0.3393      1.00000
     31       0.5237      1.00000
     32       0.5671      1.00000
     33       1.0304      1.00000
     34       1.2474      1.00000
     35       1.2896      1.00000
     36       1.6653      1.00000
     37       1.7193      1.00000
     38       1.7897      1.00000
     39       1.9379      1.00000
     40       2.0644      1.00000
     41       2.2876      1.00000
     42       2.3746      1.00000
     43       2.4245      1.00000
     44       2.5275      1.00000
     45       2.7474      1.00000
     46       2.8087      1.00000
     47       3.1059      1.00000
     48       3.3418      1.00000
     49       5.7530      0.00000
     50       6.0280      0.00000
     51       6.4215      0.00000
     52       6.5867      0.00000
     53       6.8327      0.00000
     54       7.2018      0.00000
     55       7.4447      0.00000
     56       7.5832      0.00000
     57       7.6483      0.00000
     58       7.6951      0.00000
     59       7.8187      0.00000
     60       7.9709      0.00000
     61       8.1850      0.00000
     62       8.2540      0.00000
     63       8.2786      0.00000
     64       8.4246      0.00000

 k-point    24 :       0.0000    0.2000   -0.1667
  band No.  band energies     occupation 
      1     -32.3821      1.00000
      2     -32.3715      1.00000
      3     -32.3672      1.00000
      4     -32.3662      1.00000
      5     -13.9388      1.00000
      6     -13.9056      1.00000
      7     -13.8809      1.00000
      8     -13.8151      1.00000
      9     -13.8026      1.00000
     10     -13.7595      1.00000
     11     -13.7489      1.00000
     12     -13.7465      1.00000
     13     -13.7357      1.00000
     14     -13.7298      1.00000
     15     -13.7060      1.00000
     16     -13.6778      1.00000
     17      -7.5340      1.00000
     18      -6.9361      1.00000
     19      -6.3959      1.00000
     20      -6.0384      1.00000
     21      -5.9824      1.00000
     22      -5.8933      1.00000
     23      -5.8695      1.00000
     24      -5.8408      1.00000
     25      -1.8050      1.00000
     26      -1.1443      1.00000
     27      -0.9880      1.00000
     28      -0.3992      1.00000
     29      -0.0782      1.00000
     30       0.3393      1.00000
     31       0.5237      1.00000
     32       0.5671      1.00000
     33       1.0304      1.00000
     34       1.2474      1.00000
     35       1.2896      1.00000
     36       1.6653      1.00000
     37       1.7193      1.00000
     38       1.7897      1.00000
     39       1.9379      1.00000
     40       2.0644      1.00000
     41       2.2876      1.00000
     42       2.3746      1.00000
     43       2.4245      1.00000
     44       2.5275      1.00000
     45       2.7474      1.00000
     46       2.8087      1.00000
     47       3.1059      1.00000
     48       3.3418      1.00000
     49       5.7530      0.00000
     50       6.0280      0.00000
     51       6.4215      0.00000
     52       6.5867      0.00000
     53       6.8327      0.00000
     54       7.2018      0.00000
     55       7.4447      0.00000
     56       7.5832      0.00000
     57       7.6483      0.00000
     58       7.6951      0.00000
     59       7.8187      0.00000
     60       7.9709      0.00000
     61       8.1851      0.00000
     62       8.2561      0.00000
     63       8.2785      0.00000
     64       8.4703      0.00000

 k-point    25 :       0.1667    0.2000    0.1667
  band No.  band energies     occupation 
      1     -32.3821      1.00000
      2     -32.3715      1.00000
      3     -32.3672      1.00000
      4     -32.3662      1.00000
      5     -13.9387      1.00000
      6     -13.9056      1.00000
      7     -13.8809      1.00000
      8     -13.8153      1.00000
      9     -13.8030      1.00000
     10     -13.7597      1.00000
     11     -13.7490      1.00000
     12     -13.7465      1.00000
     13     -13.7359      1.00000
     14     -13.7300      1.00000
     15     -13.7059      1.00000
     16     -13.6778      1.00000
     17      -7.4783      1.00000
     18      -6.9188      1.00000
     19      -6.4361      1.00000
     20      -6.0595      1.00000
     21      -5.9884      1.00000
     22      -5.9252      1.00000
     23      -5.8800      1.00000
     24      -5.8647      1.00000
     25      -1.7532      1.00000
     26      -1.1668      1.00000
     27      -0.8609      1.00000
     28      -0.3961      1.00000
     29       0.0612      1.00000
     30       0.4135      1.00000
     31       0.5315      1.00000
     32       0.5999      1.00000
     33       0.9096      1.00000
     34       1.1785      1.00000
     35       1.4346      1.00000
     36       1.6589      1.00000
     37       1.6852      1.00000
     38       1.7309      1.00000
     39       2.0094      1.00000
     40       2.0875      1.00000
     41       2.2236      1.00000
     42       2.3911      1.00000
     43       2.4017      1.00000
     44       2.4989      1.00000
     45       2.5989      1.00000
     46       2.7398      1.00000
     47       3.0511      1.00000
     48       3.1625      1.00000
     49       5.7563      0.00000
     50       6.0457      0.00000
     51       6.4853      0.00000
     52       6.5684      0.00000
     53       6.8155      0.00000
     54       6.9458      0.00000
     55       7.3118      0.00000
     56       7.5801      0.00000
     57       7.6727      0.00000
     58       7.7097      0.00000
     59       7.7876      0.00000
     60       8.0249      0.00000
     61       8.1640      0.00000
     62       8.1792      0.00000
     63       8.3300      0.00000
     64       8.4719      0.00000

 k-point    26 :      -0.1667    0.2000   -0.1667
  band No.  band energies     occupation 
      1     -32.3821      1.00000
      2     -32.3715      1.00000
      3     -32.3672      1.00000
      4     -32.3662      1.00000
      5     -13.9387      1.00000
      6     -13.9056      1.00000
      7     -13.8809      1.00000
      8     -13.8153      1.00000
      9     -13.8030      1.00000
     10     -13.7597      1.00000
     11     -13.7490      1.00000
     12     -13.7465      1.00000
     13     -13.7359      1.00000
     14     -13.7300      1.00000
     15     -13.7059      1.00000
     16     -13.6778      1.00000
     17      -7.4783      1.00000
     18      -6.9188      1.00000
     19      -6.4361      1.00000
     20      -6.0595      1.00000
     21      -5.9884      1.00000
     22      -5.9252      1.00000
     23      -5.8800      1.00000
     24      -5.8647      1.00000
     25      -1.7532      1.00000
     26      -1.1668      1.00000
     27      -0.8609      1.00000
     28      -0.3961      1.00000
     29       0.0612      1.00000
     30       0.4135      1.00000
     31       0.5315      1.00000
     32       0.5999      1.00000
     33       0.9096      1.00000
     34       1.1785      1.00000
     35       1.4346      1.00000
     36       1.6589      1.00000
     37       1.6852      1.00000
     38       1.7309      1.00000
     39       2.0094      1.00000
     40       2.0875      1.00000
     41       2.2236      1.00000
     42       2.3911      1.00000
     43       2.4017      1.00000
     44       2.4989      1.00000
     45       2.5989      1.00000
     46       2.7398      1.00000
     47       3.0511      1.00000
     48       3.1625      1.00000
     49       5.7563      0.00000
     50       6.0457      0.00000
     51       6.4853      0.00000
     52       6.5684      0.00000
     53       6.8155      0.00000
     54       6.9458      0.00000
     55       7.3118      0.00000
     56       7.5801      0.00000
     57       7.6727      0.00000
     58       7.7097      0.00000
     59       7.7876      0.00000
     60       8.0249      0.00000
     61       8.1640      0.00000
     62       8.1792      0.00000
     63       8.3249      0.00000
     64       8.4107      0.00000

 k-point    27 :       0.3333    0.2000    0.1667
  band No.  band energies     occupation 
      1     -32.3821      1.00000
      2     -32.3715      1.00000
      3     -32.3672      1.00000
      4     -32.3662      1.00000
      5     -13.9384      1.00000
      6     -13.9053      1.00000
      7     -13.8807      1.00000
      8     -13.8162      1.00000
      9     -13.8036      1.00000
     10     -13.7601      1.00000
     11     -13.7492      1.00000
     12     -13.7465      1.00000
     13     -13.7362      1.00000
     14     -13.7303      1.00000
     15     -13.7058      1.00000
     16     -13.6778      1.00000
     17      -7.3564      1.00000
     18      -6.9269      1.00000
     19      -6.5500      1.00000
     20      -6.0929      1.00000
     21      -6.0083      1.00000
     22      -5.9754      1.00000
     23      -5.8607      1.00000
     24      -5.8442      1.00000
     25      -1.7211      1.00000
     26      -1.2886      1.00000
     27      -0.6171      1.00000
     28      -0.4194      1.00000
     29       0.2262      1.00000
     30       0.4221      1.00000
     31       0.5775      1.00000
     32       0.7529      1.00000
     33       0.8661      1.00000
     34       1.1283      1.00000
     35       1.4590      1.00000
     36       1.5891      1.00000
     37       1.6567      1.00000
     38       1.7667      1.00000
     39       1.9389      1.00000
     40       2.0955      1.00000
     41       2.2063      1.00000
     42       2.2942      1.00000
     43       2.4903      1.00000
     44       2.5513      1.00000
     45       2.6554      1.00000
     46       2.7690      1.00000
     47       2.8981      1.00000
     48       3.0268      1.00000
     49       5.7508      0.00000
     50       6.0353      0.00000
     51       6.3353      0.00000
     52       6.5821      0.00000
     53       6.6207      0.00000
     54       7.0117      0.00000
     55       7.0751      0.00000
     56       7.1135      0.00000
     57       7.3950      0.00000
     58       7.6789      0.00000
     59       7.7644      0.00000
     60       7.8679      0.00000
     61       7.9800      0.00000
     62       8.0717      0.00000
     63       8.2601      0.00000
     64       8.5093      0.00000

 k-point    28 :      -0.3333    0.2000   -0.1667
  band No.  band energies     occupation 
      1     -32.3821      1.00000
      2     -32.3715      1.00000
      3     -32.3672      1.00000
      4     -32.3662      1.00000
      5     -13.9384      1.00000
      6     -13.9053      1.00000
      7     -13.8807      1.00000
      8     -13.8162      1.00000
      9     -13.8036      1.00000
     10     -13.7601      1.00000
     11     -13.7492      1.00000
     12     -13.7465      1.00000
     13     -13.7362      1.00000
     14     -13.7303      1.00000
     15     -13.7058      1.00000
     16     -13.6778      1.00000
     17      -7.3564      1.00000
     18      -6.9269      1.00000
     19      -6.5500      1.00000
     20      -6.0929      1.00000
     21      -6.0083      1.00000
     22      -5.9754      1.00000
     23      -5.8607      1.00000
     24      -5.8442      1.00000
     25      -1.7211      1.00000
     26      -1.2886      1.00000
     27      -0.6171      1.00000
     28      -0.4194      1.00000
     29       0.2262      1.00000
     30       0.4221      1.00000
     31       0.5775      1.00000
     32       0.7529      1.00000
     33       0.8661      1.00000
     34       1.1283      1.00000
     35       1.4590      1.00000
     36       1.5891      1.00000
     37       1.6567      1.00000
     38       1.7667      1.00000
     39       1.9389      1.00000
     40       2.0955      1.00000
     41       2.2063      1.00000
     42       2.2942      1.00000
     43       2.4903      1.00000
     44       2.5513      1.00000
     45       2.6554      1.00000
     46       2.7690      1.00000
     47       2.8981      1.00000
     48       3.0268      1.00000
     49       5.7508      0.00000
     50       6.0353      0.00000
     51       6.3353      0.00000
     52       6.5821      0.00000
     53       6.6207      0.00000
     54       7.0117      0.00000
     55       7.0751      0.00000
     56       7.1135      0.00000
     57       7.3950      0.00000
     58       7.6789      0.00000
     59       7.7644      0.00000
     60       7.8679      0.00000
     61       7.9800      0.00000
     62       8.0717      0.00000
     63       8.2601      0.00000
     64       8.5118      0.00000

 k-point    29 :       0.5000    0.2000    0.1667
  band No.  band energies     occupation 
      1     -32.3821      1.00000
      2     -32.3715      1.00000
      3     -32.3672      1.00000
      4     -32.3662      1.00000
      5     -13.9383      1.00000
      6     -13.9051      1.00000
      7     -13.8805      1.00000
      8     -13.8168      1.00000
      9     -13.8037      1.00000
     10     -13.7603      1.00000
     11     -13.7492      1.00000
     12     -13.7466      1.00000
     13     -13.7364      1.00000
     14     -13.7304      1.00000
     15     -13.7058      1.00000
     16     -13.6778      1.00000
     17      -7.2874      1.00000
     18      -6.9542      1.00000
     19      -6.6093      1.00000
     20      -6.1226      1.00000
     21      -6.0650      1.00000
     22      -5.9367      1.00000
     23      -5.8423      1.00000
     24      -5.8006      1.00000
     25      -1.7456      1.00000
     26      -1.3716      1.00000
     27      -0.5243      1.00000
     28      -0.4674      1.00000
     29       0.2983      1.00000
     30       0.4940      1.00000
     31       0.5395      1.00000
     32       0.7193      1.00000
     33       1.0125      1.00000
     34       1.1559      1.00000
     35       1.3709      1.00000
     36       1.3887      1.00000
     37       1.6854      1.00000
     38       1.7441      1.00000
     39       1.9036      1.00000
     40       2.1932      1.00000
     41       2.2185      1.00000
     42       2.4031      1.00000
     43       2.5707      1.00000
     44       2.6513      1.00000
     45       2.7280      1.00000
     46       2.7879      1.00000
     47       2.8701      1.00000
     48       3.0215      1.00000
     49       5.8017      0.00000
     50       6.0141      0.00000
     51       6.1571      0.00000
     52       6.5324      0.00000
     53       6.5622      0.00000
     54       6.7091      0.00000
     55       6.8077      0.00000
     56       7.0437      0.00000
     57       7.3579      0.00000
     58       7.5758      0.00000
     59       7.6719      0.00000
     60       7.8650      0.00000
     61       8.0684      0.00000
     62       8.0951      0.00000
     63       8.2261      0.00000
     64       8.3827      0.00000

 k-point    30 :       0.5000    0.2000   -0.1667
  band No.  band energies     occupation 
      1     -32.3821      1.00000
      2     -32.3715      1.00000
      3     -32.3672      1.00000
      4     -32.3662      1.00000
      5     -13.9383      1.00000
      6     -13.9051      1.00000
      7     -13.8805      1.00000
      8     -13.8168      1.00000
      9     -13.8037      1.00000
     10     -13.7603      1.00000
     11     -13.7492      1.00000
     12     -13.7466      1.00000
     13     -13.7364      1.00000
     14     -13.7304      1.00000
     15     -13.7058      1.00000
     16     -13.6778      1.00000
     17      -7.2874      1.00000
     18      -6.9542      1.00000
     19      -6.6093      1.00000
     20      -6.1226      1.00000
     21      -6.0650      1.00000
     22      -5.9367      1.00000
     23      -5.8423      1.00000
     24      -5.8006      1.00000
     25      -1.7456      1.00000
     26      -1.3716      1.00000
     27      -0.5243      1.00000
     28      -0.4674      1.00000
     29       0.2983      1.00000
     30       0.4940      1.00000
     31       0.5395      1.00000
     32       0.7193      1.00000
     33       1.0125      1.00000
     34       1.1559      1.00000
     35       1.3709      1.00000
     36       1.3887      1.00000
     37       1.6854      1.00000
     38       1.7441      1.00000
     39       1.9036      1.00000
     40       2.1932      1.00000
     41       2.2185      1.00000
     42       2.4031      1.00000
     43       2.5707      1.00000
     44       2.6513      1.00000
     45       2.7280      1.00000
     46       2.7879      1.00000
     47       2.8701      1.00000
     48       3.0215      1.00000
     49       5.8017      0.00000
     50       6.0141      0.00000
     51       6.1571      0.00000
     52       6.5324      0.00000
     53       6.5622      0.00000
     54       6.7091      0.00000
     55       6.8077      0.00000
     56       7.0437      0.00000
     57       7.3579      0.00000
     58       7.5758      0.00000
     59       7.6719      0.00000
     60       7.8650      0.00000
     61       8.0684      0.00000
     62       8.0951      0.00000
     63       8.2261      0.00000
     64       8.3827      0.00000

 k-point    31 :      -0.3333    0.2000    0.1667
  band No.  band energies     occupation 
      1     -32.3821      1.00000
      2     -32.3715      1.00000
      3     -32.3672      1.00000
      4     -32.3662      1.00000
      5     -13.9384      1.00000
      6     -13.9051      1.00000
      7     -13.8805      1.00000
      8     -13.8166      1.00000
      9     -13.8033      1.00000
     10     -13.7602      1.00000
     11     -13.7491      1.00000
     12     -13.7466      1.00000
     13     -13.7362      1.00000
     14     -13.7303      1.00000
     15     -13.7058      1.00000
     16     -13.6778      1.00000
     17      -7.3784      1.00000
     18      -6.9578      1.00000
     19      -6.5300      1.00000
     20      -6.1194      1.00000
     21      -6.0481      1.00000
     22      -5.8959      1.00000
     23      -5.8485      1.00000
     24      -5.7824      1.00000
     25      -1.8108      1.00000
     26      -1.3317      1.00000
     27      -0.6271      1.00000
     28      -0.4929      1.00000
     29       0.0898      1.00000
     30       0.3300      1.00000
     31       0.5351      1.00000
     32       0.7299      1.00000
     33       1.0342      1.00000
     34       1.2065      1.00000
     35       1.3186      1.00000
     36       1.6530      1.00000
     37       1.7120      1.00000
     38       1.7509      1.00000
     39       1.8976      1.00000
     40       2.1889      1.00000
     41       2.2576      1.00000
     42       2.5192      1.00000
     43       2.5290      1.00000
     44       2.6687      1.00000
     45       2.7500      1.00000
     46       2.8406      1.00000
     47       2.8566      1.00000
     48       3.2078      1.00000
     49       5.7105      0.00000
     50       5.8888      0.00000
     51       6.1873      0.00000
     52       6.6941      0.00000
     53       6.7970      0.00000
     54       6.8322      0.00000
     55       6.9582      0.00000
     56       7.1227      0.00000
     57       7.3099      0.00000
     58       7.5016      0.00000
     59       7.6028      0.00000
     60       7.6930      0.00000
     61       7.9581      0.00000
     62       8.0338      0.00000
     63       8.3271      0.00000
     64       8.4579      0.00000

 k-point    32 :       0.3333    0.2000   -0.1667
  band No.  band energies     occupation 
      1     -32.3821      1.00000
      2     -32.3715      1.00000
      3     -32.3672      1.00000
      4     -32.3662      1.00000
      5     -13.9384      1.00000
      6     -13.9051      1.00000
      7     -13.8805      1.00000
      8     -13.8166      1.00000
      9     -13.8033      1.00000
     10     -13.7602      1.00000
     11     -13.7491      1.00000
     12     -13.7466      1.00000
     13     -13.7362      1.00000
     14     -13.7303      1.00000
     15     -13.7058      1.00000
     16     -13.6778      1.00000
     17      -7.3784      1.00000
     18      -6.9578      1.00000
     19      -6.5300      1.00000
     20      -6.1194      1.00000
     21      -6.0481      1.00000
     22      -5.8959      1.00000
     23      -5.8485      1.00000
     24      -5.7824      1.00000
     25      -1.8108      1.00000
     26      -1.3317      1.00000
     27      -0.6271      1.00000
     28      -0.4929      1.00000
     29       0.0898      1.00000
     30       0.3300      1.00000
     31       0.5351      1.00000
     32       0.7299      1.00000
     33       1.0342      1.00000
     34       1.2065      1.00000
     35       1.3186      1.00000
     36       1.6530      1.00000
     37       1.7120      1.00000
     38       1.7509      1.00000
     39       1.8976      1.00000
     40       2.1889      1.00000
     41       2.2576      1.00000
     42       2.5192      1.00000
     43       2.5290      1.00000
     44       2.6687      1.00000
     45       2.7500      1.00000
     46       2.8406      1.00000
     47       2.8566      1.00000
     48       3.2078      1.00000
     49       5.7105      0.00000
     50       5.8888      0.00000
     51       6.1873      0.00000
     52       6.6941      0.00000
     53       6.7970      0.00000
     54       6.8322      0.00000
     55       6.9582      0.00000
     56       7.1227      0.00000
     57       7.3099      0.00000
     58       7.5016      0.00000
     59       7.6028      0.00000
     60       7.6930      0.00000
     61       7.9581      0.00000
     62       8.0338      0.00000
     63       8.3269      0.00000
     64       8.4224      0.00000

 k-point    33 :      -0.1667    0.2000    0.1667
  band No.  band energies     occupation 
      1     -32.3821      1.00000
      2     -32.3715      1.00000
      3     -32.3672      1.00000
      4     -32.3662      1.00000
      5     -13.9386      1.00000
      6     -13.9054      1.00000
      7     -13.8807      1.00000
      8     -13.8157      1.00000
      9     -13.8027      1.00000
     10     -13.7597      1.00000
     11     -13.7489      1.00000
     12     -13.7465      1.00000
     13     -13.7359      1.00000
     14     -13.7300      1.00000
     15     -13.7059      1.00000
     16     -13.6778      1.00000
     17      -7.4934      1.00000
     18      -6.9530      1.00000
     19      -6.4364      1.00000
     20      -6.0763      1.00000
     21      -5.9682      1.00000
     22      -5.9079      1.00000
     23      -5.8562      1.00000
     24      -5.8054      1.00000
     25      -1.8360      1.00000
     26      -1.2258      1.00000
     27      -0.8700      1.00000
     28      -0.4390      1.00000
     29      -0.0994      1.00000
     30       0.2650      1.00000
     31       0.5268      1.00000
     32       0.7006      1.00000
     33       1.0586      1.00000
     34       1.1990      1.00000
     35       1.3021      1.00000
     36       1.6327      1.00000
     37       1.7358      1.00000
     38       1.8240      1.00000
     39       1.9307      1.00000
     40       2.1774      1.00000
     41       2.4160      1.00000
     42       2.4380      1.00000
     43       2.4601      1.00000
     44       2.5257      1.00000
     45       2.6941      1.00000
     46       2.8284      1.00000
     47       3.1006      1.00000
     48       3.3226      1.00000
     49       5.7061      0.00000
     50       5.9423      0.00000
     51       6.3630      0.00000
     52       6.6207      0.00000
     53       6.8816      0.00000
     54       7.1487      0.00000
     55       7.2468      0.00000
     56       7.4108      0.00000
     57       7.4625      0.00000
     58       7.6077      0.00000
     59       7.7200      0.00000
     60       7.7805      0.00000
     61       7.9592      0.00000
     62       7.9878      0.00000
     63       8.3559      0.00000
     64       8.4111      0.00000

 k-point    34 :       0.1667    0.2000   -0.1667
  band No.  band energies     occupation 
      1     -32.3821      1.00000
      2     -32.3715      1.00000
      3     -32.3672      1.00000
      4     -32.3662      1.00000
      5     -13.9386      1.00000
      6     -13.9054      1.00000
      7     -13.8807      1.00000
      8     -13.8157      1.00000
      9     -13.8027      1.00000
     10     -13.7597      1.00000
     11     -13.7489      1.00000
     12     -13.7465      1.00000
     13     -13.7359      1.00000
     14     -13.7300      1.00000
     15     -13.7059      1.00000
     16     -13.6778      1.00000
     17      -7.4934      1.00000
     18      -6.9530      1.00000
     19      -6.4364      1.00000
     20      -6.0763      1.00000
     21      -5.9682      1.00000
     22      -5.9079      1.00000
     23      -5.8562      1.00000
     24      -5.8054      1.00000
     25      -1.8360      1.00000
     26      -1.2258      1.00000
     27      -0.8700      1.00000
     28      -0.4390      1.00000
     29      -0.0994      1.00000
     30       0.2650      1.00000
     31       0.5268      1.00000
     32       0.7006      1.00000
     33       1.0586      1.00000
     34       1.1990      1.00000
     35       1.3021      1.00000
     36       1.6327      1.00000
     37       1.7358      1.00000
     38       1.8240      1.00000
     39       1.9307      1.00000
     40       2.1774      1.00000
     41       2.4160      1.00000
     42       2.4380      1.00000
     43       2.4601      1.00000
     44       2.5257      1.00000
     45       2.6941      1.00000
     46       2.8284      1.00000
     47       3.1006      1.00000
     48       3.3226      1.00000
     49       5.7061      0.00000
     50       5.9423      0.00000
     51       6.3630      0.00000
     52       6.6207      0.00000
     53       6.8816      0.00000
     54       7.1487      0.00000
     55       7.2468      0.00000
     56       7.4108      0.00000
     57       7.4625      0.00000
     58       7.6077      0.00000
     59       7.7200      0.00000
     60       7.7805      0.00000
     61       7.9592      0.00000
     62       7.9878      0.00000
     63       8.3538      0.00000
     64       8.4153      0.00000

 k-point    35 :      -0.0000    0.4000    0.1667
  band No.  band energies     occupation 
      1     -32.3793      1.00000
      2     -32.3754      1.00000
      3     -32.3665      1.00000
      4     -32.3660      1.00000
      5     -13.9209      1.00000
      6     -13.9030      1.00000
      7     -13.8326      1.00000
      8     -13.8158      1.00000
      9     -13.7923      1.00000
     10     -13.7858      1.00000
     11     -13.7788      1.00000
     12     -13.7609      1.00000
     13     -13.7329      1.00000
     14     -13.7292      1.00000
     15     -13.7076      1.00000
     16     -13.6908      1.00000
     17      -7.3856      1.00000
     18      -7.1694      1.00000
     19      -6.2620      1.00000
     20      -6.1310      1.00000
     21      -5.9460      1.00000
     22      -5.9028      1.00000
     23      -5.8571      1.00000
     24      -5.8481      1.00000
     25      -1.6024      1.00000
     26      -1.3525      1.00000
     27      -0.7721      1.00000
     28      -0.4986      1.00000
     29      -0.0583      1.00000
     30       0.2164      1.00000
     31       0.6270      1.00000
     32       0.6923      1.00000
     33       1.1443      1.00000
     34       1.2087      1.00000
     35       1.4786      1.00000
     36       1.5184      1.00000
     37       1.5712      1.00000
     38       1.7267      1.00000
     39       1.8534      1.00000
     40       2.1391      1.00000
     41       2.1764      1.00000
     42       2.2989      1.00000
     43       2.3906      1.00000
     44       2.4741      1.00000
     45       2.6250      1.00000
     46       2.9213      1.00000
     47       2.9532      1.00000
     48       3.0940      1.00000
     49       5.9970      0.00000
     50       6.2142      0.00000
     51       6.5981      0.00000
     52       6.8474      0.00000
     53       7.0194      0.00000
     54       7.2267      0.00000
     55       7.3269      0.00000
     56       7.5746      0.00000
     57       7.6890      0.00000
     58       7.7385      0.00000
     59       7.7854      0.00000
     60       7.9319      0.00000
     61       8.1914      0.00000
     62       8.2164      0.00000
     63       8.3611      0.00000
     64       8.4677      0.00000

 k-point    36 :       0.0000    0.4000   -0.1667
  band No.  band energies     occupation 
      1     -32.3793      1.00000
      2     -32.3754      1.00000
      3     -32.3665      1.00000
      4     -32.3660      1.00000
      5     -13.9209      1.00000
      6     -13.9030      1.00000
      7     -13.8326      1.00000
      8     -13.8158      1.00000
      9     -13.7923      1.00000
     10     -13.7858      1.00000
     11     -13.7788      1.00000
     12     -13.7609      1.00000
     13     -13.7329      1.00000
     14     -13.7292      1.00000
     15     -13.7076      1.00000
     16     -13.6908      1.00000
     17      -7.3856      1.00000
     18      -7.1694      1.00000
     19      -6.2620      1.00000
     20      -6.1310      1.00000
     21      -5.9460      1.00000
     22      -5.9028      1.00000
     23      -5.8571      1.00000
     24      -5.8481      1.00000
     25      -1.6024      1.00000
     26      -1.3525      1.00000
     27      -0.7721      1.00000
     28      -0.4986      1.00000
     29      -0.0583      1.00000
     30       0.2164      1.00000
     31       0.6270      1.00000
     32       0.6923      1.00000
     33       1.1443      1.00000
     34       1.2087      1.00000
     35       1.4786      1.00000
     36       1.5184      1.00000
     37       1.5712      1.00000
     38       1.7267      1.00000
     39       1.8534      1.00000
     40       2.1391      1.00000
     41       2.1764      1.00000
     42       2.2989      1.00000
     43       2.3906      1.00000
     44       2.4741      1.00000
     45       2.6250      1.00000
     46       2.9213      1.00000
     47       2.9532      1.00000
     48       3.0940      1.00000
     49       5.9970      0.00000
     50       6.2142      0.00000
     51       6.5981      0.00000
     52       6.8474      0.00000
     53       7.0194      0.00000
     54       7.2267      0.00000
     55       7.3269      0.00000
     56       7.5746      0.00000
     57       7.6890      0.00000
     58       7.7385      0.00000
     59       7.7854      0.00000
     60       7.9319      0.00000
     61       8.1914      0.00000
     62       8.2164      0.00000
     63       8.3614      0.00000
     64       8.4659      0.00000

 k-point    37 :       0.1667    0.4000    0.1667
  band No.  band energies     occupation 
      1     -32.3793      1.00000
      2     -32.3754      1.00000
      3     -32.3665      1.00000
      4     -32.3660      1.00000
      5     -13.9207      1.00000
      6     -13.9029      1.00000
      7     -13.8328      1.00000
      8     -13.8157      1.00000
      9     -13.7930      1.00000
     10     -13.7859      1.00000
     11     -13.7789      1.00000
     12     -13.7609      1.00000
     13     -13.7330      1.00000
     14     -13.7294      1.00000
     15     -13.7076      1.00000
     16     -13.6908      1.00000
     17      -7.3382      1.00000
     18      -7.1360      1.00000
     19      -6.2987      1.00000
     20      -6.1706      1.00000
     21      -5.9572      1.00000
     22      -5.9366      1.00000
     23      -5.8667      1.00000
     24      -5.8582      1.00000
     25      -1.5731      1.00000
     26      -1.3552      1.00000
     27      -0.6552      1.00000
     28      -0.4148      1.00000
     29       0.0105      1.00000
     30       0.2349      1.00000
     31       0.6468      1.00000
     32       0.7782      1.00000
     33       1.0922      1.00000
     34       1.2099      1.00000
     35       1.3937      1.00000
     36       1.4918      1.00000
     37       1.6359      1.00000
     38       1.8077      1.00000
     39       1.8761      1.00000
     40       2.0679      1.00000
     41       2.2389      1.00000
     42       2.3245      1.00000
     43       2.3719      1.00000
     44       2.4429      1.00000
     45       2.5082      1.00000
     46       2.7188      1.00000
     47       2.8457      1.00000
     48       2.9345      1.00000
     49       5.9955      0.00000
     50       6.2009      0.00000
     51       6.4952      0.00000
     52       6.7202      0.00000
     53       6.8617      0.00000
     54       7.0753      0.00000
     55       7.1793      0.00000
     56       7.5145      0.00000
     57       7.6852      0.00000
     58       7.8578      0.00000
     59       8.0447      0.00000
     60       8.0871      0.00000
     61       8.2333      0.00000
     62       8.4602      0.00000
     63       8.5249      0.00000
     64       8.5706      0.00000

 k-point    38 :      -0.1667    0.4000   -0.1667
  band No.  band energies     occupation 
      1     -32.3793      1.00000
      2     -32.3754      1.00000
      3     -32.3665      1.00000
      4     -32.3660      1.00000
      5     -13.9207      1.00000
      6     -13.9029      1.00000
      7     -13.8328      1.00000
      8     -13.8157      1.00000
      9     -13.7930      1.00000
     10     -13.7859      1.00000
     11     -13.7789      1.00000
     12     -13.7609      1.00000
     13     -13.7330      1.00000
     14     -13.7294      1.00000
     15     -13.7076      1.00000
     16     -13.6908      1.00000
     17      -7.3382      1.00000
     18      -7.1360      1.00000
     19      -6.2987      1.00000
     20      -6.1706      1.00000
     21      -5.9572      1.00000
     22      -5.9366      1.00000
     23      -5.8667      1.00000
     24      -5.8582      1.00000
     25      -1.5731      1.00000
     26      -1.3552      1.00000
     27      -0.6552      1.00000
     28      -0.4148      1.00000
     29       0.0105      1.00000
     30       0.2349      1.00000
     31       0.6468      1.00000
     32       0.7782      1.00000
     33       1.0922      1.00000
     34       1.2099      1.00000
     35       1.3937      1.00000
     36       1.4918      1.00000
     37       1.6359      1.00000
     38       1.8077      1.00000
     39       1.8761      1.00000
     40       2.0679      1.00000
     41       2.2389      1.00000
     42       2.3245      1.00000
     43       2.3719      1.00000
     44       2.4429      1.00000
     45       2.5082      1.00000
     46       2.7188      1.00000
     47       2.8457      1.00000
     48       2.9345      1.00000
     49       5.9955      0.00000
     50       6.2009      0.00000
     51       6.4952      0.00000
     52       6.7202      0.00000
     53       6.8617      0.00000
     54       7.0753      0.00000
     55       7.1793      0.00000
     56       7.5145      0.00000
     57       7.6852      0.00000
     58       7.8578      0.00000
     59       8.0447      0.00000
     60       8.0871      0.00000
     61       8.2333      0.00000
     62       8.4603      0.00000
     63       8.5246      0.00000
     64       8.5729      0.00000

 k-point    39 :       0.3333    0.4000    0.1667
  band No.  band energies     occupation 
      1     -32.3793      1.00000
      2     -32.3754      1.00000
      3     -32.3665      1.00000
      4     -32.3660      1.00000
      5     -13.9205      1.00000
      6     -13.9026      1.00000
      7     -13.8328      1.00000
      8     -13.8157      1.00000
      9     -13.7940      1.00000
     10     -13.7862      1.00000
     11     -13.7792      1.00000
     12     -13.7611      1.00000
     13     -13.7334      1.00000
     14     -13.7297      1.00000
     15     -13.7076      1.00000
     16     -13.6908      1.00000
     17      -7.2491      1.00000
     18      -7.0959      1.00000
     19      -6.3775      1.00000
     20      -6.2056      1.00000
     21      -6.0134      1.00000
     22      -5.9922      1.00000
     23      -5.8519      1.00000
     24      -5.8496      1.00000
     25      -1.5640      1.00000
     26      -1.4063      1.00000
     27      -0.4844      1.00000
     28      -0.3667      1.00000
     29       0.2021      1.00000
     30       0.3568      1.00000
     31       0.6663      1.00000
     32       0.9184      1.00000
     33       1.0494      1.00000
     34       1.1139      1.00000
     35       1.3358      1.00000
     36       1.4118      1.00000
     37       1.6329      1.00000
     38       1.7684      1.00000
     39       1.9103      1.00000
     40       1.9857      1.00000
     41       2.1953      1.00000
     42       2.2626      1.00000
     43       2.3506      1.00000
     44       2.4855      1.00000
     45       2.5633      1.00000
     46       2.6412      1.00000
     47       2.8510      1.00000
     48       2.8996      1.00000
     49       6.0188      0.00000
     50       6.2115      0.00000
     51       6.2276      0.00000
     52       6.4229      0.00000
     53       6.7960      0.00000
     54       6.9921      0.00000
     55       7.0883      0.00000
     56       7.2471      0.00000
     57       7.6495      0.00000
     58       7.8121      0.00000
     59       8.0450      0.00000
     60       8.1660      0.00000
     61       8.2935      0.00000
     62       8.4018      0.00000
     63       8.5250      0.00000
     64       8.5634      0.00000

 k-point    40 :      -0.3333    0.4000   -0.1667
  band No.  band energies     occupation 
      1     -32.3793      1.00000
      2     -32.3754      1.00000
      3     -32.3665      1.00000
      4     -32.3660      1.00000
      5     -13.9205      1.00000
      6     -13.9026      1.00000
      7     -13.8328      1.00000
      8     -13.8157      1.00000
      9     -13.7940      1.00000
     10     -13.7862      1.00000
     11     -13.7792      1.00000
     12     -13.7611      1.00000
     13     -13.7334      1.00000
     14     -13.7297      1.00000
     15     -13.7076      1.00000
     16     -13.6908      1.00000
     17      -7.2491      1.00000
     18      -7.0959      1.00000
     19      -6.3775      1.00000
     20      -6.2056      1.00000
     21      -6.0134      1.00000
     22      -5.9922      1.00000
     23      -5.8519      1.00000
     24      -5.8496      1.00000
     25      -1.5640      1.00000
     26      -1.4063      1.00000
     27      -0.4844      1.00000
     28      -0.3667      1.00000
     29       0.2021      1.00000
     30       0.3568      1.00000
     31       0.6663      1.00000
     32       0.9184      1.00000
     33       1.0494      1.00000
     34       1.1139      1.00000
     35       1.3358      1.00000
     36       1.4118      1.00000
     37       1.6329      1.00000
     38       1.7684      1.00000
     39       1.9103      1.00000
     40       1.9857      1.00000
     41       2.1953      1.00000
     42       2.2626      1.00000
     43       2.3506      1.00000
     44       2.4855      1.00000
     45       2.5633      1.00000
     46       2.6412      1.00000
     47       2.8510      1.00000
     48       2.8996      1.00000
     49       6.0188      0.00000
     50       6.2115      0.00000
     51       6.2276      0.00000
     52       6.4229      0.00000
     53       6.7960      0.00000
     54       6.9921      0.00000
     55       7.0883      0.00000
     56       7.2471      0.00000
     57       7.6495      0.00000
     58       7.8121      0.00000
     59       8.0450      0.00000
     60       8.1660      0.00000
     61       8.2935      0.00000
     62       8.4018      0.00000
     63       8.5251      0.00000
     64       8.5594      0.00000

 k-point    41 :       0.5000    0.4000    0.1667
  band No.  band energies     occupation 
      1     -32.3793      1.00000
      2     -32.3754      1.00000
      3     -32.3665      1.00000
      4     -32.3660      1.00000
      5     -13.9203      1.00000
      6     -13.9024      1.00000
      7     -13.8327      1.00000
      8     -13.8157      1.00000
      9     -13.7942      1.00000
     10     -13.7865      1.00000
     11     -13.7794      1.00000
     12     -13.7612      1.00000
     13     -13.7335      1.00000
     14     -13.7298      1.00000
     15     -13.7076      1.00000
     16     -13.6908      1.00000
     17      -7.2099      1.00000
     18      -7.0933      1.00000
     19      -6.4047      1.00000
     20      -6.1944      1.00000
     21      -6.0691      1.00000
     22      -6.0077      1.00000
     23      -5.8473      1.00000
     24      -5.8228      1.00000
     25      -1.5843      1.00000
     26      -1.4465      1.00000
     27      -0.4285      1.00000
     28      -0.3977      1.00000
     29       0.3041      1.00000
     30       0.4315      1.00000
     31       0.7302      1.00000
     32       0.8132      1.00000
     33       1.0481      1.00000
     34       1.1122      1.00000
     35       1.3237      1.00000
     36       1.3707      1.00000
     37       1.5836      1.00000
     38       1.6597      1.00000
     39       1.9706      1.00000
     40       2.0926      1.00000
     41       2.1258      1.00000
     42       2.2341      1.00000
     43       2.3496      1.00000
     44       2.5409      1.00000
     45       2.6318      1.00000
     46       2.6794      1.00000
     47       2.9024      1.00000
     48       3.0355      1.00000
     49       6.0369      0.00000
     50       6.1446      0.00000
     51       6.2889      0.00000
     52       6.4008      0.00000
     53       6.7743      0.00000
     54       6.9722      0.00000
     55       6.9897      0.00000
     56       7.1695      0.00000
     57       7.4096      0.00000
     58       7.5276      0.00000
     59       7.9504      0.00000
     60       8.0680      0.00000
     61       8.1875      0.00000
     62       8.3000      0.00000
     63       8.3592      0.00000
     64       8.5045      0.00000

 k-point    42 :       0.5000    0.4000   -0.1667
  band No.  band energies     occupation 
      1     -32.3793      1.00000
      2     -32.3754      1.00000
      3     -32.3665      1.00000
      4     -32.3660      1.00000
      5     -13.9203      1.00000
      6     -13.9024      1.00000
      7     -13.8327      1.00000
      8     -13.8157      1.00000
      9     -13.7942      1.00000
     10     -13.7865      1.00000
     11     -13.7794      1.00000
     12     -13.7612      1.00000
     13     -13.7335      1.00000
     14     -13.7298      1.00000
     15     -13.7076      1.00000
     16     -13.6908      1.00000
     17      -7.2099      1.00000
     18      -7.0933      1.00000
     19      -6.4047      1.00000
     20      -6.1944      1.00000
     21      -6.0691      1.00000
     22      -6.0077      1.00000
     23      -5.8473      1.00000
     24      -5.8228      1.00000
     25      -1.5843      1.00000
     26      -1.4465      1.00000
     27      -0.4285      1.00000
     28      -0.3977      1.00000
     29       0.3041      1.00000
     30       0.4315      1.00000
     31       0.7302      1.00000
     32       0.8132      1.00000
     33       1.0481      1.00000
     34       1.1122      1.00000
     35       1.3237      1.00000
     36       1.3707      1.00000
     37       1.5836      1.00000
     38       1.6597      1.00000
     39       1.9706      1.00000
     40       2.0926      1.00000
     41       2.1258      1.00000
     42       2.2341      1.00000
     43       2.3496      1.00000
     44       2.5409      1.00000
     45       2.6318      1.00000
     46       2.6794      1.00000
     47       2.9024      1.00000
     48       3.0355      1.00000
     49       6.0369      0.00000
     50       6.1446      0.00000
     51       6.2889      0.00000
     52       6.4008      0.00000
     53       6.7743      0.00000
     54       6.9722      0.00000
     55       6.9897      0.00000
     56       7.1695      0.00000
     57       7.4096      0.00000
     58       7.5276      0.00000
     59       7.9504      0.00000
     60       8.0680      0.00000
     61       8.1875      0.00000
     62       8.3000      0.00000
     63       8.3593      0.00000
     64       8.5044      0.00000

 k-point    43 :      -0.3333    0.4000    0.1667
  band No.  band energies     occupation 
      1     -32.3793      1.00000
      2     -32.3754      1.00000
      3     -32.3665      1.00000
      4     -32.3660      1.00000
      5     -13.9204      1.00000
      6     -13.9025      1.00000
      7     -13.8325      1.00000
      8     -13.8158      1.00000
      9     -13.7935      1.00000
     10     -13.7864      1.00000
     11     -13.7793      1.00000
     12     -13.7612      1.00000
     13     -13.7334      1.00000
     14     -13.7297      1.00000
     15     -13.7076      1.00000
     16     -13.6908      1.00000
     17      -7.2765      1.00000
     18      -7.1267      1.00000
     19      -6.3397      1.00000
     20      -6.1507      1.00000
     21      -6.0569      1.00000
     22      -5.9703      1.00000
     23      -5.8576      1.00000
     24      -5.8131      1.00000
     25      -1.6203      1.00000
     26      -1.4354      1.00000
     27      -0.5308      1.00000
     28      -0.4769      1.00000
     29       0.1703      1.00000
     30       0.3781      1.00000
     31       0.6023      1.00000
     32       0.8566      1.00000
     33       1.0313      1.00000
     34       1.1949      1.00000
     35       1.3635      1.00000
     36       1.4095      1.00000
     37       1.5648      1.00000
     38       1.6408      1.00000
     39       1.9278      1.00000
     40       2.0523      1.00000
     41       2.1187      1.00000
     42       2.2552      1.00000
     43       2.5214      1.00000
     44       2.6192      1.00000
     45       2.7305      1.00000
     46       2.7904      1.00000
     47       2.9540      1.00000
     48       3.1686      1.00000
     49       6.0550      0.00000
     50       6.1589      0.00000
     51       6.4944      0.00000
     52       6.5200      0.00000
     53       6.7419      0.00000
     54       6.8948      0.00000
     55       6.9770      0.00000
     56       7.1483      0.00000
     57       7.5043      0.00000
     58       7.5845      0.00000
     59       7.9187      0.00000
     60       8.0056      0.00000
     61       8.0285      0.00000
     62       8.2865      0.00000
     63       8.3311      0.00000
     64       8.3737      0.00000

 k-point    44 :       0.3333    0.4000   -0.1667
  band No.  band energies     occupation 
      1     -32.3793      1.00000
      2     -32.3754      1.00000
      3     -32.3665      1.00000
      4     -32.3660      1.00000
      5     -13.9204      1.00000
      6     -13.9025      1.00000
      7     -13.8325      1.00000
      8     -13.8158      1.00000
      9     -13.7935      1.00000
     10     -13.7864      1.00000
     11     -13.7793      1.00000
     12     -13.7612      1.00000
     13     -13.7334      1.00000
     14     -13.7297      1.00000
     15     -13.7076      1.00000
     16     -13.6908      1.00000
     17      -7.2765      1.00000
     18      -7.1267      1.00000
     19      -6.3397      1.00000
     20      -6.1507      1.00000
     21      -6.0569      1.00000
     22      -5.9703      1.00000
     23      -5.8576      1.00000
     24      -5.8131      1.00000
     25      -1.6203      1.00000
     26      -1.4354      1.00000
     27      -0.5308      1.00000
     28      -0.4769      1.00000
     29       0.1703      1.00000
     30       0.3781      1.00000
     31       0.6023      1.00000
     32       0.8566      1.00000
     33       1.0313      1.00000
     34       1.1949      1.00000
     35       1.3635      1.00000
     36       1.4095      1.00000
     37       1.5648      1.00000
     38       1.6408      1.00000
     39       1.9278      1.00000
     40       2.0523      1.00000
     41       2.1187      1.00000
     42       2.2552      1.00000
     43       2.5214      1.00000
     44       2.6192      1.00000
     45       2.7305      1.00000
     46       2.7904      1.00000
     47       2.9540      1.00000
     48       3.1686      1.00000
     49       6.0550      0.00000
     50       6.1589      0.00000
     51       6.4944      0.00000
     52       6.5200      0.00000
     53       6.7419      0.00000
     54       6.8948      0.00000
     55       6.9770      0.00000
     56       7.1483      0.00000
     57       7.5043      0.00000
     58       7.5845      0.00000
     59       7.9187      0.00000
     60       8.0056      0.00000
     61       8.0285      0.00000
     62       8.2865      0.00000
     63       8.3324      0.00000
     64       8.3718      0.00000

 k-point    45 :      -0.1667    0.4000    0.1667
  band No.  band energies     occupation 
      1     -32.3793      1.00000
      2     -32.3754      1.00000
      3     -32.3665      1.00000
      4     -32.3660      1.00000
      5     -13.9207      1.00000
      6     -13.9028      1.00000
      7     -13.8325      1.00000
      8     -13.8158      1.00000
      9     -13.7926      1.00000
     10     -13.7861      1.00000
     11     -13.7790      1.00000
     12     -13.7611      1.00000
     13     -13.7331      1.00000
     14     -13.7294      1.00000
     15     -13.7076      1.00000
     16     -13.6908      1.00000
     17      -7.3594      1.00000
     18      -7.1643      1.00000
     19      -6.2803      1.00000
     20      -6.1233      1.00000
     21      -5.9828      1.00000
     22      -5.9121      1.00000
     23      -5.8670      1.00000
     24      -5.8282      1.00000
     25      -1.6282      1.00000
     26      -1.3936      1.00000
     27      -0.7083      1.00000
     28      -0.5269      1.00000
     29       0.0141      1.00000
     30       0.2839      1.00000
     31       0.5651      1.00000
     32       0.7716      1.00000
     33       1.1119      1.00000
     34       1.2080      1.00000
     35       1.4306      1.00000
     36       1.5174      1.00000
     37       1.5953      1.00000
     38       1.6085      1.00000
     39       1.8811      1.00000
     40       2.0491      1.00000
     41       2.1193      1.00000
     42       2.2758      1.00000
     43       2.4505      1.00000
     44       2.5733      1.00000
     45       2.7783      1.00000
     46       2.9864      1.00000
     47       3.0259      1.00000
     48       3.1947      1.00000
     49       5.9763      0.00000
     50       6.2613      0.00000
     51       6.4257      0.00000
     52       6.7744      0.00000
     53       6.8924      0.00000
     54       7.0823      0.00000
     55       7.1680      0.00000
     56       7.4388      0.00000
     57       7.6436      0.00000
     58       7.6727      0.00000
     59       7.8954      0.00000
     60       7.9372      0.00000
     61       8.0178      0.00000
     62       8.2491      0.00000
     63       8.2614      0.00000
     64       8.3351      0.00000

 k-point    46 :       0.1667    0.4000   -0.1667
  band No.  band energies     occupation 
      1     -32.3793      1.00000
      2     -32.3754      1.00000
      3     -32.3665      1.00000
      4     -32.3660      1.00000
      5     -13.9207      1.00000
      6     -13.9028      1.00000
      7     -13.8325      1.00000
      8     -13.8158      1.00000
      9     -13.7926      1.00000
     10     -13.7861      1.00000
     11     -13.7790      1.00000
     12     -13.7611      1.00000
     13     -13.7330      1.00000
     14     -13.7294      1.00000
     15     -13.7076      1.00000
     16     -13.6908      1.00000
     17      -7.3594      1.00000
     18      -7.1643      1.00000
     19      -6.2803      1.00000
     20      -6.1233      1.00000
     21      -5.9828      1.00000
     22      -5.9121      1.00000
     23      -5.8670      1.00000
     24      -5.8282      1.00000
     25      -1.6282      1.00000
     26      -1.3936      1.00000
     27      -0.7083      1.00000
     28      -0.5269      1.00000
     29       0.0141      1.00000
     30       0.2839      1.00000
     31       0.5651      1.00000
     32       0.7716      1.00000
     33       1.1119      1.00000
     34       1.2080      1.00000
     35       1.4306      1.00000
     36       1.5174      1.00000
     37       1.5953      1.00000
     38       1.6085      1.00000
     39       1.8811      1.00000
     40       2.0491      1.00000
     41       2.1193      1.00000
     42       2.2758      1.00000
     43       2.4505      1.00000
     44       2.5733      1.00000
     45       2.7783      1.00000
     46       2.9864      1.00000
     47       3.0259      1.00000
     48       3.1947      1.00000
     49       5.9763      0.00000
     50       6.2613      0.00000
     51       6.4257      0.00000
     52       6.7744      0.00000
     53       6.8924      0.00000
     54       7.0823      0.00000
     55       7.1680      0.00000
     56       7.4388      0.00000
     57       7.6436      0.00000
     58       7.6727      0.00000
     59       7.8954      0.00000
     60       7.9372      0.00000
     61       8.0178      0.00000
     62       8.2520      0.00000
     63       8.2618      0.00000
     64       8.3375      0.00000

 k-point    47 :      -0.0000    0.0000    0.3333
  band No.  band energies     occupation 
      1     -32.3801      1.00000
      2     -32.3717      1.00000
      3     -32.3677      1.00000
      4     -32.3676      1.00000
      5     -13.9373      1.00000
      6     -13.9364      1.00000
      7     -13.8936      1.00000
      8     -13.8014      1.00000
      9     -13.7686      1.00000
     10     -13.7589      1.00000
     11     -13.7434      1.00000
     12     -13.7388      1.00000
     13     -13.7385      1.00000
     14     -13.7304      1.00000
     15     -13.7164      1.00000
     16     -13.6827      1.00000
     17      -7.4327      1.00000
     18      -6.9734      1.00000
     19      -6.3764      1.00000
     20      -6.1108      1.00000
     21      -5.9995      1.00000
     22      -5.9848      1.00000
     23      -5.8633      1.00000
     24      -5.8499      1.00000
     25      -1.5685      1.00000
     26      -1.0773      1.00000
     27      -0.9316      1.00000
     28      -0.6670      1.00000
     29      -0.0412      1.00000
     30       0.2565      1.00000
     31       0.4068      1.00000
     32       1.1103      1.00000
     33       1.1918      1.00000
     34       1.2273      1.00000
     35       1.3396      1.00000
     36       1.5606      1.00000
     37       1.7612      1.00000
     38       1.7810      1.00000
     39       1.8735      1.00000
     40       2.2193      1.00000
     41       2.2865      1.00000
     42       2.3248      1.00000
     43       2.3955      1.00000
     44       2.5559      1.00000
     45       2.5872      1.00000
     46       2.7877      1.00000
     47       3.0449      1.00000
     48       3.1473      1.00000
     49       5.4334      0.00000
     50       5.4466      0.00000
     51       5.7523      0.00000
     52       6.4429      0.00000
     53       6.9024      0.00000
     54       7.1576      0.00000
     55       7.3963      0.00000
     56       7.6846      0.00000
     57       7.7455      0.00000
     58       7.8449      0.00000
     59       7.9104      0.00000
     60       8.1988      0.00000
     61       8.2474      0.00000
     62       8.3427      0.00000
     63       8.4408      0.00000
     64       8.4955      0.00000

 k-point    48 :       0.1667   -0.0000    0.3333
  band No.  band energies     occupation 
      1     -32.3800      1.00000
      2     -32.3717      1.00000
      3     -32.3677      1.00000
      4     -32.3676      1.00000
      5     -13.9373      1.00000
      6     -13.9363      1.00000
      7     -13.8934      1.00000
      8     -13.8020      1.00000
      9     -13.7686      1.00000
     10     -13.7591      1.00000
     11     -13.7434      1.00000
     12     -13.7390      1.00000
     13     -13.7387      1.00000
     14     -13.7304      1.00000
     15     -13.7164      1.00000
     16     -13.6827      1.00000
     17      -7.3823      1.00000
     18      -6.9528      1.00000
     19      -6.4367      1.00000
     20      -6.1161      1.00000
     21      -5.9931      1.00000
     22      -5.9866      1.00000
     23      -5.8984      1.00000
     24      -5.8708      1.00000
     25      -1.5114      1.00000
     26      -1.0214      1.00000
     27      -0.9295      1.00000
     28      -0.7357      1.00000
     29       0.1645      1.00000
     30       0.3126      1.00000
     31       0.4660      1.00000
     32       1.0221      1.00000
     33       1.0627      1.00000
     34       1.2407      1.00000
     35       1.4238      1.00000
     36       1.5067      1.00000
     37       1.6702      1.00000
     38       1.8159      1.00000
     39       2.0453      1.00000
     40       2.1347      1.00000
     41       2.1616      1.00000
     42       2.1968      1.00000
     43       2.3464      1.00000
     44       2.5501      1.00000
     45       2.6441      1.00000
     46       2.7485      1.00000
     47       3.0713      1.00000
     48       3.2361      1.00000
     49       5.4672      0.00000
     50       5.4693      0.00000
     51       5.7239      0.00000
     52       6.5576      0.00000
     53       6.9139      0.00000
     54       6.9555      0.00000
     55       7.2039      0.00000
     56       7.4491      0.00000
     57       7.5061      0.00000
     58       7.8277      0.00000
     59       7.8482      0.00000
     60       7.9064      0.00000
     61       8.1656      0.00000
     62       8.2821      0.00000
     63       8.4449      0.00000
     64       8.6154      0.00000

 k-point    49 :       0.3333    0.0000    0.3333
  band No.  band energies     occupation 
      1     -32.3800      1.00000
      2     -32.3717      1.00000
      3     -32.3677      1.00000
      4     -32.3676      1.00000
      5     -13.9370      1.00000
      6     -13.9361      1.00000
      7     -13.8931      1.00000
      8     -13.8034      1.00000
      9     -13.7685      1.00000
     10     -13.7596      1.00000
     11     -13.7435      1.00000
     12     -13.7394      1.00000
     13     -13.7391      1.00000
     14     -13.7303      1.00000
     15     -13.7163      1.00000
     16     -13.6826      1.00000
     17      -7.2775      1.00000
     18      -6.9402      1.00000
     19      -6.5670      1.00000
     20      -6.2038      1.00000
     21      -6.0104      1.00000
     22      -5.9406      1.00000
     23      -5.8687      1.00000
     24      -5.8612      1.00000
     25      -1.5151      1.00000
     26      -1.0744      1.00000
     27      -0.9413      1.00000
     28      -0.7470      1.00000
     29       0.3414      1.00000
     30       0.4452      1.00000
     31       0.5785      1.00000
     32       0.8528      1.00000
     33       1.0094      1.00000
     34       1.2615      1.00000
     35       1.3226      1.00000
     36       1.4700      1.00000
     37       1.5562      1.00000
     38       1.9760      1.00000
     39       2.0611      1.00000
     40       2.1045      1.00000
     41       2.2732      1.00000
     42       2.2903      1.00000
     43       2.5900      1.00000
     44       2.6412      1.00000
     45       2.6761      1.00000
     46       2.7476      1.00000
     47       2.9471      1.00000
     48       3.1720      1.00000
     49       5.5366      0.00000
     50       5.5651      0.00000
     51       5.6983      0.00000
     52       6.5237      0.00000
     53       6.7248      0.00000
     54       6.8908      0.00000
     55       6.9452      0.00000
     56       7.0310      0.00000
     57       7.2991      0.00000
     58       7.3638      0.00000
     59       7.5997      0.00000
     60       7.8755      0.00000
     61       8.0176      0.00000
     62       8.1201      0.00000
     63       8.1805      0.00000
     64       8.3811      0.00000

 k-point    50 :       0.5000   -0.0000    0.3333
  band No.  band energies     occupation 
      1     -32.3800      1.00000
      2     -32.3717      1.00000
      3     -32.3677      1.00000
      4     -32.3676      1.00000
      5     -13.9367      1.00000
      6     -13.9360      1.00000
      7     -13.8928      1.00000
      8     -13.8042      1.00000
      9     -13.7685      1.00000
     10     -13.7600      1.00000
     11     -13.7435      1.00000
     12     -13.7396      1.00000
     13     -13.7393      1.00000
     14     -13.7302      1.00000
     15     -13.7163      1.00000
     16     -13.6826      1.00000
     17      -7.2250      1.00000
     18      -6.9488      1.00000
     19      -6.6183      1.00000
     20      -6.2586      1.00000
     21      -6.0766      1.00000
     22      -5.9105      1.00000
     23      -5.8179      1.00000
     24      -5.7997      1.00000
     25      -1.5891      1.00000
     26      -1.1699      1.00000
     27      -0.9062      1.00000
     28      -0.7611      1.00000
     29       0.3863      1.00000
     30       0.4087      1.00000
     31       0.6702      1.00000
     32       0.8058      1.00000
     33       1.0067      1.00000
     34       1.2126      1.00000
     35       1.3184      1.00000
     36       1.3614      1.00000
     37       1.7746      1.00000
     38       1.9489      1.00000
     39       1.9833      1.00000
     40       2.2312      1.00000
     41       2.3708      1.00000
     42       2.4268      1.00000
     43       2.6179      1.00000
     44       2.7233      1.00000
     45       2.7666      1.00000
     46       2.8028      1.00000
     47       3.0482      1.00000
     48       3.0572      1.00000
     49       5.5929      0.00000
     50       5.6064      0.00000
     51       5.8292      0.00000
     52       6.1496      0.00000
     53       6.4175      0.00000
     54       6.6650      0.00000
     55       6.7759      0.00000
     56       6.8608      0.00000
     57       7.0658      0.00000
     58       7.4480      0.00000
     59       7.6045      0.00000
     60       7.7006      0.00000
     61       8.0806      0.00000
     62       8.1341      0.00000
     63       8.2563      0.00000
     64       8.3482      0.00000

 k-point    51 :      -0.3333    0.0000    0.3333
  band No.  band energies     occupation 
      1     -32.3800      1.00000
      2     -32.3717      1.00000
      3     -32.3677      1.00000
      4     -32.3676      1.00000
      5     -13.9368      1.00000
      6     -13.9361      1.00000
      7     -13.8930      1.00000
      8     -13.8035      1.00000
      9     -13.7685      1.00000
     10     -13.7597      1.00000
     11     -13.7435      1.00000
     12     -13.7393      1.00000
     13     -13.7391      1.00000
     14     -13.7303      1.00000
     15     -13.7163      1.00000
     16     -13.6826      1.00000
     17      -7.3015      1.00000
     18      -6.9691      1.00000
     19      -6.5308      1.00000
     20      -6.2594      1.00000
     21      -6.0587      1.00000
     22      -5.8862      1.00000
     23      -5.8229      1.00000
     24      -5.7823      1.00000
     25      -1.6516      1.00000
     26      -1.1573      1.00000
     27      -0.8849      1.00000
     28      -0.7796      1.00000
     29       0.1120      1.00000
     30       0.2884      1.00000
     31       0.6325      1.00000
     32       0.8823      1.00000
     33       1.0295      1.00000
     34       1.3286      1.00000
     35       1.3312      1.00000
     36       1.5261      1.00000
     37       1.8200      1.00000
     38       1.8588      1.00000
     39       1.9547      1.00000
     40       2.2753      1.00000
     41       2.4063      1.00000
     42       2.4856      1.00000
     43       2.6922      1.00000
     44       2.7437      1.00000
     45       2.7530      1.00000
     46       2.7954      1.00000
     47       3.0030      1.00000
     48       3.0483      1.00000
     49       5.4582      0.00000
     50       5.4955      0.00000
     51       5.8792      0.00000
     52       6.3707      0.00000
     53       6.4727      0.00000
     54       6.7497      0.00000
     55       6.7600      0.00000
     56       6.8939      0.00000
     57       6.9463      0.00000
     58       7.4490      0.00000
     59       7.6454      0.00000
     60       7.7725      0.00000
     61       8.1756      0.00000
     62       8.1842      0.00000
     63       8.2315      0.00000
     64       8.3745      0.00000

 k-point    52 :      -0.1667    0.0000    0.3333
  band No.  band energies     occupation 
      1     -32.3800      1.00000
      2     -32.3717      1.00000
      3     -32.3677      1.00000
      4     -32.3676      1.00000
      5     -13.9371      1.00000
      6     -13.9363      1.00000
      7     -13.8934      1.00000
      8     -13.8022      1.00000
      9     -13.7686      1.00000
     10     -13.7592      1.00000
     11     -13.7435      1.00000
     12     -13.7390      1.00000
     13     -13.7387      1.00000
     14     -13.7304      1.00000
     15     -13.7164      1.00000
     16     -13.6827      1.00000
     17      -7.3988      1.00000
     18      -6.9811      1.00000
     19      -6.4289      1.00000
     20      -6.2041      1.00000
     21      -5.9510      1.00000
     22      -5.9185      1.00000
     23      -5.8954      1.00000
     24      -5.8014      1.00000
     25      -1.6364      1.00000
     26      -1.0598      1.00000
     27      -1.0074      1.00000
     28      -0.6459      1.00000
     29      -0.1435      1.00000
     30       0.2561      1.00000
     31       0.5014      1.00000
     32       1.0747      1.00000
     33       1.0857      1.00000
     34       1.2909      1.00000
     35       1.3166      1.00000
     36       1.5604      1.00000
     37       1.8092      1.00000
     38       1.8109      1.00000
     39       2.0277      1.00000
     40       2.2533      1.00000
     41       2.3628      1.00000
     42       2.3843      1.00000
     43       2.6235      1.00000
     44       2.6483      1.00000
     45       2.7599      1.00000
     46       2.7819      1.00000
     47       2.9547      1.00000
     48       2.9764      1.00000
     49       5.4348      0.00000
     50       5.4576      0.00000
     51       5.7711      0.00000
     52       6.4674      0.00000
     53       6.7672      0.00000
     54       6.8039      0.00000
     55       7.2247      0.00000
     56       7.3314      0.00000
     57       7.4451      0.00000
     58       7.6864      0.00000
     59       7.7224      0.00000
     60       8.0000      0.00000
     61       8.2119      0.00000
     62       8.2463      0.00000
     63       8.4145      0.00000
     64       8.4455      0.00000

 k-point    53 :      -0.0000    0.2000    0.3333
  band No.  band energies     occupation 
      1     -32.3792      1.00000
      2     -32.3720      1.00000
      3     -32.3688      1.00000
      4     -32.3671      1.00000
      5     -13.9324      1.00000
      6     -13.9135      1.00000
      7     -13.8922      1.00000
      8     -13.7968      1.00000
      9     -13.7776      1.00000
     10     -13.7616      1.00000
     11     -13.7543      1.00000
     12     -13.7462      1.00000
     13     -13.7391      1.00000
     14     -13.7333      1.00000
     15     -13.7143      1.00000
     16     -13.6871      1.00000
     17      -7.3883      1.00000
     18      -7.0047      1.00000
     19      -6.4125      1.00000
     20      -6.1684      1.00000
     21      -5.9930      1.00000
     22      -5.9245      1.00000
     23      -5.8601      1.00000
     24      -5.8504      1.00000
     25      -1.4902      1.00000
     26      -1.0582      1.00000
     27      -0.9122      1.00000
     28      -0.5834      1.00000
     29      -0.0542      1.00000
     30       0.3118      1.00000
     31       0.4242      1.00000
     32       0.8547      1.00000
     33       1.0784      1.00000
     34       1.2997      1.00000
     35       1.3981      1.00000
     36       1.5425      1.00000
     37       1.7719      1.00000
     38       1.8169      1.00000
     39       1.8502      1.00000
     40       2.1109      1.00000
     41       2.2134      1.00000
     42       2.2677      1.00000
     43       2.3754      1.00000
     44       2.5023      1.00000
     45       2.6832      1.00000
     46       2.7321      1.00000
     47       2.8651      1.00000
     48       3.2461      1.00000
     49       5.3922      0.00000
     50       5.8287      0.00000
     51       6.0477      0.00000
     52       6.5399      0.00000
     53       6.8558      0.00000
     54       7.1487      0.00000
     55       7.3955      0.00000
     56       7.6571      0.00000
     57       7.7212      0.00000
     58       7.8202      0.00000
     59       7.9405      0.00000
     60       8.1684      0.00000
     61       8.2639      0.00000
     62       8.3436      0.00000
     63       8.4260      0.00000
     64       8.5558      0.00000

 k-point    54 :       0.0000    0.2000   -0.3333
  band No.  band energies     occupation 
      1     -32.3792      1.00000
      2     -32.3720      1.00000
      3     -32.3688      1.00000
      4     -32.3671      1.00000
      5     -13.9324      1.00000
      6     -13.9135      1.00000
      7     -13.8922      1.00000
      8     -13.7968      1.00000
      9     -13.7776      1.00000
     10     -13.7616      1.00000
     11     -13.7543      1.00000
     12     -13.7462      1.00000
     13     -13.7391      1.00000
     14     -13.7333      1.00000
     15     -13.7143      1.00000
     16     -13.6871      1.00000
     17      -7.3883      1.00000
     18      -7.0047      1.00000
     19      -6.4125      1.00000
     20      -6.1684      1.00000
     21      -5.9930      1.00000
     22      -5.9245      1.00000
     23      -5.8601      1.00000
     24      -5.8504      1.00000
     25      -1.4902      1.00000
     26      -1.0582      1.00000
     27      -0.9122      1.00000
     28      -0.5834      1.00000
     29      -0.0542      1.00000
     30       0.3118      1.00000
     31       0.4242      1.00000
     32       0.8547      1.00000
     33       1.0784      1.00000
     34       1.2997      1.00000
     35       1.3981      1.00000
     36       1.5425      1.00000
     37       1.7719      1.00000
     38       1.8169      1.00000
     39       1.8502      1.00000
     40       2.1109      1.00000
     41       2.2134      1.00000
     42       2.2677      1.00000
     43       2.3754      1.00000
     44       2.5023      1.00000
     45       2.6832      1.00000
     46       2.7321      1.00000
     47       2.8651      1.00000
     48       3.2461      1.00000
     49       5.3922      0.00000
     50       5.8287      0.00000
     51       6.0477      0.00000
     52       6.5399      0.00000
     53       6.8558      0.00000
     54       7.1487      0.00000
     55       7.3955      0.00000
     56       7.6571      0.00000
     57       7.7212      0.00000
     58       7.8202      0.00000
     59       7.9405      0.00000
     60       8.1684      0.00000
     61       8.2639      0.00000
     62       8.3436      0.00000
     63       8.4260      0.00000
     64       8.5675      0.00000

 k-point    55 :       0.1667    0.2000    0.3333
  band No.  band energies     occupation 
      1     -32.3792      1.00000
      2     -32.3720      1.00000
      3     -32.3688      1.00000
      4     -32.3671      1.00000
      5     -13.9323      1.00000
      6     -13.9135      1.00000
      7     -13.8921      1.00000
      8     -13.7975      1.00000
      9     -13.7776      1.00000
     10     -13.7617      1.00000
     11     -13.7545      1.00000
     12     -13.7465      1.00000
     13     -13.7391      1.00000
     14     -13.7334      1.00000
     15     -13.7143      1.00000
     16     -13.6871      1.00000
     17      -7.3400      1.00000
     18      -6.9843      1.00000
     19      -6.4431      1.00000
     20      -6.1921      1.00000
     21      -6.0039      1.00000
     22      -5.9412      1.00000
     23      -5.8924      1.00000
     24      -5.8495      1.00000
     25      -1.4502      1.00000
     26      -1.0691      1.00000
     27      -0.8720      1.00000
     28      -0.6072      1.00000
     29       0.1675      1.00000
     30       0.3303      1.00000
     31       0.4803      1.00000
     32       0.8478      1.00000
     33       1.0748      1.00000
     34       1.2448      1.00000
     35       1.3471      1.00000
     36       1.4661      1.00000
     37       1.6978      1.00000
     38       1.8427      1.00000
     39       1.9600      1.00000
     40       2.1019      1.00000
     41       2.1389      1.00000
     42       2.2614      1.00000
     43       2.3626      1.00000
     44       2.5531      1.00000
     45       2.6425      1.00000
     46       2.7055      1.00000
     47       2.8811      1.00000
     48       3.1467      1.00000
     49       5.4039      0.00000
     50       5.8159      0.00000
     51       6.0252      0.00000
     52       6.6922      0.00000
     53       6.7583      0.00000
     54       6.9247      0.00000
     55       7.1144      0.00000
     56       7.4275      0.00000
     57       7.6430      0.00000
     58       7.7439      0.00000
     59       7.9646      0.00000
     60       8.1648      0.00000
     61       8.2235      0.00000
     62       8.4803      0.00000
     63       8.5134      0.00000
     64       8.5449      0.00000

 k-point    56 :      -0.1667    0.2000   -0.3333
  band No.  band energies     occupation 
      1     -32.3792      1.00000
      2     -32.3720      1.00000
      3     -32.3688      1.00000
      4     -32.3671      1.00000
      5     -13.9323      1.00000
      6     -13.9135      1.00000
      7     -13.8921      1.00000
      8     -13.7975      1.00000
      9     -13.7776      1.00000
     10     -13.7617      1.00000
     11     -13.7545      1.00000
     12     -13.7465      1.00000
     13     -13.7390      1.00000
     14     -13.7334      1.00000
     15     -13.7143      1.00000
     16     -13.6871      1.00000
     17      -7.3400      1.00000
     18      -6.9843      1.00000
     19      -6.4431      1.00000
     20      -6.1921      1.00000
     21      -6.0039      1.00000
     22      -5.9412      1.00000
     23      -5.8924      1.00000
     24      -5.8495      1.00000
     25      -1.4502      1.00000
     26      -1.0691      1.00000
     27      -0.8720      1.00000
     28      -0.6072      1.00000
     29       0.1675      1.00000
     30       0.3303      1.00000
     31       0.4803      1.00000
     32       0.8478      1.00000
     33       1.0748      1.00000
     34       1.2448      1.00000
     35       1.3471      1.00000
     36       1.4661      1.00000
     37       1.6978      1.00000
     38       1.8427      1.00000
     39       1.9600      1.00000
     40       2.1019      1.00000
     41       2.1389      1.00000
     42       2.2614      1.00000
     43       2.3626      1.00000
     44       2.5531      1.00000
     45       2.6425      1.00000
     46       2.7055      1.00000
     47       2.8811      1.00000
     48       3.1467      1.00000
     49       5.4039      0.00000
     50       5.8159      0.00000
     51       6.0252      0.00000
     52       6.6922      0.00000
     53       6.7583      0.00000
     54       6.9247      0.00000
     55       7.1144      0.00000
     56       7.4275      0.00000
     57       7.6430      0.00000
     58       7.7439      0.00000
     59       7.9646      0.00000
     60       8.1648      0.00000
     61       8.2235      0.00000
     62       8.4796      0.00000
     63       8.5115      0.00000
     64       8.5452      0.00000

 k-point    57 :       0.3333    0.2000    0.3333
  band No.  band energies     occupation 
      1     -32.3792      1.00000
      2     -32.3720      1.00000
      3     -32.3688      1.00000
      4     -32.3671      1.00000
      5     -13.9320      1.00000
      6     -13.9132      1.00000
      7     -13.8917      1.00000
      8     -13.7987      1.00000
      9     -13.7775      1.00000
     10     -13.7619      1.00000
     11     -13.7548      1.00000
     12     -13.7471      1.00000
     13     -13.7391      1.00000
     14     -13.7337      1.00000
     15     -13.7142      1.00000
     16     -13.6871      1.00000
     17      -7.2464      1.00000
     18      -6.9757      1.00000
     19      -6.5282      1.00000
     20      -6.2254      1.00000
     21      -6.0135      1.00000
     22      -5.9677      1.00000
     23      -5.9119      1.00000
     24      -5.8146      1.00000
     25      -1.4592      1.00000
     26      -1.1654      1.00000
     27      -0.7929      1.00000
     28      -0.6748      1.00000
     29       0.3679      1.00000
     30       0.4860      1.00000
     31       0.5439      1.00000
     32       0.8564      1.00000
     33       0.9279      1.00000
     34       1.2363      1.00000
     35       1.3160      1.00000
     36       1.4029      1.00000
     37       1.6693      1.00000
     38       1.8952      1.00000
     39       1.9805      1.00000
     40       2.1158      1.00000
     41       2.2235      1.00000
     42       2.3018      1.00000
     43       2.5541      1.00000
     44       2.5832      1.00000
     45       2.6913      1.00000
     46       2.7429      1.00000
     47       2.8181      1.00000
     48       3.0369      1.00000
     49       5.4941      0.00000
     50       5.7874      0.00000
     51       5.9724      0.00000
     52       6.6308      0.00000
     53       6.7378      0.00000
     54       6.8323      0.00000
     55       6.9810      0.00000
     56       7.0587      0.00000
     57       7.1756      0.00000
     58       7.4714      0.00000
     59       7.7255      0.00000
     60       7.7661      0.00000
     61       8.1411      0.00000
     62       8.3814      0.00000
     63       8.4446      0.00000
     64       8.5136      0.00000

 k-point    58 :      -0.3333    0.2000   -0.3333
  band No.  band energies     occupation 
      1     -32.3792      1.00000
      2     -32.3720      1.00000
      3     -32.3688      1.00000
      4     -32.3671      1.00000
      5     -13.9320      1.00000
      6     -13.9132      1.00000
      7     -13.8917      1.00000
      8     -13.7987      1.00000
      9     -13.7775      1.00000
     10     -13.7619      1.00000
     11     -13.7548      1.00000
     12     -13.7471      1.00000
     13     -13.7391      1.00000
     14     -13.7337      1.00000
     15     -13.7142      1.00000
     16     -13.6871      1.00000
     17      -7.2464      1.00000
     18      -6.9757      1.00000
     19      -6.5282      1.00000
     20      -6.2254      1.00000
     21      -6.0135      1.00000
     22      -5.9677      1.00000
     23      -5.9119      1.00000
     24      -5.8146      1.00000
     25      -1.4592      1.00000
     26      -1.1654      1.00000
     27      -0.7929      1.00000
     28      -0.6748      1.00000
     29       0.3679      1.00000
     30       0.4860      1.00000
     31       0.5439      1.00000
     32       0.8564      1.00000
     33       0.9279      1.00000
     34       1.2363      1.00000
     35       1.3160      1.00000
     36       1.4029      1.00000
     37       1.6693      1.00000
     38       1.8952      1.00000
     39       1.9805      1.00000
     40       2.1158      1.00000
     41       2.2235      1.00000
     42       2.3018      1.00000
     43       2.5541      1.00000
     44       2.5832      1.00000
     45       2.6913      1.00000
     46       2.7429      1.00000
     47       2.8181      1.00000
     48       3.0369      1.00000
     49       5.4941      0.00000
     50       5.7874      0.00000
     51       5.9724      0.00000
     52       6.6308      0.00000
     53       6.7378      0.00000
     54       6.8323      0.00000
     55       6.9810      0.00000
     56       7.0587      0.00000
     57       7.1756      0.00000
     58       7.4714      0.00000
     59       7.7255      0.00000
     60       7.7661      0.00000
     61       8.1411      0.00000
     62       8.3804      0.00000
     63       8.4438      0.00000
     64       8.5147      0.00000

 k-point    59 :       0.5000    0.2000    0.3333
  band No.  band energies     occupation 
      1     -32.3792      1.00000
      2     -32.3720      1.00000
      3     -32.3688      1.00000
      4     -32.3671      1.00000
      5     -13.9319      1.00000
      6     -13.9130      1.00000
      7     -13.8915      1.00000
      8     -13.7994      1.00000
      9     -13.7775      1.00000
     10     -13.7619      1.00000
     11     -13.7550      1.00000
     12     -13.7474      1.00000
     13     -13.7392      1.00000
     14     -13.7338      1.00000
     15     -13.7142      1.00000
     16     -13.6871      1.00000
     17      -7.2045      1.00000
     18      -6.9890      1.00000
     19      -6.5539      1.00000
     20      -6.2587      1.00000
     21      -6.0787      1.00000
     22      -5.9046      1.00000
     23      -5.8785      1.00000
     24      -5.8076      1.00000
     25      -1.5194      1.00000
     26      -1.2124      1.00000
     27      -0.8005      1.00000
     28      -0.7135      1.00000
     29       0.3994      1.00000
     30       0.4448      1.00000
     31       0.6757      1.00000
     32       0.7741      1.00000
     33       0.9972      1.00000
     34       1.1578      1.00000
     35       1.2990      1.00000
     36       1.4027      1.00000
     37       1.7991      1.00000
     38       1.9116      1.00000
     39       1.9845      1.00000
     40       2.1798      1.00000
     41       2.2336      1.00000
     42       2.3223      1.00000
     43       2.5548      1.00000
     44       2.7506      1.00000
     45       2.7616      1.00000
     46       2.8064      1.00000
     47       2.8645      1.00000
     48       3.0211      1.00000
     49       5.6217      0.00000
     50       5.7517      0.00000
     51       6.0530      0.00000
     52       6.2992      0.00000
     53       6.6013      0.00000
     54       6.7337      0.00000
     55       6.8267      0.00000
     56       6.8626      0.00000
     57       7.0632      0.00000
     58       7.4565      0.00000
     59       7.5776      0.00000
     60       7.7669      0.00000
     61       7.8742      0.00000
     62       8.2287      0.00000
     63       8.2688      0.00000
     64       8.4913      0.00000

 k-point    60 :       0.5000    0.2000   -0.3333
  band No.  band energies     occupation 
      1     -32.3792      1.00000
      2     -32.3720      1.00000
      3     -32.3688      1.00000
      4     -32.3671      1.00000
      5     -13.9319      1.00000
      6     -13.9130      1.00000
      7     -13.8915      1.00000
      8     -13.7994      1.00000
      9     -13.7775      1.00000
     10     -13.7619      1.00000
     11     -13.7550      1.00000
     12     -13.7474      1.00000
     13     -13.7392      1.00000
     14     -13.7338      1.00000
     15     -13.7142      1.00000
     16     -13.6871      1.00000
     17      -7.2045      1.00000
     18      -6.9890      1.00000
     19      -6.5539      1.00000
     20      -6.2587      1.00000
     21      -6.0787      1.00000
     22      -5.9046      1.00000
     23      -5.8785      1.00000
     24      -5.8076      1.00000
     25      -1.5194      1.00000
     26      -1.2124      1.00000
     27      -0.8005      1.00000
     28      -0.7135      1.00000
     29       0.3994      1.00000
     30       0.4448      1.00000
     31       0.6757      1.00000
     32       0.7741      1.00000
     33       0.9972      1.00000
     34       1.1578      1.00000
     35       1.2990      1.00000
     36       1.4027      1.00000
     37       1.7991      1.00000
     38       1.9116      1.00000
     39       1.9845      1.00000
     40       2.1798      1.00000
     41       2.2336      1.00000
     42       2.3223      1.00000
     43       2.5548      1.00000
     44       2.7506      1.00000
     45       2.7616      1.00000
     46       2.8064      1.00000
     47       2.8645      1.00000
     48       3.0211      1.00000
     49       5.6217      0.00000
     50       5.7517      0.00000
     51       6.0530      0.00000
     52       6.2992      0.00000
     53       6.6013      0.00000
     54       6.7337      0.00000
     55       6.8267      0.00000
     56       6.8626      0.00000
     57       7.0632      0.00000
     58       7.4565      0.00000
     59       7.5776      0.00000
     60       7.7669      0.00000
     61       7.8742      0.00000
     62       8.2287      0.00000
     63       8.2690      0.00000
     64       8.4956      0.00000

 k-point    61 :      -0.3333    0.2000    0.3333
  band No.  band energies     occupation 
      1     -32.3792      1.00000
      2     -32.3720      1.00000
      3     -32.3688      1.00000
      4     -32.3671      1.00000
      5     -13.9320      1.00000
      6     -13.9131      1.00000
      7     -13.8916      1.00000
      8     -13.7988      1.00000
      9     -13.7776      1.00000
     10     -13.7618      1.00000
     11     -13.7548      1.00000
     12     -13.7471      1.00000
     13     -13.7392      1.00000
     14     -13.7336      1.00000
     15     -13.7142      1.00000
     16     -13.6871      1.00000
     17      -7.2740      1.00000
     18      -7.0057      1.00000
     19      -6.4960      1.00000
     20      -6.2423      1.00000
     21      -6.0590      1.00000
     22      -5.8932      1.00000
     23      -5.8490      1.00000
     24      -5.8126      1.00000
     25      -1.5700      1.00000
     26      -1.1729      1.00000
     27      -0.8206      1.00000
     28      -0.7348      1.00000
     29       0.1512      1.00000
     30       0.3333      1.00000
     31       0.6593      1.00000
     32       0.8398      1.00000
     33       0.9980      1.00000
     34       1.2766      1.00000
     35       1.2968      1.00000
     36       1.5099      1.00000
     37       1.7611      1.00000
     38       1.8355      1.00000
     39       1.9210      1.00000
     40       2.1430      1.00000
     41       2.2885      1.00000
     42       2.5283      1.00000
     43       2.6007      1.00000
     44       2.6777      1.00000
     45       2.8269      1.00000
     46       2.8460      1.00000
     47       2.9265      1.00000
     48       3.0051      1.00000
     49       5.4950      0.00000
     50       5.7408      0.00000
     51       6.0708      0.00000
     52       6.4982      0.00000
     53       6.5997      0.00000
     54       6.7432      0.00000
     55       6.8752      0.00000
     56       6.9711      0.00000
     57       7.0717      0.00000
     58       7.4238      0.00000
     59       7.6163      0.00000
     60       7.7873      0.00000
     61       8.1290      0.00000
     62       8.2113      0.00000
     63       8.2602      0.00000
     64       8.3742      0.00000

 k-point    62 :       0.3333    0.2000   -0.3333
  band No.  band energies     occupation 
      1     -32.3792      1.00000
      2     -32.3720      1.00000
      3     -32.3688      1.00000
      4     -32.3671      1.00000
      5     -13.9320      1.00000
      6     -13.9131      1.00000
      7     -13.8916      1.00000
      8     -13.7988      1.00000
      9     -13.7776      1.00000
     10     -13.7618      1.00000
     11     -13.7548      1.00000
     12     -13.7471      1.00000
     13     -13.7392      1.00000
     14     -13.7336      1.00000
     15     -13.7142      1.00000
     16     -13.6871      1.00000
     17      -7.2740      1.00000
     18      -7.0057      1.00000
     19      -6.4960      1.00000
     20      -6.2423      1.00000
     21      -6.0590      1.00000
     22      -5.8932      1.00000
     23      -5.8490      1.00000
     24      -5.8126      1.00000
     25      -1.5700      1.00000
     26      -1.1729      1.00000
     27      -0.8206      1.00000
     28      -0.7348      1.00000
     29       0.1512      1.00000
     30       0.3333      1.00000
     31       0.6593      1.00000
     32       0.8398      1.00000
     33       0.9980      1.00000
     34       1.2766      1.00000
     35       1.2968      1.00000
     36       1.5099      1.00000
     37       1.7611      1.00000
     38       1.8355      1.00000
     39       1.9210      1.00000
     40       2.1430      1.00000
     41       2.2885      1.00000
     42       2.5283      1.00000
     43       2.6007      1.00000
     44       2.6777      1.00000
     45       2.8269      1.00000
     46       2.8460      1.00000
     47       2.9265      1.00000
     48       3.0051      1.00000
     49       5.4950      0.00000
     50       5.7408      0.00000
     51       6.0708      0.00000
     52       6.4982      0.00000
     53       6.5997      0.00000
     54       6.7432      0.00000
     55       6.8752      0.00000
     56       6.9711      0.00000
     57       7.0717      0.00000
     58       7.4238      0.00000
     59       7.6163      0.00000
     60       7.7873      0.00000
     61       8.1291      0.00000
     62       8.2113      0.00000
     63       8.2602      0.00000
     64       8.3780      0.00000

 k-point    63 :      -0.1667    0.2000    0.3333
  band No.  band energies     occupation 
      1     -32.3792      1.00000
      2     -32.3720      1.00000
      3     -32.3688      1.00000
      4     -32.3671      1.00000
      5     -13.9323      1.00000
      6     -13.9133      1.00000
      7     -13.8920      1.00000
      8     -13.7975      1.00000
      9     -13.7776      1.00000
     10     -13.7616      1.00000
     11     -13.7545      1.00000
     12     -13.7465      1.00000
     13     -13.7391      1.00000
     14     -13.7334      1.00000
     15     -13.7142      1.00000
     16     -13.6871      1.00000
     17      -7.3602      1.00000
     18      -7.0142      1.00000
     19      -6.4443      1.00000
     20      -6.1830      1.00000
     21      -5.9903      1.00000
     22      -5.9234      1.00000
     23      -5.8663      1.00000
     24      -5.8134      1.00000
     25      -1.5517      1.00000
     26      -1.0949      1.00000
     27      -0.9068      1.00000
     28      -0.6283      1.00000
     29      -0.0975      1.00000
     30       0.3121      1.00000
     31       0.5355      1.00000
     32       0.8538      1.00000
     33       1.0630      1.00000
     34       1.2760      1.00000
     35       1.3447      1.00000
     36       1.6174      1.00000
     37       1.7513      1.00000
     38       1.7986      1.00000
     39       1.8797      1.00000
     40       2.0831      1.00000
     41       2.2997      1.00000
     42       2.4500      1.00000
     43       2.4856      1.00000
     44       2.5786      1.00000
     45       2.7621      1.00000
     46       2.8247      1.00000
     47       2.9380      1.00000
     48       3.1022      1.00000
     49       5.4158      0.00000
     50       5.8013      0.00000
     51       6.0279      0.00000
     52       6.5680      0.00000
     53       6.8000      0.00000
     54       6.9325      0.00000
     55       7.1136      0.00000
     56       7.3924      0.00000
     57       7.5503      0.00000
     58       7.6603      0.00000
     59       7.7788      0.00000
     60       8.0220      0.00000
     61       8.1007      0.00000
     62       8.2312      0.00000
     63       8.3129      0.00000
     64       8.4129      0.00000

 k-point    64 :       0.1667    0.2000   -0.3333
  band No.  band energies     occupation 
      1     -32.3792      1.00000
      2     -32.3720      1.00000
      3     -32.3688      1.00000
      4     -32.3671      1.00000
      5     -13.9323      1.00000
      6     -13.9133      1.00000
      7     -13.8920      1.00000
      8     -13.7975      1.00000
      9     -13.7776      1.00000
     10     -13.7616      1.00000
     11     -13.7545      1.00000
     12     -13.7465      1.00000
     13     -13.7391      1.00000
     14     -13.7334      1.00000
     15     -13.7143      1.00000
     16     -13.6871      1.00000
     17      -7.3602      1.00000
     18      -7.0142      1.00000
     19      -6.4443      1.00000
     20      -6.1830      1.00000
     21      -5.9903      1.00000
     22      -5.9234      1.00000
     23      -5.8663      1.00000
     24      -5.8134      1.00000
     25      -1.5517      1.00000
     26      -1.0949      1.00000
     27      -0.9068      1.00000
     28      -0.6283      1.00000
     29      -0.0975      1.00000
     30       0.3121      1.00000
     31       0.5355      1.00000
     32       0.8538      1.00000
     33       1.0630      1.00000
     34       1.2760      1.00000
     35       1.3447      1.00000
     36       1.6174      1.00000
     37       1.7513      1.00000
     38       1.7986      1.00000
     39       1.8797      1.00000
     40       2.0831      1.00000
     41       2.2997      1.00000
     42       2.4500      1.00000
     43       2.4856      1.00000
     44       2.5786      1.00000
     45       2.7621      1.00000
     46       2.8247      1.00000
     47       2.9380      1.00000
     48       3.1022      1.00000
     49       5.4158      0.00000
     50       5.8013      0.00000
     51       6.0279      0.00000
     52       6.5680      0.00000
     53       6.8000      0.00000
     54       6.9325      0.00000
     55       7.1136      0.00000
     56       7.3924      0.00000
     57       7.5503      0.00000
     58       7.6603      0.00000
     59       7.7788      0.00000
     60       8.0220      0.00000
     61       8.1007      0.00000
     62       8.2310      0.00000
     63       8.3128      0.00000
     64       8.4099      0.00000

 k-point    65 :      -0.0000    0.4000    0.3333
  band No.  band energies     occupation 
      1     -32.3768      1.00000
      2     -32.3739      1.00000
      3     -32.3687      1.00000
      4     -32.3677      1.00000
      5     -13.9107      1.00000
      6     -13.8944      1.00000
      7     -13.8662      1.00000
      8     -13.8125      1.00000
      9     -13.7840      1.00000
     10     -13.7733      1.00000
     11     -13.7677      1.00000
     12     -13.7610      1.00000
     13     -13.7439      1.00000
     14     -13.7375      1.00000
     15     -13.7050      1.00000
     16     -13.6956      1.00000
     17      -7.2680      1.00000
     18      -7.1154      1.00000
     19      -6.4021      1.00000
     20      -6.2996      1.00000
     21      -5.9296      1.00000
     22      -5.8982      1.00000
     23      -5.8548      1.00000
     24      -5.8517      1.00000
     25      -1.3026      1.00000
     26      -1.1256      1.00000
     27      -0.7488      1.00000
     28      -0.5704      1.00000
     29       0.0207      1.00000
     30       0.2683      1.00000
     31       0.5709      1.00000
     32       0.6908      1.00000
     33       0.9506      1.00000
     34       1.1025      1.00000
     35       1.4283      1.00000
     36       1.5345      1.00000
     37       1.6264      1.00000
     38       1.7866      1.00000
     39       1.8584      1.00000
     40       1.9093      1.00000
     41       2.1892      1.00000
     42       2.2310      1.00000
     43       2.4091      1.00000
     44       2.5827      1.00000
     45       2.6301      1.00000
     46       2.7899      1.00000
     47       2.8474      1.00000
     48       3.0862      1.00000
     49       5.6307      0.00000
     50       6.1153      0.00000
     51       6.3882      0.00000
     52       6.7867      0.00000
     53       6.9033      0.00000
     54       7.1683      0.00000
     55       7.4333      0.00000
     56       7.6103      0.00000
     57       7.7628      0.00000
     58       7.8275      0.00000
     59       7.9370      0.00000
     60       8.0428      0.00000
     61       8.1827      0.00000
     62       8.3266      0.00000
     63       8.3884      0.00000
     64       8.5696      0.00000

 k-point    66 :       0.0000    0.4000   -0.3333
  band No.  band energies     occupation 
      1     -32.3768      1.00000
      2     -32.3739      1.00000
      3     -32.3687      1.00000
      4     -32.3677      1.00000
      5     -13.9107      1.00000
      6     -13.8944      1.00000
      7     -13.8662      1.00000
      8     -13.8125      1.00000
      9     -13.7840      1.00000
     10     -13.7733      1.00000
     11     -13.7677      1.00000
     12     -13.7610      1.00000
     13     -13.7439      1.00000
     14     -13.7375      1.00000
     15     -13.7050      1.00000
     16     -13.6956      1.00000
     17      -7.2680      1.00000
     18      -7.1154      1.00000
     19      -6.4021      1.00000
     20      -6.2996      1.00000
     21      -5.9296      1.00000
     22      -5.8982      1.00000
     23      -5.8548      1.00000
     24      -5.8517      1.00000
     25      -1.3026      1.00000
     26      -1.1256      1.00000
     27      -0.7488      1.00000
     28      -0.5704      1.00000
     29       0.0207      1.00000
     30       0.2683      1.00000
     31       0.5709      1.00000
     32       0.6908      1.00000
     33       0.9506      1.00000
     34       1.1025      1.00000
     35       1.4283      1.00000
     36       1.5345      1.00000
     37       1.6264      1.00000
     38       1.7866      1.00000
     39       1.8584      1.00000
     40       1.9093      1.00000
     41       2.1892      1.00000
     42       2.2310      1.00000
     43       2.4091      1.00000
     44       2.5827      1.00000
     45       2.6301      1.00000
     46       2.7899      1.00000
     47       2.8474      1.00000
     48       3.0862      1.00000
     49       5.6307      0.00000
     50       6.1153      0.00000
     51       6.3882      0.00000
     52       6.7867      0.00000
     53       6.9033      0.00000
     54       7.1683      0.00000
     55       7.4333      0.00000
     56       7.6103      0.00000
     57       7.7628      0.00000
     58       7.8275      0.00000
     59       7.9370      0.00000
     60       8.0428      0.00000
     61       8.1827      0.00000
     62       8.3262      0.00000
     63       8.3870      0.00000
     64       8.5655      0.00000

 k-point    67 :       0.1667    0.4000    0.3333
  band No.  band energies     occupation 
      1     -32.3768      1.00000
      2     -32.3739      1.00000
      3     -32.3687      1.00000
      4     -32.3677      1.00000
      5     -13.9106      1.00000
      6     -13.8943      1.00000
      7     -13.8662      1.00000
      8     -13.8126      1.00000
      9     -13.7842      1.00000
     10     -13.7734      1.00000
     11     -13.7678      1.00000
     12     -13.7612      1.00000
     13     -13.7441      1.00000
     14     -13.7377      1.00000
     15     -13.7050      1.00000
     16     -13.6956      1.00000
     17      -7.2270      1.00000
     18      -7.0867      1.00000
     19      -6.4152      1.00000
     20      -6.3215      1.00000
     21      -5.9656      1.00000
     22      -5.9413      1.00000
     23      -5.8670      1.00000
     24      -5.8385      1.00000
     25      -1.3022      1.00000
     26      -1.1576      1.00000
     27      -0.6873      1.00000
     28      -0.5289      1.00000
     29       0.1752      1.00000
     30       0.2929      1.00000
     31       0.6342      1.00000
     32       0.7348      1.00000
     33       0.9478      1.00000
     34       1.0227      1.00000
     35       1.3748      1.00000
     36       1.5030      1.00000
     37       1.6896      1.00000
     38       1.8124      1.00000
     39       1.8926      1.00000
     40       1.9133      1.00000
     41       2.2481      1.00000
     42       2.2993      1.00000
     43       2.3630      1.00000
     44       2.5071      1.00000
     45       2.5825      1.00000
     46       2.6578      1.00000
     47       2.8159      1.00000
     48       2.9416      1.00000
     49       5.6141      0.00000
     50       6.0978      0.00000
     51       6.2558      0.00000
     52       6.5657      0.00000
     53       6.9489      0.00000
     54       7.0104      0.00000
     55       7.2143      0.00000
     56       7.4864      0.00000
     57       7.5332      0.00000
     58       7.7722      0.00000
     59       8.2464      0.00000
     60       8.3136      0.00000
     61       8.4164      0.00000
     62       8.4346      0.00000
     63       8.5372      0.00000
     64       8.7310      0.00000

 k-point    68 :      -0.1667    0.4000   -0.3333
  band No.  band energies     occupation 
      1     -32.3768      1.00000
      2     -32.3739      1.00000
      3     -32.3687      1.00000
      4     -32.3677      1.00000
      5     -13.9106      1.00000
      6     -13.8943      1.00000
      7     -13.8662      1.00000
      8     -13.8126      1.00000
      9     -13.7842      1.00000
     10     -13.7734      1.00000
     11     -13.7678      1.00000
     12     -13.7612      1.00000
     13     -13.7441      1.00000
     14     -13.7377      1.00000
     15     -13.7050      1.00000
     16     -13.6956      1.00000
     17      -7.2270      1.00000
     18      -7.0867      1.00000
     19      -6.4152      1.00000
     20      -6.3215      1.00000
     21      -5.9656      1.00000
     22      -5.9413      1.00000
     23      -5.8670      1.00000
     24      -5.8385      1.00000
     25      -1.3022      1.00000
     26      -1.1576      1.00000
     27      -0.6873      1.00000
     28      -0.5289      1.00000
     29       0.1752      1.00000
     30       0.2929      1.00000
     31       0.6342      1.00000
     32       0.7348      1.00000
     33       0.9478      1.00000
     34       1.0227      1.00000
     35       1.3748      1.00000
     36       1.5030      1.00000
     37       1.6896      1.00000
     38       1.8124      1.00000
     39       1.8926      1.00000
     40       1.9133      1.00000
     41       2.2481      1.00000
     42       2.2993      1.00000
     43       2.3630      1.00000
     44       2.5071      1.00000
     45       2.5825      1.00000
     46       2.6578      1.00000
     47       2.8159      1.00000
     48       2.9416      1.00000
     49       5.6141      0.00000
     50       6.0978      0.00000
     51       6.2558      0.00000
     52       6.5657      0.00000
     53       6.9489      0.00000
     54       7.0104      0.00000
     55       7.2143      0.00000
     56       7.4864      0.00000
     57       7.5332      0.00000
     58       7.7722      0.00000
     59       8.2464      0.00000
     60       8.3136      0.00000
     61       8.4164      0.00000
     62       8.4346      0.00000
     63       8.5371      0.00000
     64       8.7418      0.00000

 k-point    69 :       0.3333    0.4000    0.3333
  band No.  band energies     occupation 
      1     -32.3768      1.00000
      2     -32.3739      1.00000
      3     -32.3687      1.00000
      4     -32.3677      1.00000
      5     -13.9103      1.00000
      6     -13.8940      1.00000
      7     -13.8660      1.00000
      8     -13.8125      1.00000
      9     -13.7850      1.00000
     10     -13.7736      1.00000
     11     -13.7682      1.00000
     12     -13.7616      1.00000
     13     -13.7446      1.00000
     14     -13.7381      1.00000
     15     -13.7050      1.00000
     16     -13.6956      1.00000
     17      -7.1647      1.00000
     18      -7.0622      1.00000
     19      -6.4316      1.00000
     20      -6.3124      1.00000
     21      -6.0178      1.00000
     22      -6.0087      1.00000
     23      -5.8802      1.00000
     24      -5.8287      1.00000
     25      -1.3369      1.00000
     26      -1.2364      1.00000
     27      -0.6440      1.00000
     28      -0.5715      1.00000
     29       0.4109      1.00000
     30       0.4991      1.00000
     31       0.6669      1.00000
     32       0.7266      1.00000
     33       0.9538      1.00000
     34       0.9707      1.00000
     35       1.2699      1.00000
     36       1.4934      1.00000
     37       1.7753      1.00000
     38       1.8647      1.00000
     39       1.9150      1.00000
     40       1.9657      1.00000
     41       2.2258      1.00000
     42       2.2916      1.00000
     43       2.3596      1.00000
     44       2.4659      1.00000
     45       2.5968      1.00000
     46       2.6660      1.00000
     47       2.8551      1.00000
     48       2.9357      1.00000
     49       5.6758      0.00000
     50       6.0663      0.00000
     51       6.1429      0.00000
     52       6.2890      0.00000
     53       6.8444      0.00000
     54       6.9748      0.00000
     55       7.0336      0.00000
     56       7.1445      0.00000
     57       7.3069      0.00000
     58       7.5148      0.00000
     59       7.9748      0.00000
     60       8.1918      0.00000
     61       8.3776      0.00000
     62       8.4514      0.00000
     63       8.5997      0.00000
     64       8.7395      0.00000

 k-point    70 :      -0.3333    0.4000   -0.3333
  band No.  band energies     occupation 
      1     -32.3768      1.00000
      2     -32.3739      1.00000
      3     -32.3687      1.00000
      4     -32.3677      1.00000
      5     -13.9103      1.00000
      6     -13.8940      1.00000
      7     -13.8660      1.00000
      8     -13.8125      1.00000
      9     -13.7850      1.00000
     10     -13.7736      1.00000
     11     -13.7682      1.00000
     12     -13.7616      1.00000
     13     -13.7446      1.00000
     14     -13.7381      1.00000
     15     -13.7050      1.00000
     16     -13.6956      1.00000
     17      -7.1647      1.00000
     18      -7.0622      1.00000
     19      -6.4316      1.00000
     20      -6.3124      1.00000
     21      -6.0178      1.00000
     22      -6.0087      1.00000
     23      -5.8802      1.00000
     24      -5.8287      1.00000
     25      -1.3369      1.00000
     26      -1.2364      1.00000
     27      -0.6440      1.00000
     28      -0.5715      1.00000
     29       0.4109      1.00000
     30       0.4991      1.00000
     31       0.6669      1.00000
     32       0.7266      1.00000
     33       0.9538      1.00000
     34       0.9707      1.00000
     35       1.2699      1.00000
     36       1.4934      1.00000
     37       1.7753      1.00000
     38       1.8647      1.00000
     39       1.9150      1.00000
     40       1.9657      1.00000
     41       2.2258      1.00000
     42       2.2916      1.00000
     43       2.3596      1.00000
     44       2.4659      1.00000
     45       2.5968      1.00000
     46       2.6660      1.00000
     47       2.8551      1.00000
     48       2.9357      1.00000
     49       5.6758      0.00000
     50       6.0663      0.00000
     51       6.1429      0.00000
     52       6.2890      0.00000
     53       6.8444      0.00000
     54       6.9748      0.00000
     55       7.0336      0.00000
     56       7.1445      0.00000
     57       7.3069      0.00000
     58       7.5148      0.00000
     59       7.9748      0.00000
     60       8.1918      0.00000
     61       8.3776      0.00000
     62       8.4514      0.00000
     63       8.6003      0.00000
     64       8.7364      0.00000

 k-point    71 :       0.5000    0.4000    0.3333
  band No.  band energies     occupation 
      1     -32.3768      1.00000
      2     -32.3739      1.00000
      3     -32.3687      1.00000
      4     -32.3677      1.00000
      5     -13.9101      1.00000
      6     -13.8938      1.00000
      7     -13.8657      1.00000
      8     -13.8123      1.00000
      9     -13.7856      1.00000
     10     -13.7737      1.00000
     11     -13.7684      1.00000
     12     -13.7617      1.00000
     13     -13.7448      1.00000
     14     -13.7383      1.00000
     15     -13.7050      1.00000
     16     -13.6956      1.00000
     17      -7.1478      1.00000
     18      -7.0688      1.00000
     19      -6.4165      1.00000
     20      -6.2960      1.00000
     21      -6.0618      1.00000
     22      -5.9873      1.00000
     23      -5.8823      1.00000
     24      -5.8470      1.00000
     25      -1.3737      1.00000
     26      -1.2686      1.00000
     27      -0.6669      1.00000
     28      -0.6364      1.00000
     29       0.4323      1.00000
     30       0.5252      1.00000
     31       0.6355      1.00000
     32       0.8315      1.00000
     33       0.8822      1.00000
     34       1.0789      1.00000
     35       1.2675      1.00000
     36       1.5377      1.00000
     37       1.7534      1.00000
     38       1.8412      1.00000
     39       1.9637      1.00000
     40       2.0090      1.00000
     41       2.1694      1.00000
     42       2.2773      1.00000
     43       2.3484      1.00000
     44       2.5470      1.00000
     45       2.6910      1.00000
     46       2.7254      1.00000
     47       2.9384      1.00000
     48       3.0186      1.00000
     49       5.8349      0.00000
     50       5.9945      0.00000
     51       6.2461      0.00000
     52       6.3126      0.00000
     53       6.6586      0.00000
     54       6.7426      0.00000
     55       6.8945      0.00000
     56       7.0637      0.00000
     57       7.1795      0.00000
     58       7.3623      0.00000
     59       7.7727      0.00000
     60       7.9673      0.00000
     61       8.1622      0.00000
     62       8.3558      0.00000
     63       8.4495      0.00000
     64       8.5370      0.00000

 k-point    72 :       0.5000    0.4000   -0.3333
  band No.  band energies     occupation 
      1     -32.3768      1.00000
      2     -32.3739      1.00000
      3     -32.3687      1.00000
      4     -32.3677      1.00000
      5     -13.9102      1.00000
      6     -13.8938      1.00000
      7     -13.8657      1.00000
      8     -13.8123      1.00000
      9     -13.7856      1.00000
     10     -13.7737      1.00000
     11     -13.7684      1.00000
     12     -13.7617      1.00000
     13     -13.7448      1.00000
     14     -13.7383      1.00000
     15     -13.7050      1.00000
     16     -13.6955      1.00000
     17      -7.1478      1.00000
     18      -7.0688      1.00000
     19      -6.4165      1.00000
     20      -6.2960      1.00000
     21      -6.0618      1.00000
     22      -5.9873      1.00000
     23      -5.8823      1.00000
     24      -5.8470      1.00000
     25      -1.3737      1.00000
     26      -1.2686      1.00000
     27      -0.6669      1.00000
     28      -0.6364      1.00000
     29       0.4323      1.00000
     30       0.5252      1.00000
     31       0.6355      1.00000
     32       0.8315      1.00000
     33       0.8822      1.00000
     34       1.0789      1.00000
     35       1.2675      1.00000
     36       1.5377      1.00000
     37       1.7534      1.00000
     38       1.8412      1.00000
     39       1.9637      1.00000
     40       2.0090      1.00000
     41       2.1694      1.00000
     42       2.2773      1.00000
     43       2.3484      1.00000
     44       2.5470      1.00000
     45       2.6910      1.00000
     46       2.7254      1.00000
     47       2.9384      1.00000
     48       3.0186      1.00000
     49       5.8349      0.00000
     50       5.9945      0.00000
     51       6.2461      0.00000
     52       6.3126      0.00000
     53       6.6586      0.00000
     54       6.7426      0.00000
     55       6.8945      0.00000
     56       7.0637      0.00000
     57       7.1795      0.00000
     58       7.3623      0.00000
     59       7.7727      0.00000
     60       7.9673      0.00000
     61       8.1622      0.00000
     62       8.3549      0.00000
     63       8.4487      0.00000
     64       8.5285      0.00000

 k-point    73 :      -0.3333    0.4000    0.3333
  band No.  band energies     occupation 
      1     -32.3768      1.00000
      2     -32.3739      1.00000
      3     -32.3687      1.00000
      4     -32.3677      1.00000
      5     -13.9103      1.00000
      6     -13.8940      1.00000
      7     -13.8657      1.00000
      8     -13.8121      1.00000
      9     -13.7854      1.00000
     10     -13.7735      1.00000
     11     -13.7683      1.00000
     12     -13.7615      1.00000
     13     -13.7446      1.00000
     14     -13.7381      1.00000
     15     -13.7050      1.00000
     16     -13.6956      1.00000
     17      -7.1986      1.00000
     18      -7.0966      1.00000
     19      -6.3955      1.00000
     20      -6.2751      1.00000
     21      -6.0244      1.00000
     22      -5.9207      1.00000
     23      -5.8890      1.00000
     24      -5.8652      1.00000
     25      -1.3870      1.00000
     26      -1.2345      1.00000
     27      -0.7113      1.00000
     28      -0.6778      1.00000
     29       0.2915      1.00000
     30       0.4881      1.00000
     31       0.5405      1.00000
     32       0.7804      1.00000
     33       0.9507      1.00000
     34       1.0802      1.00000
     35       1.2737      1.00000
     36       1.5148      1.00000
     37       1.7610      1.00000
     38       1.8253      1.00000
     39       1.8762      1.00000
     40       1.9632      1.00000
     41       2.1764      1.00000
     42       2.2423      1.00000
     43       2.5633      1.00000
     44       2.6445      1.00000
     45       2.7465      1.00000
     46       2.8182      1.00000
     47       3.0155      1.00000
     48       3.0605      1.00000
     49       5.7952      0.00000
     50       6.1107      0.00000
     51       6.2915      0.00000
     52       6.4232      0.00000
     53       6.6716      0.00000
     54       6.7474      0.00000
     55       6.9806      0.00000
     56       7.0796      0.00000
     57       7.3117      0.00000
     58       7.4271      0.00000
     59       7.8452      0.00000
     60       7.9672      0.00000
     61       8.0533      0.00000
     62       8.1950      0.00000
     63       8.2582      0.00000
     64       8.3323      0.00000

 k-point    74 :       0.3333    0.4000   -0.3333
  band No.  band energies     occupation 
      1     -32.3768      1.00000
      2     -32.3739      1.00000
      3     -32.3687      1.00000
      4     -32.3677      1.00000
      5     -13.9103      1.00000
      6     -13.8940      1.00000
      7     -13.8657      1.00000
      8     -13.8121      1.00000
      9     -13.7854      1.00000
     10     -13.7735      1.00000
     11     -13.7683      1.00000
     12     -13.7615      1.00000
     13     -13.7446      1.00000
     14     -13.7381      1.00000
     15     -13.7050      1.00000
     16     -13.6956      1.00000
     17      -7.1986      1.00000
     18      -7.0966      1.00000
     19      -6.3955      1.00000
     20      -6.2751      1.00000
     21      -6.0244      1.00000
     22      -5.9207      1.00000
     23      -5.8890      1.00000
     24      -5.8652      1.00000
     25      -1.3870      1.00000
     26      -1.2345      1.00000
     27      -0.7113      1.00000
     28      -0.6778      1.00000
     29       0.2915      1.00000
     30       0.4881      1.00000
     31       0.5405      1.00000
     32       0.7804      1.00000
     33       0.9507      1.00000
     34       1.0802      1.00000
     35       1.2737      1.00000
     36       1.5148      1.00000
     37       1.7610      1.00000
     38       1.8253      1.00000
     39       1.8762      1.00000
     40       1.9632      1.00000
     41       2.1764      1.00000
     42       2.2423      1.00000
     43       2.5633      1.00000
     44       2.6445      1.00000
     45       2.7465      1.00000
     46       2.8182      1.00000
     47       3.0155      1.00000
     48       3.0605      1.00000
     49       5.7952      0.00000
     50       6.1107      0.00000
     51       6.2915      0.00000
     52       6.4232      0.00000
     53       6.6716      0.00000
     54       6.7474      0.00000
     55       6.9806      0.00000
     56       7.0796      0.00000
     57       7.3117      0.00000
     58       7.4271      0.00000
     59       7.8452      0.00000
     60       7.9672      0.00000
     61       8.0533      0.00000
     62       8.1950      0.00000
     63       8.2576      0.00000
     64       8.3329      0.00000

 k-point    75 :      -0.1667    0.4000    0.3333
  band No.  band energies     occupation 
      1     -32.3768      1.00000
      2     -32.3739      1.00000
      3     -32.3687      1.00000
      4     -32.3677      1.00000
      5     -13.9106      1.00000
      6     -13.8943      1.00000
      7     -13.8660      1.00000
      8     -13.8123      1.00000
      9     -13.7845      1.00000
     10     -13.7733      1.00000
     11     -13.7679      1.00000
     12     -13.7612      1.00000
     13     -13.7441      1.00000
     14     -13.7377      1.00000
     15     -13.7050      1.00000
     16     -13.6956      1.00000
     17      -7.2553      1.00000
     18      -7.1196      1.00000
     19      -6.3965      1.00000
     20      -6.2714      1.00000
     21      -5.9556      1.00000
     22      -5.8891      1.00000
     23      -5.8830      1.00000
     24      -5.8503      1.00000
     25      -1.3529      1.00000
     26      -1.1717      1.00000
     27      -0.7516      1.00000
     28      -0.6476      1.00000
     29       0.0959      1.00000
     30       0.4312      1.00000
     31       0.4997      1.00000
     32       0.6620      1.00000
     33       0.9960      1.00000
     34       1.0743      1.00000
     35       1.3541      1.00000
     36       1.4969      1.00000
     37       1.7146      1.00000
     38       1.8090      1.00000
     39       1.8422      1.00000
     40       1.9189      1.00000
     41       2.1624      1.00000
     42       2.1971      1.00000
     43       2.4977      1.00000
     44       2.6587      1.00000
     45       2.7822      1.00000
     46       2.8546      1.00000
     47       2.9747      1.00000
     48       3.1286      1.00000
     49       5.6732      0.00000
     50       6.1335      0.00000
     51       6.3591      0.00000
     52       6.5928      0.00000
     53       6.9549      0.00000
     54       7.0382      0.00000
     55       7.2226      0.00000
     56       7.3285      0.00000
     57       7.4689      0.00000
     58       7.6195      0.00000
     59       7.8993      0.00000
     60       8.0289      0.00000
     61       8.0923      0.00000
     62       8.1862      0.00000
     63       8.2634      0.00000
     64       8.4035      0.00000

 k-point    76 :       0.1667    0.4000   -0.3333
  band No.  band energies     occupation 
      1     -32.3768      1.00000
      2     -32.3739      1.00000
      3     -32.3687      1.00000
      4     -32.3677      1.00000
      5     -13.9106      1.00000
      6     -13.8943      1.00000
      7     -13.8660      1.00000
      8     -13.8123      1.00000
      9     -13.7845      1.00000
     10     -13.7733      1.00000
     11     -13.7679      1.00000
     12     -13.7612      1.00000
     13     -13.7441      1.00000
     14     -13.7377      1.00000
     15     -13.7050      1.00000
     16     -13.6956      1.00000
     17      -7.2553      1.00000
     18      -7.1196      1.00000
     19      -6.3965      1.00000
     20      -6.2714      1.00000
     21      -5.9556      1.00000
     22      -5.8891      1.00000
     23      -5.8830      1.00000
     24      -5.8503      1.00000
     25      -1.3529      1.00000
     26      -1.1717      1.00000
     27      -0.7516      1.00000
     28      -0.6476      1.00000
     29       0.0959      1.00000
     30       0.4312      1.00000
     31       0.4997      1.00000
     32       0.6620      1.00000
     33       0.9960      1.00000
     34       1.0743      1.00000
     35       1.3541      1.00000
     36       1.4969      1.00000
     37       1.7146      1.00000
     38       1.8090      1.00000
     39       1.8422      1.00000
     40       1.9189      1.00000
     41       2.1624      1.00000
     42       2.1971      1.00000
     43       2.4977      1.00000
     44       2.6587      1.00000
     45       2.7822      1.00000
     46       2.8546      1.00000
     47       2.9747      1.00000
     48       3.1286      1.00000
     49       5.6732      0.00000
     50       6.1335      0.00000
     51       6.3591      0.00000
     52       6.5928      0.00000
     53       6.9549      0.00000
     54       7.0382      0.00000
     55       7.2226      0.00000
     56       7.3285      0.00000
     57       7.4689      0.00000
     58       7.6195      0.00000
     59       7.8993      0.00000
     60       8.0288      0.00000
     61       8.0923      0.00000
     62       8.1864      0.00000
     63       8.2626      0.00000
     64       8.3990      0.00000

 k-point    77 :      -0.0000    0.0000    0.5000
  band No.  band energies     occupation 
      1     -32.3758      1.00000
      2     -32.3758      1.00000
      3     -32.3677      1.00000
      4     -32.3677      1.00000
      5     -13.9480      1.00000
      6     -13.9480      1.00000
      7     -13.8276      1.00000
      8     -13.8276      1.00000
      9     -13.7792      1.00000
     10     -13.7792      1.00000
     11     -13.7385      1.00000
     12     -13.7385      1.00000
     13     -13.7314      1.00000
     14     -13.7314      1.00000
     15     -13.6988      1.00000
     16     -13.6988      1.00000
     17      -7.2095      1.00000
     18      -7.2095      1.00000
     19      -6.2309      1.00000
     20      -6.2309      1.00000
     21      -6.0239      1.00000
     22      -6.0239      1.00000
     23      -5.8571      1.00000
     24      -5.8571      1.00000
     25      -1.2426      1.00000
     26      -1.2426      1.00000
     27      -0.8232      1.00000
     28      -0.8232      1.00000
     29       0.0402      1.00000
     30       0.0402      1.00000
     31       0.8995      1.00000
     32       0.8995      1.00000
     33       1.2666      1.00000
     34       1.2666      1.00000
     35       1.4736      1.00000
     36       1.4736      1.00000
     37       1.7136      1.00000
     38       1.7136      1.00000
     39       1.8865      1.00000
     40       1.8865      1.00000
     41       2.3075      1.00000
     42       2.3075      1.00000
     43       2.5609      1.00000
     44       2.5609      1.00000
     45       2.7661      1.00000
     46       2.7661      1.00000
     47       2.9420      1.00000
     48       2.9420      1.00000
     49       5.1464      0.00000
     50       5.1464      0.00000
     51       6.0718      0.00000
     52       6.0718      0.00000
     53       7.1040      0.00000
     54       7.1040      0.00000
     55       7.4365      0.00000
     56       7.4365      0.00000
     57       7.7790      0.00000
     58       7.7790      0.00000
     59       8.0615      0.00000
     60       8.0615      0.00000
     61       8.3335      0.00000
     62       8.3335      0.00000
     63       8.5313      0.00000
     64       8.5313      0.00000

 k-point    78 :       0.1667   -0.0000    0.5000
  band No.  band energies     occupation 
      1     -32.3758      1.00000
      2     -32.3758      1.00000
      3     -32.3677      1.00000
      4     -32.3677      1.00000
      5     -13.9478      1.00000
      6     -13.9477      1.00000
      7     -13.8276      1.00000
      8     -13.8275      1.00000
      9     -13.7798      1.00000
     10     -13.7796      1.00000
     11     -13.7387      1.00000
     12     -13.7387      1.00000
     13     -13.7314      1.00000
     14     -13.7314      1.00000
     15     -13.6988      1.00000
     16     -13.6988      1.00000
     17      -7.1847      1.00000
     18      -7.1825      1.00000
     19      -6.3175      1.00000
     20      -6.2797      1.00000
     21      -5.9863      1.00000
     22      -5.9496      1.00000
     23      -5.9224      1.00000
     24      -5.8307      1.00000
     25      -1.2781      1.00000
     26      -1.2003      1.00000
     27      -0.9325      1.00000
     28      -0.8150      1.00000
     29       0.0253      1.00000
     30       0.2434      1.00000
     31       0.8209      1.00000
     32       0.9424      1.00000
     33       1.1699      1.00000
     34       1.2627      1.00000
     35       1.3703      1.00000
     36       1.4283      1.00000
     37       1.7336      1.00000
     38       1.8213      1.00000
     39       1.9319      1.00000
     40       2.0187      1.00000
     41       2.2830      1.00000
     42       2.3573      1.00000
     43       2.5236      1.00000
     44       2.6523      1.00000
     45       2.6718      1.00000
     46       2.8388      1.00000
     47       2.9538      1.00000
     48       3.0740      1.00000
     49       5.1763      0.00000
     50       5.1946      0.00000
     51       6.0217      0.00000
     52       6.1372      0.00000
     53       6.8403      0.00000
     54       6.8704      0.00000
     55       7.1243      0.00000
     56       7.2912      0.00000
     57       7.4489      0.00000
     58       7.8421      0.00000
     59       7.8934      0.00000
     60       8.1104      0.00000
     61       8.1116      0.00000
     62       8.3853      0.00000
     63       8.4382      0.00000
     64       8.6975      0.00000

 k-point    79 :       0.3333    0.0000    0.5000
  band No.  band energies     occupation 
      1     -32.3758      1.00000
      2     -32.3758      1.00000
      3     -32.3677      1.00000
      4     -32.3677      1.00000
      5     -13.9475      1.00000
      6     -13.9474      1.00000
      7     -13.8274      1.00000
      8     -13.8272      1.00000
      9     -13.7808      1.00000
     10     -13.7806      1.00000
     11     -13.7391      1.00000
     12     -13.7391      1.00000
     13     -13.7314      1.00000
     14     -13.7314      1.00000
     15     -13.6988      1.00000
     16     -13.6988      1.00000
     17      -7.1280      1.00000
     18      -7.1237      1.00000
     19      -6.4172      1.00000
     20      -6.3722      1.00000
     21      -6.0114      1.00000
     22      -5.9757      1.00000
     23      -5.8345      1.00000
     24      -5.8108      1.00000
     25      -1.3023      1.00000
     26      -1.1868      1.00000
     27      -0.9681      1.00000
     28      -0.9518      1.00000
     29       0.2495      1.00000
     30       0.4063      1.00000
     31       0.7648      1.00000
     32       0.9561      1.00000
     33       1.0451      1.00000
     34       1.1613      1.00000
     35       1.3651      1.00000
     36       1.3750      1.00000
     37       1.6418      1.00000
     38       1.9158      1.00000
     39       2.0245      1.00000
     40       2.1616      1.00000
     41       2.3501      1.00000
     42       2.3725      1.00000
     43       2.6828      1.00000
     44       2.7268      1.00000
     45       2.7590      1.00000
     46       2.7916      1.00000
     47       3.0349      1.00000
     48       3.1303      1.00000
     49       5.2850      0.00000
     50       5.3078      0.00000
     51       5.9702      0.00000
     52       6.2896      0.00000
     53       6.4096      0.00000
     54       6.6235      0.00000
     55       6.7005      0.00000
     56       6.8791      0.00000
     57       7.2366      0.00000
     58       7.4336      0.00000
     59       7.7125      0.00000
     60       7.8446      0.00000
     61       8.0754      0.00000
     62       8.2626      0.00000
     63       8.4352      0.00000
     64       8.4819      0.00000

 k-point    80 :       0.5000   -0.0000    0.5000
  band No.  band energies     occupation 
      1     -32.3758      1.00000
      2     -32.3758      1.00000
      3     -32.3677      1.00000
      4     -32.3677      1.00000
      5     -13.9473      1.00000
      6     -13.9473      1.00000
      7     -13.8272      1.00000
      8     -13.8272      1.00000
      9     -13.7812      1.00000
     10     -13.7812      1.00000
     11     -13.7393      1.00000
     12     -13.7393      1.00000
     13     -13.7314      1.00000
     14     -13.7314      1.00000
     15     -13.6988      1.00000
     16     -13.6987      1.00000
     17      -7.0930      1.00000
     18      -7.0930      1.00000
     19      -6.4386      1.00000
     20      -6.4386      1.00000
     21      -6.0177      1.00000
     22      -6.0177      1.00000
     23      -5.7922      1.00000
     24      -5.7922      1.00000
     25      -1.2650      1.00000
     26      -1.2650      1.00000
     27      -0.9769      1.00000
     28      -0.9769      1.00000
     29       0.4127      1.00000
     30       0.4127      1.00000
     31       0.8651      1.00000
     32       0.8651      1.00000
     33       1.0197      1.00000
     34       1.0197      1.00000
     35       1.3688      1.00000
     36       1.3688      1.00000
     37       1.8262      1.00000
     38       1.8262      1.00000
     39       2.1221      1.00000
     40       2.1221      1.00000
     41       2.3389      1.00000
     42       2.3389      1.00000
     43       2.7247      1.00000
     44       2.7247      1.00000
     45       2.8437      1.00000
     46       2.8437      1.00000
     47       3.1248      1.00000
     48       3.1248      1.00000
     49       5.4106      0.00000
     50       5.4106      0.00000
     51       5.9714      0.00000
     52       5.9714      0.00000
     53       6.3648      0.00000
     54       6.3648      0.00000
     55       6.8423      0.00000
     56       6.8423      0.00000
     57       7.2297      0.00000
     58       7.2297      0.00000
     59       7.5080      0.00000
     60       7.5080      0.00000
     61       8.1669      0.00000
     62       8.1669      0.00000
     63       8.4480      0.00000
     64       8.4483      0.00000

 k-point    81 :      -0.0000    0.2000    0.5000
  band No.  band energies     occupation 
      1     -32.3753      1.00000
      2     -32.3752      1.00000
      3     -32.3683      1.00000
      4     -32.3683      1.00000
      5     -13.9334      1.00000
      6     -13.9334      1.00000
      7     -13.8333      1.00000
      8     -13.8333      1.00000
      9     -13.7762      1.00000
     10     -13.7762      1.00000
     11     -13.7438      1.00000
     12     -13.7438      1.00000
     13     -13.7356      1.00000
     14     -13.7356      1.00000
     15     -13.7023      1.00000
     16     -13.7023      1.00000
     17      -7.1854      1.00000
     18      -7.1854      1.00000
     19      -6.3203      1.00000
     20      -6.3203      1.00000
     21      -5.9667      1.00000
     22      -5.9667      1.00000
     23      -5.8554      1.00000
     24      -5.8554      1.00000
     25      -1.1709      1.00000
     26      -1.1709      1.00000
     27      -0.7859      1.00000
     28      -0.7859      1.00000
     29       0.0813      1.00000
     30       0.0813      1.00000
     31       0.8404      1.00000
     32       0.8404      1.00000
     33       1.1178      1.00000
     34       1.1178      1.00000
     35       1.4773      1.00000
     36       1.4773      1.00000
     37       1.6596      1.00000
     38       1.6596      1.00000
     39       1.9736      1.00000
     40       1.9736      1.00000
     41       2.2245      1.00000
     42       2.2245      1.00000
     43       2.5733      1.00000
     44       2.5733      1.00000
     45       2.5988      1.00000
     46       2.5988      1.00000
     47       3.0288      1.00000
     48       3.0288      1.00000
     49       5.3323      0.00000
     50       5.3323      0.00000
     51       6.3724      0.00000
     52       6.3724      0.00000
     53       6.9196      0.00000
     54       6.9196      0.00000
     55       7.5082      0.00000
     56       7.5082      0.00000
     57       7.9213      0.00000
     58       7.9213      0.00000
     59       8.0379      0.00000
     60       8.0379      0.00000
     61       8.2232      0.00000
     62       8.2232      0.00000
     63       8.5489      0.00000
     64       8.5489      0.00000

 k-point    82 :       0.1667    0.2000    0.5000
  band No.  band energies     occupation 
      1     -32.3752      1.00000
      2     -32.3752      1.00000
      3     -32.3683      1.00000
      4     -32.3683      1.00000
      5     -13.9333      1.00000
      6     -13.9332      1.00000
      7     -13.8332      1.00000
      8     -13.8331      1.00000
      9     -13.7767      1.00000
     10     -13.7766      1.00000
     11     -13.7440      1.00000
     12     -13.7439      1.00000
     13     -13.7357      1.00000
     14     -13.7356      1.00000
     15     -13.7022      1.00000
     16     -13.7022      1.00000
     17      -7.1713      1.00000
     18      -7.1553      1.00000
     19      -6.3987      1.00000
     20      -6.2827      1.00000
     21      -6.0063      1.00000
     22      -5.9201      1.00000
     23      -5.9094      1.00000
     24      -5.8239      1.00000
     25      -1.2246      1.00000
     26      -1.1370      1.00000
     27      -0.8848      1.00000
     28      -0.7699      1.00000
     29       0.0736      1.00000
     30       0.2962      1.00000
     31       0.7775      1.00000
     32       0.8666      1.00000
     33       1.0231      1.00000
     34       1.2035      1.00000
     35       1.3250      1.00000
     36       1.4954      1.00000
     37       1.5784      1.00000
     38       1.8080      1.00000
     39       1.8993      1.00000
     40       2.0751      1.00000
     41       2.2429      1.00000
     42       2.4141      1.00000
     43       2.5236      1.00000
     44       2.5950      1.00000
     45       2.6469      1.00000
     46       2.7256      1.00000
     47       2.9077      1.00000
     48       3.0639      1.00000
     49       5.3386      0.00000
     50       5.3775      0.00000
     51       6.3305      0.00000
     52       6.3862      0.00000
     53       6.6993      0.00000
     54       6.9515      0.00000
     55       7.0726      0.00000
     56       7.3541      0.00000
     57       7.5514      0.00000
     58       7.8163      0.00000
     59       7.9121      0.00000
     60       8.0293      0.00000
     61       8.1720      0.00000
     62       8.3599      0.00000
     63       8.4360      0.00000
     64       8.6515      0.00000

 k-point    83 :      -0.1667    0.2000    0.5000
  band No.  band energies     occupation 
      1     -32.3752      1.00000
      2     -32.3752      1.00000
      3     -32.3683      1.00000
      4     -32.3683      1.00000
      5     -13.9333      1.00000
      6     -13.9332      1.00000
      7     -13.8332      1.00000
      8     -13.8331      1.00000
      9     -13.7767      1.00000
     10     -13.7766      1.00000
     11     -13.7440      1.00000
     12     -13.7439      1.00000
     13     -13.7357      1.00000
     14     -13.7356      1.00000
     15     -13.7022      1.00000
     16     -13.7022      1.00000
     17      -7.1713      1.00000
     18      -7.1553      1.00000
     19      -6.3987      1.00000
     20      -6.2827      1.00000
     21      -6.0063      1.00000
     22      -5.9201      1.00000
     23      -5.9094      1.00000
     24      -5.8239      1.00000
     25      -1.2246      1.00000
     26      -1.1370      1.00000
     27      -0.8848      1.00000
     28      -0.7699      1.00000
     29       0.0736      1.00000
     30       0.2962      1.00000
     31       0.7775      1.00000
     32       0.8666      1.00000
     33       1.0231      1.00000
     34       1.2035      1.00000
     35       1.3250      1.00000
     36       1.4954      1.00000
     37       1.5784      1.00000
     38       1.8080      1.00000
     39       1.8993      1.00000
     40       2.0751      1.00000
     41       2.2429      1.00000
     42       2.4141      1.00000
     43       2.5236      1.00000
     44       2.5950      1.00000
     45       2.6469      1.00000
     46       2.7256      1.00000
     47       2.9077      1.00000
     48       3.0639      1.00000
     49       5.3386      0.00000
     50       5.3775      0.00000
     51       6.3305      0.00000
     52       6.3862      0.00000
     53       6.6993      0.00000
     54       6.9515      0.00000
     55       7.0726      0.00000
     56       7.3541      0.00000
     57       7.5514      0.00000
     58       7.8163      0.00000
     59       7.9121      0.00000
     60       8.0293      0.00000
     61       8.1720      0.00000
     62       8.3599      0.00000
     63       8.4358      0.00000
     64       8.6388      0.00000

 k-point    84 :       0.3333    0.2000    0.5000
  band No.  band energies     occupation 
      1     -32.3752      1.00000
      2     -32.3752      1.00000
      3     -32.3683      1.00000
      4     -32.3683      1.00000
      5     -13.9330      1.00000
      6     -13.9329      1.00000
      7     -13.8329      1.00000
      8     -13.8329      1.00000
      9     -13.7776      1.00000
     10     -13.7775      1.00000
     11     -13.7444      1.00000
     12     -13.7443      1.00000
     13     -13.7357      1.00000
     14     -13.7357      1.00000
     15     -13.7022      1.00000
     16     -13.7022      1.00000
     17      -7.1255      1.00000
     18      -7.1057      1.00000
     19      -6.4451      1.00000
     20      -6.3434      1.00000
     21      -6.0078      1.00000
     22      -5.9708      1.00000
     23      -5.8934      1.00000
     24      -5.8000      1.00000
     25      -1.2590      1.00000
     26      -1.1548      1.00000
     27      -0.9206      1.00000
     28      -0.8771      1.00000
     29       0.2912      1.00000
     30       0.4582      1.00000
     31       0.7226      1.00000
     32       0.8892      1.00000
     33       0.9986      1.00000
     34       1.0912      1.00000
     35       1.3089      1.00000
     36       1.3802      1.00000
     37       1.6746      1.00000
     38       1.8728      1.00000
     39       2.0476      1.00000
     40       2.1181      1.00000
     41       2.3301      1.00000
     42       2.4280      1.00000
     43       2.5792      1.00000
     44       2.6277      1.00000
     45       2.6861      1.00000
     46       2.8458      1.00000
     47       2.9376      1.00000
     48       3.0060      1.00000
     49       5.4221      0.00000
     50       5.4656      0.00000
     51       6.2295      0.00000
     52       6.3983      0.00000
     53       6.5138      0.00000
     54       6.7442      0.00000
     55       6.8189      0.00000
     56       6.8521      0.00000
     57       7.2589      0.00000
     58       7.5105      0.00000
     59       7.7193      0.00000
     60       7.8607      0.00000
     61       8.0371      0.00000
     62       8.2333      0.00000
     63       8.2729      0.00000
     64       8.4806      0.00000

 k-point    85 :      -0.3333    0.2000    0.5000
  band No.  band energies     occupation 
      1     -32.3752      1.00000
      2     -32.3752      1.00000
      3     -32.3683      1.00000
      4     -32.3683      1.00000
      5     -13.9330      1.00000
      6     -13.9329      1.00000
      7     -13.8329      1.00000
      8     -13.8329      1.00000
      9     -13.7776      1.00000
     10     -13.7775      1.00000
     11     -13.7444      1.00000
     12     -13.7443      1.00000
     13     -13.7357      1.00000
     14     -13.7357      1.00000
     15     -13.7022      1.00000
     16     -13.7022      1.00000
     17      -7.1255      1.00000
     18      -7.1057      1.00000
     19      -6.4451      1.00000
     20      -6.3434      1.00000
     21      -6.0078      1.00000
     22      -5.9708      1.00000
     23      -5.8934      1.00000
     24      -5.8000      1.00000
     25      -1.2590      1.00000
     26      -1.1548      1.00000
     27      -0.9206      1.00000
     28      -0.8771      1.00000
     29       0.2912      1.00000
     30       0.4582      1.00000
     31       0.7226      1.00000
     32       0.8892      1.00000
     33       0.9986      1.00000
     34       1.0912      1.00000
     35       1.3089      1.00000
     36       1.3802      1.00000
     37       1.6746      1.00000
     38       1.8728      1.00000
     39       2.0476      1.00000
     40       2.1181      1.00000
     41       2.3301      1.00000
     42       2.4280      1.00000
     43       2.5792      1.00000
     44       2.6277      1.00000
     45       2.6861      1.00000
     46       2.8458      1.00000
     47       2.9376      1.00000
     48       3.0060      1.00000
     49       5.4221      0.00000
     50       5.4656      0.00000
     51       6.2295      0.00000
     52       6.3983      0.00000
     53       6.5138      0.00000
     54       6.7442      0.00000
     55       6.8189      0.00000
     56       6.8521      0.00000
     57       7.2589      0.00000
     58       7.5105      0.00000
     59       7.7193      0.00000
     60       7.8607      0.00000
     61       8.0371      0.00000
     62       8.2332      0.00000
     63       8.2732      0.00000
     64       8.4853      0.00000

 k-point    86 :       0.5000    0.2000    0.5000
  band No.  band energies     occupation 
      1     -32.3752      1.00000
      2     -32.3752      1.00000
      3     -32.3683      1.00000
      4     -32.3683      1.00000
      5     -13.9328      1.00000
      6     -13.9328      1.00000
      7     -13.8328      1.00000
      8     -13.8328      1.00000
      9     -13.7781      1.00000
     10     -13.7781      1.00000
     11     -13.7446      1.00000
     12     -13.7446      1.00000
     13     -13.7357      1.00000
     14     -13.7357      1.00000
     15     -13.7022      1.00000
     16     -13.7022      1.00000
     17      -7.0897      1.00000
     18      -7.0897      1.00000
     19      -6.4225      1.00000
     20      -6.4225      1.00000
     21      -6.0127      1.00000
     22      -6.0127      1.00000
     23      -5.8268      1.00000
     24      -5.8268      1.00000
     25      -1.2262      1.00000
     26      -1.2262      1.00000
     27      -0.9214      1.00000
     28      -0.9214      1.00000
     29       0.4449      1.00000
     30       0.4449      1.00000
     31       0.7923      1.00000
     32       0.7923      1.00000
     33       1.0461      1.00000
     34       1.0461      1.00000
     35       1.3141      1.00000
     36       1.3141      1.00000
     37       1.8793      1.00000
     38       1.8793      1.00000
     39       2.1313      1.00000
     40       2.1313      1.00000
     41       2.2920      1.00000
     42       2.2920      1.00000
     43       2.5793      1.00000
     44       2.5793      1.00000
     45       2.8363      1.00000
     46       2.8363      1.00000
     47       3.0077      1.00000
     48       3.0077      1.00000
     49       5.5379      0.00000
     50       5.5379      0.00000
     51       6.1814      0.00000
     52       6.1814      0.00000
     53       6.5100      0.00000
     54       6.5100      0.00000
     55       6.8369      0.00000
     56       6.8369      0.00000
     57       7.2539      0.00000
     58       7.2539      0.00000
     59       7.6108      0.00000
     60       7.6108      0.00000
     61       8.0366      0.00000
     62       8.0366      0.00000
     63       8.2775      0.00000
     64       8.2789      0.00000

 k-point    87 :      -0.0000    0.4000    0.5000
  band No.  band energies     occupation 
      1     -32.3740      1.00000
      2     -32.3740      1.00000
      3     -32.3695      1.00000
      4     -32.3695      1.00000
      5     -13.8966      1.00000
      6     -13.8966      1.00000
      7     -13.8564      1.00000
      8     -13.8564      1.00000
      9     -13.7679      1.00000
     10     -13.7679      1.00000
     11     -13.7553      1.00000
     12     -13.7553      1.00000
     13     -13.7435      1.00000
     14     -13.7435      1.00000
     15     -13.7064      1.00000
     16     -13.7064      1.00000
     17      -7.1408      1.00000
     18      -7.1408      1.00000
     19      -6.4324      1.00000
     20      -6.4324      1.00000
     21      -5.9096      1.00000
     22      -5.9096      1.00000
     23      -5.8551      1.00000
     24      -5.8551      1.00000
     25      -1.0336      1.00000
     26      -1.0336      1.00000
     27      -0.7306      1.00000
     28      -0.7306      1.00000
     29       0.1581      1.00000
     30       0.1581      1.00000
     31       0.7699      1.00000
     32       0.7699      1.00000
     33       0.9473      1.00000
     34       0.9473      1.00000
     35       1.2272      1.00000
     36       1.2272      1.00000
     37       1.7424      1.00000
     38       1.7424      1.00000
     39       1.9537      1.00000
     40       1.9537      1.00000
     41       2.2436      1.00000
     42       2.2436      1.00000
     43       2.4047      1.00000
     44       2.4047      1.00000
     45       2.7310      1.00000
     46       2.7310      1.00000
     47       2.9465      1.00000
     48       2.9465      1.00000
     49       5.8022      0.00000
     50       5.8022      0.00000
     51       6.4183      0.00000
     52       6.4183      0.00000
     53       7.0265      0.00000
     54       7.0265      0.00000
     55       7.5236      0.00000
     56       7.5236      0.00000
     57       7.9598      0.00000
     58       7.9598      0.00000
     59       8.0921      0.00000
     60       8.0921      0.00000
     61       8.3644      0.00000
     62       8.3646      0.00000
     63       8.4807      0.00000
     64       8.4850      0.00000

 k-point    88 :       0.1667    0.4000    0.5000
  band No.  band energies     occupation 
      1     -32.3740      1.00000
      2     -32.3740      1.00000
      3     -32.3695      1.00000
      4     -32.3695      1.00000
      5     -13.8965      1.00000
      6     -13.8964      1.00000
      7     -13.8563      1.00000
      8     -13.8562      1.00000
      9     -13.7683      1.00000
     10     -13.7682      1.00000
     11     -13.7556      1.00000
     12     -13.7556      1.00000
     13     -13.7437      1.00000
     14     -13.7436      1.00000
     15     -13.7064      1.00000
     16     -13.7064      1.00000
     17      -7.1333      1.00000
     18      -7.1213      1.00000
     19      -6.4511      1.00000
     20      -6.3920      1.00000
     21      -5.9529      1.00000
     22      -5.9160      1.00000
     23      -5.8845      1.00000
     24      -5.8400      1.00000
     25      -1.0998      1.00000
     26      -1.0535      1.00000
     27      -0.7802      1.00000
     28      -0.7184      1.00000
     29       0.2235      1.00000
     30       0.3697      1.00000
     31       0.7118      1.00000
     32       0.7519      1.00000
     33       0.8109      1.00000
     34       0.9320      1.00000
     35       1.2748      1.00000
     36       1.3663      1.00000
     37       1.7092      1.00000
     38       1.7963      1.00000
     39       1.9432      1.00000
     40       1.9830      1.00000
     41       2.1874      1.00000
     42       2.3596      1.00000
     43       2.4319      1.00000
     44       2.4736      1.00000
     45       2.6885      1.00000
     46       2.8182      1.00000
     47       2.8574      1.00000
     48       2.9437      1.00000
     49       5.7577      0.00000
     50       5.8371      0.00000
     51       6.2721      0.00000
     52       6.5028      0.00000
     53       6.8633      0.00000
     54       7.1167      0.00000
     55       7.1738      0.00000
     56       7.3924      0.00000
     57       7.5592      0.00000
     58       7.6216      0.00000
     59       8.0995      0.00000
     60       8.2124      0.00000
     61       8.2970      0.00000
     62       8.3863      0.00000
     63       8.5250      0.00000
     64       8.5727      0.00000

 k-point    89 :      -0.1667    0.4000    0.5000
  band No.  band energies     occupation 
      1     -32.3740      1.00000
      2     -32.3740      1.00000
      3     -32.3695      1.00000
      4     -32.3695      1.00000
      5     -13.8965      1.00000
      6     -13.8964      1.00000
      7     -13.8563      1.00000
      8     -13.8562      1.00000
      9     -13.7683      1.00000
     10     -13.7682      1.00000
     11     -13.7556      1.00000
     12     -13.7556      1.00000
     13     -13.7437      1.00000
     14     -13.7436      1.00000
     15     -13.7064      1.00000
     16     -13.7064      1.00000
     17      -7.1333      1.00000
     18      -7.1213      1.00000
     19      -6.4511      1.00000
     20      -6.3920      1.00000
     21      -5.9529      1.00000
     22      -5.9160      1.00000
     23      -5.8845      1.00000
     24      -5.8400      1.00000
     25      -1.0998      1.00000
     26      -1.0535      1.00000
     27      -0.7802      1.00000
     28      -0.7184      1.00000
     29       0.2235      1.00000
     30       0.3697      1.00000
     31       0.7118      1.00000
     32       0.7519      1.00000
     33       0.8109      1.00000
     34       0.9320      1.00000
     35       1.2748      1.00000
     36       1.3663      1.00000
     37       1.7092      1.00000
     38       1.7963      1.00000
     39       1.9432      1.00000
     40       1.9830      1.00000
     41       2.1874      1.00000
     42       2.3596      1.00000
     43       2.4319      1.00000
     44       2.4736      1.00000
     45       2.6885      1.00000
     46       2.8182      1.00000
     47       2.8574      1.00000
     48       2.9437      1.00000
     49       5.7577      0.00000
     50       5.8371      0.00000
     51       6.2721      0.00000
     52       6.5028      0.00000
     53       6.8633      0.00000
     54       7.1167      0.00000
     55       7.1738      0.00000
     56       7.3924      0.00000
     57       7.5592      0.00000
     58       7.6216      0.00000
     59       8.0995      0.00000
     60       8.2124      0.00000
     61       8.2970      0.00000
     62       8.3865      0.00000
     63       8.5286      0.00000
     64       8.5869      0.00000

 k-point    90 :       0.3333    0.4000    0.5000
  band No.  band energies     occupation 
      1     -32.3740      1.00000
      2     -32.3740      1.00000
      3     -32.3695      1.00000
      4     -32.3695      1.00000
      5     -13.8963      1.00000
      6     -13.8961      1.00000
      7     -13.8560      1.00000
      8     -13.8559      1.00000
      9     -13.7690      1.00000
     10     -13.7689      1.00000
     11     -13.7561      1.00000
     12     -13.7561      1.00000
     13     -13.7438      1.00000
     14     -13.7438      1.00000
     15     -13.7064      1.00000
     16     -13.7064      1.00000
     17      -7.1057      1.00000
     18      -7.0925      1.00000
     19      -6.4340      1.00000
     20      -6.3711      1.00000
     21      -5.9710      1.00000
     22      -5.9648      1.00000
     23      -5.9265      1.00000
     24      -5.8558      1.00000
     25      -1.1558      1.00000
     26      -1.1113      1.00000
     27      -0.8228      1.00000
     28      -0.7852      1.00000
     29       0.4477      1.00000
     30       0.5922      1.00000
     31       0.6606      1.00000
     32       0.7428      1.00000
     33       0.7741      1.00000
     34       0.8398      1.00000
     35       1.4385      1.00000
     36       1.4641      1.00000
     37       1.7261      1.00000
     38       1.8754      1.00000
     39       1.9293      1.00000
     40       1.9592      1.00000
     41       2.2933      1.00000
     42       2.3822      1.00000
     43       2.5082      1.00000
     44       2.5325      1.00000
     45       2.7095      1.00000
     46       2.7585      1.00000
     47       2.8253      1.00000
     48       2.8827      1.00000
     49       5.7814      0.00000
     50       5.8754      0.00000
     51       6.1780      0.00000
     52       6.4064      0.00000
     53       6.8029      0.00000
     54       6.8523      0.00000
     55       7.0061      0.00000
     56       7.1259      0.00000
     57       7.2013      0.00000
     58       7.3129      0.00000
     59       7.8298      0.00000
     60       7.9732      0.00000
     61       8.1498      0.00000
     62       8.3161      0.00000
     63       8.3713      0.00000
     64       8.4861      0.00000

 k-point    91 :      -0.3333    0.4000    0.5000
  band No.  band energies     occupation 
      1     -32.3740      1.00000
      2     -32.3740      1.00000
      3     -32.3695      1.00000
      4     -32.3695      1.00000
      5     -13.8963      1.00000
      6     -13.8961      1.00000
      7     -13.8560      1.00000
      8     -13.8559      1.00000
      9     -13.7690      1.00000
     10     -13.7689      1.00000
     11     -13.7561      1.00000
     12     -13.7561      1.00000
     13     -13.7438      1.00000
     14     -13.7438      1.00000
     15     -13.7064      1.00000
     16     -13.7064      1.00000
     17      -7.1057      1.00000
     18      -7.0925      1.00000
     19      -6.4340      1.00000
     20      -6.3711      1.00000
     21      -5.9710      1.00000
     22      -5.9648      1.00000
     23      -5.9265      1.00000
     24      -5.8558      1.00000
     25      -1.1558      1.00000
     26      -1.1113      1.00000
     27      -0.8228      1.00000
     28      -0.7852      1.00000
     29       0.4477      1.00000
     30       0.5922      1.00000
     31       0.6606      1.00000
     32       0.7428      1.00000
     33       0.7741      1.00000
     34       0.8398      1.00000
     35       1.4385      1.00000
     36       1.4641      1.00000
     37       1.7261      1.00000
     38       1.8754      1.00000
     39       1.9293      1.00000
     40       1.9592      1.00000
     41       2.2933      1.00000
     42       2.3822      1.00000
     43       2.5082      1.00000
     44       2.5325      1.00000
     45       2.7095      1.00000
     46       2.7585      1.00000
     47       2.8253      1.00000
     48       2.8827      1.00000
     49       5.7814      0.00000
     50       5.8754      0.00000
     51       6.1780      0.00000
     52       6.4064      0.00000
     53       6.8029      0.00000
     54       6.8523      0.00000
     55       7.0061      0.00000
     56       7.1259      0.00000
     57       7.2013      0.00000
     58       7.3129      0.00000
     59       7.8298      0.00000
     60       7.9732      0.00000
     61       8.1498      0.00000
     62       8.3160      0.00000
     63       8.3714      0.00000
     64       8.4813      0.00000

 k-point    92 :       0.5000    0.4000    0.5000
  band No.  band energies     occupation 
      1     -32.3740      1.00000
      2     -32.3740      1.00000
      3     -32.3695      1.00000
      4     -32.3695      1.00000
      5     -13.8960      1.00000
      6     -13.8960      1.00000
      7     -13.8558      1.00000
      8     -13.8558      1.00000
      9     -13.7693      1.00000
     10     -13.7693      1.00000
     11     -13.7564      1.00000
     12     -13.7564      1.00000
     13     -13.7439      1.00000
     14     -13.7439      1.00000
     15     -13.7063      1.00000
     16     -13.7063      1.00000
     17      -7.0844      1.00000
     18      -7.0844      1.00000
     19      -6.3951      1.00000
     20      -6.3951      1.00000
     21      -5.9829      1.00000
     22      -5.9829      1.00000
     23      -5.9059      1.00000
     24      -5.9059      1.00000
     25      -1.1517      1.00000
     26      -1.1517      1.00000
     27      -0.8358      1.00000
     28      -0.8358      1.00000
     29       0.5392      1.00000
     30       0.5392      1.00000
     31       0.6719      1.00000
     32       0.6719      1.00000
     33       0.9291      1.00000
     34       0.9291      1.00000
     35       1.4758      1.00000
     36       1.4758      1.00000
     37       1.8275      1.00000
     38       1.8275      1.00000
     39       1.9678      1.00000
     40       1.9678      1.00000
     41       2.3325      1.00000
     42       2.3325      1.00000
     43       2.5123      1.00000
     44       2.5123      1.00000
     45       2.7569      1.00000
     46       2.7569      1.00000
     47       2.8188      1.00000
     48       2.8188      1.00000
     49       5.8670      0.00000
     50       5.8670      0.00000
     51       6.3038      0.00000
     52       6.3038      0.00000
     53       6.6878      0.00000
     54       6.6878      0.00000
     55       6.8838      0.00000
     56       6.8838      0.00000
     57       7.2365      0.00000
     58       7.2365      0.00000
     59       7.7402      0.00000
     60       7.7402      0.00000
     61       8.0805      0.00000
     62       8.0805      0.00000
     63       8.4580      0.00000
     64       8.4641      0.00000


--------------------------------------------------------------------------------------------------------


 soft charge-density along one line, spin component           1
         0         1         2         3         4         5         6         7         8         9
 total charge-density along one line
 
 soft charge-density along one line, spin component           2
         0         1         2         3         4         5         6         7         8         9
 total charge-density along one line
 
 pseudopotential strength for first ion, spin component:           1
  1.223   5.461  -0.001   0.002  -0.002
  5.461  23.264  -0.003   0.008  -0.005
 -0.001  -0.003  -0.045  -0.000   0.001
  0.002   0.008  -0.000  -0.046  -0.001
 -0.002  -0.005   0.001  -0.001  -0.048
 pseudopotential strength for first ion, spin component:           2
  1.223   5.461  -0.001   0.002  -0.002
  5.461  23.264  -0.003   0.008  -0.005
 -0.001  -0.003  -0.045  -0.000   0.001
  0.002   0.008  -0.000  -0.046  -0.001
 -0.002  -0.005   0.001  -0.001  -0.048
 total augmentation occupancy for first ion, spin component:           1
  1.223  -0.065   0.001  -0.020   0.021
 -0.065   0.003   0.000   0.001  -0.001
  0.001   0.000   0.073   0.002  -0.003
 -0.020   0.001   0.002   0.079   0.002
  0.021  -0.001  -0.003   0.002   0.085
 total augmentation occupancy for first ion, spin component:           2
  0.000  -0.000   0.000   0.000  -0.000
 -0.000   0.000  -0.000   0.000   0.000
  0.000  -0.000   0.000   0.000   0.000
  0.000   0.000   0.000   0.000   0.000
 -0.000   0.000   0.000   0.000   0.000


------------------------ aborting loop because EDIFF is reached ----------------------------------------


 


 total charge     
 
# of ion       s       p       d       tot
------------------------------------------
    1        0.101   0.171   0.000   0.272
    2        0.101   0.171   0.000   0.272
    3        0.101   0.171   0.000   0.272
    4        0.101   0.171   0.000   0.272
    5        2.012   5.827   0.212   8.051
    6        2.012   5.827   0.212   8.051
    7        2.012   5.827   0.212   8.051
    8        2.012   5.827   0.212   8.051
    9        0.380   0.376   0.000   0.756
   10        0.380   0.376   0.000   0.756
   11        0.380   0.376   0.000   0.756
   12        0.380   0.376   0.000   0.756
   13        1.001   1.589   0.000   2.590
   14        1.001   1.589   0.000   2.590
   15        1.001   1.589   0.000   2.590
   16        1.001   1.589   0.000   2.590
   17        1.002   1.585   0.000   2.588
   18        1.002   1.585   0.000   2.588
   19        1.002   1.585   0.000   2.588
   20        1.002   1.585   0.000   2.588
--------------------------------------------------
tot         17.982  38.193   0.849  57.024
 


 magnetization (x)
 
# of ion       s       p       d       tot
------------------------------------------
    1        0.000   0.000   0.000   0.000
    2        0.000   0.000   0.000   0.000
    3        0.000   0.000   0.000   0.000
    4        0.000   0.000   0.000   0.000
    5        0.000  -0.000   0.000   0.000
    6        0.000  -0.000   0.000   0.000
    7        0.000  -0.000   0.000   0.000
    8        0.000  -0.000   0.000   0.000
    9       -0.000   0.000   0.000   0.000
   10       -0.000   0.000   0.000   0.000
   11       -0.000   0.000   0.000   0.000
   12       -0.000   0.000   0.000   0.000
   13       -0.000  -0.000   0.000  -0.000
   14       -0.000  -0.000   0.000  -0.000
   15       -0.000  -0.000   0.000  -0.000
   16       -0.000  -0.000   0.000  -0.000
   17       -0.000  -0.000   0.000  -0.000
   18       -0.000  -0.000   0.000  -0.000
   19       -0.000  -0.000   0.000  -0.000
   20       -0.000  -0.000   0.000  -0.000
--------------------------------------------------
tot          0.000  -0.000   0.000  -0.000
 
    CHARGE:  cpu time    0.1534: real time    0.1534
    FORLOC:  cpu time    0.0016: real time    0.0016
    FORNL :  cpu time    0.8144: real time    0.8152
    STRESS:  cpu time   23.5723: real time   23.5943
    FORCOR:  cpu time    0.0444: real time    0.0455
    FORHAR:  cpu time    0.0041: real time    0.0043
    MIXING:  cpu time    0.0012: real time    0.0012
    OFIELD:  cpu time    0.0003: real time    0.0005

  FORCE on cell =-STRESS in cart. coord.  units (eV):
  Direction    XX          YY          ZZ          XY          YZ          ZX
  --------------------------------------------------------------------------------------
  Alpha Z   209.33027   209.33027   209.33027
  Ewald   -1524.31214 -1248.01476 -1246.34871     0.00001     0.00002    30.36750
  Hartree   150.94597   433.52226   437.02154     0.00001     0.00000    15.25924
  E(xc)    -330.67092  -330.56188  -330.52229     0.00000    -0.00000     0.02338
  Local     209.93128  -347.51081  -352.08442    -0.00002    -0.00001   -44.36048
  n-local   322.74199   319.45804   318.60764    -0.00000     0.00001    -0.26712
  augment   -61.13447   -61.19646   -61.18933     0.00000     0.00000     0.15226
  Kinetic  1023.28168  1025.02511  1025.24755     0.00000    -0.00001    -1.18815
  Fock        0.00000     0.00000     0.00000     0.00000     0.00000     0.00000
  -------------------------------------------------------------------------------------
  Total       0.11366     0.05176     0.06225    -0.00000     0.00001    -0.01338
  in kB       0.43334     0.19736     0.23735    -0.00001     0.00002    -0.05102
  external pressure =        0.29 kB  Pullay stress =        0.00 kB


 VOLUME and BASIS-vectors are now :
 -----------------------------------------------------------------------------
  energy-cutoff  :      520.00
  volume of cell :      420.22
      direct lattice vectors                 reciprocal lattice vectors
     7.053921312 -0.000000045 -0.016440316     0.141764325  0.000000001 -0.000341190
    -0.000000064  8.373722446 -0.000000130     0.000000001  0.119421202  0.000000002
     0.017122091 -0.000000113  7.114218564     0.000327605  0.000000002  0.140562787

  length of vectors
     7.053940471  8.373722446  7.114239168     0.141764735  0.119421202  0.140563169


 FORCES acting on ions
    electron-ion (+dipol)            ewald-force                    non-local-force                 convergence-correction
 -----------------------------------------------------------------------------------------------
   -.480E+01 -.141E+01 -.183E+01   0.502E+01 0.143E+01 0.161E+01   -.221E+00 -.120E-01 0.221E+00   0.912E-04 0.156E-04 0.120E-04
   0.480E+01 -.141E+01 0.183E+01   -.502E+01 0.143E+01 -.161E+01   0.221E+00 -.120E-01 -.221E+00   -.911E-04 0.152E-04 -.116E-04
   0.480E+01 0.141E+01 0.183E+01   -.502E+01 -.143E+01 -.161E+01   0.221E+00 0.120E-01 -.221E+00   -.914E-04 -.155E-04 -.112E-04
   -.480E+01 0.141E+01 -.183E+01   0.502E+01 -.143E+01 0.161E+01   -.221E+00 0.120E-01 0.221E+00   0.912E-04 -.151E-04 0.110E-04
   -.129E+02 -.150E+00 0.879E+01   0.127E+02 0.374E+00 -.824E+01   0.173E+00 -.225E+00 -.552E+00   0.102E-03 -.125E-03 -.330E-03
   0.129E+02 -.150E+00 -.879E+01   -.127E+02 0.374E+00 0.824E+01   -.173E+00 -.225E+00 0.552E+00   -.114E-03 -.142E-03 0.339E-03
   0.129E+02 0.150E+00 -.879E+01   -.127E+02 -.374E+00 0.824E+01   -.173E+00 0.225E+00 0.552E+00   -.116E-03 0.131E-03 0.327E-03
   -.129E+02 0.150E+00 0.879E+01   0.127E+02 -.374E+00 -.824E+01   0.173E+00 0.225E+00 -.552E+00   0.113E-03 0.142E-03 -.338E-03
   0.202E+02 0.603E+01 -.356E+01   -.203E+02 -.566E+01 0.319E+01   0.103E+00 -.382E+00 0.365E+00   -.507E-03 -.492E-04 0.397E-04
   -.202E+02 0.603E+01 0.356E+01   0.203E+02 -.566E+01 -.319E+01   -.103E+00 -.382E+00 -.365E+00   0.508E-03 -.522E-04 -.379E-04
   -.202E+02 -.603E+01 0.356E+01   0.203E+02 0.566E+01 -.319E+01   -.103E+00 0.382E+00 -.365E+00   0.509E-03 0.502E-04 -.428E-04
   0.202E+02 -.603E+01 -.356E+01   -.203E+02 0.566E+01 0.319E+01   0.103E+00 0.382E+00 0.365E+00   -.509E-03 0.513E-04 0.412E-04
   -.617E+02 -.146E+02 0.930E+01   0.605E+02 0.157E+02 -.986E+01   0.108E+01 -.100E+01 0.515E+00   0.140E-02 0.393E-03 -.250E-03
   0.617E+02 -.146E+02 -.930E+01   -.605E+02 0.157E+02 0.986E+01   -.108E+01 -.100E+01 -.515E+00   -.139E-02 0.398E-03 0.248E-03
   0.617E+02 0.146E+02 -.930E+01   -.605E+02 -.157E+02 0.986E+01   -.108E+01 0.100E+01 -.515E+00   -.140E-02 -.393E-03 0.247E-03
   -.617E+02 0.146E+02 0.930E+01   0.605E+02 -.157E+02 -.986E+01   0.108E+01 0.100E+01 0.515E+00   0.139E-02 -.398E-03 -.246E-03
   -.423E+02 0.170E+02 -.112E+02   0.414E+02 -.173E+02 0.114E+02   0.879E+00 0.234E+00 -.189E+00   0.110E-02 -.366E-03 0.234E-03
   0.423E+02 0.170E+02 0.112E+02   -.414E+02 -.173E+02 -.114E+02   -.879E+00 0.234E+00 0.189E+00   -.110E-02 -.369E-03 -.234E-03
   0.423E+02 -.170E+02 0.112E+02   -.414E+02 0.173E+02 -.114E+02   -.879E+00 -.234E+00 0.189E+00   -.110E-02 0.362E-03 -.239E-03
   -.423E+02 -.170E+02 -.112E+02   0.414E+02 0.173E+02 0.114E+02   0.879E+00 -.234E+00 -.189E+00   0.110E-02 0.367E-03 0.238E-03
 -----------------------------------------------------------------------------------------------
   0.162E-03 0.149E-04 -.374E-04   0.355E-13 0.107E-13 0.178E-14   -.164E-03 -.124E-05 0.430E-04   -.101E-04 0.647E-06 -.501E-05
 
 
 POSITION                                       TOTAL-FORCE (eV/Angst)
 -----------------------------------------------------------------------------------
      2.67629      3.22071      6.49155        -0.004246     -0.001377      0.009377
      4.40331      7.40758      4.16334         0.004248     -0.001376     -0.009377
      4.39475      5.15301      0.60623         0.004248      0.001376     -0.009378
      2.66773      0.96615      2.93444        -0.004246      0.001375      0.009378
      0.07211      1.03895      5.25218         0.003207     -0.002311      0.003920
      7.00749      5.22581      5.40271        -0.003211     -0.002311     -0.003917
      6.99893      7.33477      1.84560        -0.003209      0.002313     -0.003918
      0.06355      3.14791      1.69507         0.003210      0.002314      0.003915
      4.37807      3.08140      4.09715         0.000518     -0.005378      0.002010
      2.70154      7.26826      6.55774        -0.000518     -0.005379     -0.002008
      2.69298      5.29232      3.00063        -0.000517      0.005376     -0.002009
      4.36951      1.10546      0.54004         0.000519      0.005378      0.002008
      1.91629      7.20881      4.25069        -0.004634      0.002752     -0.010330
      5.16332      3.02195      6.40420         0.004630      0.002752      0.010334
      5.15476      1.16492      2.84709         0.004634     -0.002753      0.010331
      1.90773      5.35178      0.69358        -0.004633     -0.002752     -0.010335
      1.98837      3.24779      4.04779         0.008296     -0.004169      0.004058
      5.09124      7.43465      6.60710        -0.008300     -0.004167     -0.004051
      5.08267      5.12593      3.04999        -0.008295      0.004168     -0.004059
      1.97981      0.93907      0.49068         0.008301      0.004169      0.004051
 -----------------------------------------------------------------------------------
    total drift:                               -0.000012      0.000014      0.000001


--------------------------------------------------------------------------------------------------------



  FREE ENERGIE OF THE ION-ELECTRON SYSTEM (eV)
  ---------------------------------------------------
  free  energy   TOTEN  =      -234.52424241 eV

  energy  without entropy=     -234.52424241  energy(sigma->0) =     -234.52424241
 


--------------------------------------------------------------------------------------------------------


    POTLOK:  cpu time    0.8887: real time    0.8951


--------------------------------------------------------------------------------------------------------




--------------------------------------------------------------------------------------------------------


    WAVPRE:  cpu time    2.3459: real time    2.4353
    FEWALD:  cpu time    0.0009: real time    0.0021
    GENKIN:  cpu time    0.0616: real time    0.0616

 real space projection operators:
  total allocation   :       6751.84 KBytes
  max/ min on nodes  :        672.72        229.09

    ORTHCH:  cpu time    0.5159: real time    0.5196
     LOOP+:  cpu time  289.6972: real time  290.2111


--------------------------------------- Iteration      2(   1)  ---------------------------------------


    POTLOK:  cpu time    0.0472: real time    0.0814
    SETDIJ:  cpu time    0.8469: real time    0.8499
     EDDAV:  cpu time   14.6525: real time   14.7377
       DOS:  cpu time    0.0048: real time    0.0049
    CHARGE:  cpu time    1.2496: real time    1.2501
    MIXING:  cpu time    0.0008: real time    0.0008
    --------------------------------------------
      LOOP:  cpu time   16.8018: real time   16.9248

 eigenvalue-minimisations  : 26464
 total energy-change (2. order) :-0.1596514E-03  (-0.4377090E-03)
 number of electron      96.0000001 magnetization      -0.0001425
 augmentation part       -1.8124501 magnetization      -0.0002941

 Broyden mixing:
  rms(total) = 0.79453E-02    rms(broyden)= 0.79453E-02
  rms(prec ) = 0.92427E-02
  weight for this iteration     100.00

 Free energy of the ion-electron system (eV)
  ---------------------------------------------------
  alpha Z        PSCENC =       209.21535714
  Ewald energy   TEWEN  =     -4017.97396408
  -Hartree energ DENC   =     -1021.26195026
  -exchange      EXHF   =         0.00000000
  -V(xc)+E(xc)   XCENC  =       139.66799378
  PAW double counting   =     12006.85084062   -11937.92739487
  entropy T*S    EENTRO =        -0.00000000
  eigenvalues    EBANDS =      -628.90858055
  atomic energy  EATOM  =      5015.81329822
  Solvation  Ediel_sol  =         0.00000000
  ---------------------------------------------------
  free energy    TOTEN  =      -234.52439999 eV

  energy without entropy =     -234.52439999  energy(sigma->0) =     -234.52439999


--------------------------------------------------------------------------------------------------------




--------------------------------------- Iteration      2(   2)  ---------------------------------------


    POTLOK:  cpu time    0.0428: real time    0.0428
    SETDIJ:  cpu time    0.8661: real time    0.8662
     EDDAV:  cpu time   16.5405: real time   16.5443
       DOS:  cpu time    0.0054: real time    0.0054
    CHARGE:  cpu time    1.2533: real time    1.2534
    MIXING:  cpu time    0.0010: real time    0.0010
    --------------------------------------------
      LOOP:  cpu time   18.7091: real time   18.7132

 eigenvalue-minimisations  : 31624
 total energy-change (2. order) : 0.1029990E-03  (-0.3659373E-04)
 number of electron      96.0000001 magnetization      -0.0000569
 augmentation part       -1.8159392 magnetization      -0.0000546

 Broyden mixing:
  rms(total) = 0.37093E-02    rms(broyden)= 0.37093E-02
  rms(prec ) = 0.45909E-02
  weight for this iteration     100.00

 eigenvalues of (default mixing * dielectric matrix)
  average eigenvalue GAMMA=   0.9519
  0.9519

 Free energy of the ion-electron system (eV)
  ---------------------------------------------------
  alpha Z        PSCENC =       209.21535714
  Ewald energy   TEWEN  =     -4017.97396408
  -Hartree energ DENC   =     -1021.47859562
  -exchange      EXHF   =         0.00000000
  -V(xc)+E(xc)   XCENC  =       139.68217100
  PAW double counting   =     11999.26516084   -11930.34165218
  entropy T*S    EENTRO =        -0.00000000
  eigenvalues    EBANDS =      -628.70607232
  atomic energy  EATOM  =      5015.81329822
  Solvation  Ediel_sol  =         0.00000000
  ---------------------------------------------------
  free energy    TOTEN  =      -234.52429700 eV

  energy without entropy =     -234.52429700  energy(sigma->0) =     -234.52429700


--------------------------------------------------------------------------------------------------------




--------------------------------------- Iteration      2(   3)  ---------------------------------------


    POTLOK:  cpu time    0.0506: real time    0.0908
    SETDIJ:  cpu time    0.8625: real time    0.8656
     EDDAV:  cpu time   13.0321: real time   13.0419
       DOS:  cpu time    0.0050: real time    0.0050
    CHARGE:  cpu time    1.2577: real time    1.2580
    MIXING:  cpu time    0.0011: real time    0.0011
    --------------------------------------------
      LOOP:  cpu time   15.2092: real time   15.2624

 eigenvalue-minimisations  : 21304
 total energy-change (2. order) : 0.2848052E-04  (-0.2770246E-05)
 number of electron      96.0000001 magnetization      -0.0000046
 augmentation part       -1.8156629 magnetization       0.0000122

 Broyden mixing:
  rms(total) = 0.17990E-02    rms(broyden)= 0.17990E-02
  rms(prec ) = 0.22134E-02
  weight for this iteration     100.00

 eigenvalues of (default mixing * dielectric matrix)
  average eigenvalue GAMMA=   1.1585
  0.8846  1.4324

 Free energy of the ion-electron system (eV)
  ---------------------------------------------------
  alpha Z        PSCENC =       209.21535714
  Ewald energy   TEWEN  =     -4017.97396408
  -Hartree energ DENC   =     -1021.60630577
  -exchange      EXHF   =         0.00000000
  -V(xc)+E(xc)   XCENC  =       139.69266090
  PAW double counting   =     11995.14351681   -11926.21045839
  entropy T*S    EENTRO =        -0.00000000
  eigenvalues    EBANDS =      -628.59837334
  atomic energy  EATOM  =      5015.81329822
  Solvation  Ediel_sol  =         0.00000000
  ---------------------------------------------------
  free energy    TOTEN  =      -234.52426852 eV

  energy without entropy =     -234.52426852  energy(sigma->0) =     -234.52426852


--------------------------------------------------------------------------------------------------------




--------------------------------------- Iteration      2(   4)  ---------------------------------------


    POTLOK:  cpu time    0.0461: real time    0.0546
    SETDIJ:  cpu time    0.8659: real time    0.8661
     EDDAV:  cpu time   11.2242: real time   11.2263
       DOS:  cpu time    0.0050: real time    0.0050
    CHARGE:  cpu time    1.2501: real time    1.2502
    MIXING:  cpu time    0.0017: real time    0.0017
    --------------------------------------------
      LOOP:  cpu time   13.3930: real time   13.4040

 eigenvalue-minimisations  : 16144
 total energy-change (2. order) :-0.8043771E-06  (-0.1618732E-05)
 number of electron      96.0000001 magnetization      -0.0000068
 augmentation part       -1.8154330 magnetization      -0.0000030

 Broyden mixing:
  rms(total) = 0.15709E-02    rms(broyden)= 0.15709E-02
  rms(prec ) = 0.15980E-02
  weight for this iteration     100.00

 eigenvalues of (default mixing * dielectric matrix)
  average eigenvalue GAMMA=   1.1633
  1.1672  1.1613  1.1613

 Free energy of the ion-electron system (eV)
  ---------------------------------------------------
  alpha Z        PSCENC =       209.21535714
  Ewald energy   TEWEN  =     -4017.97396408
  -Hartree energ DENC   =     -1021.69444394
  -exchange      EXHF   =         0.00000000
  -V(xc)+E(xc)   XCENC  =       139.69566538
  PAW double counting   =     11992.35137050   -11923.41281661
  entropy T*S    EENTRO =        -0.00000000
  eigenvalues    EBANDS =      -628.51873593
  atomic energy  EATOM  =      5015.81329822
  Solvation  Ediel_sol  =         0.00000000
  ---------------------------------------------------
  free energy    TOTEN  =      -234.52426932 eV

  energy without entropy =     -234.52426932  energy(sigma->0) =     -234.52426932


--------------------------------------------------------------------------------------------------------




--------------------------------------- Iteration      2(   5)  ---------------------------------------


    POTLOK:  cpu time    0.0435: real time    0.0440
    SETDIJ:  cpu time    0.8669: real time    0.8671
     EDDAV:  cpu time   11.2256: real time   11.2293
       DOS:  cpu time    0.0047: real time    0.0047
    CHARGE:  cpu time    1.2478: real time    1.2479
    MIXING:  cpu time    0.0011: real time    0.0011
    --------------------------------------------
      LOOP:  cpu time   13.3897: real time   13.3942

 eigenvalue-minimisations  : 16144
 total energy-change (2. order) :-0.1624471E-04  (-0.4575348E-06)
 number of electron      96.0000001 magnetization      -0.0000053
 augmentation part       -1.8151919 magnetization       0.0000093

 Broyden mixing:
  rms(total) = 0.95816E-03    rms(broyden)= 0.95816E-03
  rms(prec ) = 0.97545E-03
  weight for this iteration     100.00

 eigenvalues of (default mixing * dielectric matrix)
  average eigenvalue GAMMA=   1.3956
  1.9847  1.9847  1.0462  0.5667

 Free energy of the ion-electron system (eV)
  ---------------------------------------------------
  alpha Z        PSCENC =       209.21535714
  Ewald energy   TEWEN  =     -4017.97396408
  -Hartree energ DENC   =     -1021.69668911
  -exchange      EXHF   =         0.00000000
  -V(xc)+E(xc)   XCENC  =       139.69455143
  PAW double counting   =     11993.24828263   -11924.31107961
  entropy T*S    EENTRO =        -0.00000000
  eigenvalues    EBANDS =      -628.51404219
  atomic energy  EATOM  =      5015.81329822
  Solvation  Ediel_sol  =         0.00000000
  ---------------------------------------------------
  free energy    TOTEN  =      -234.52428556 eV

  energy without entropy =     -234.52428556  energy(sigma->0) =     -234.52428556


--------------------------------------------------------------------------------------------------------




--------------------------------------- Iteration      2(   6)  ---------------------------------------


    POTLOK:  cpu time    0.0561: real time    0.0768
    SETDIJ:  cpu time    0.8668: real time    0.8669
     EDDAV:  cpu time   11.2430: real time   11.2461
       DOS:  cpu time    0.0052: real time    0.0052
    CHARGE:  cpu time    1.2511: real time    1.2513
    MIXING:  cpu time    0.0011: real time    0.0011
    --------------------------------------------
      LOOP:  cpu time   13.4234: real time   13.4474

 eigenvalue-minimisations  : 16144
 total energy-change (2. order) :-0.1230734E-04  (-0.3046818E-06)
 number of electron      96.0000001 magnetization      -0.0000026
 augmentation part       -1.8149612 magnetization       0.0000066

 Broyden mixing:
  rms(total) = 0.44679E-03    rms(broyden)= 0.44679E-03
  rms(prec ) = 0.45666E-03
  weight for this iteration     100.00

 eigenvalues of (default mixing * dielectric matrix)
  average eigenvalue GAMMA=   1.3713
  2.2349  2.2349  1.1035  0.7345  0.5488

 Free energy of the ion-electron system (eV)
  ---------------------------------------------------
  alpha Z        PSCENC =       209.21535714
  Ewald energy   TEWEN  =     -4017.97396408
  -Hartree energ DENC   =     -1021.70017946
  -exchange      EXHF   =         0.00000000
  -V(xc)+E(xc)   XCENC  =       139.69445107
  PAW double counting   =     11993.89782622   -11924.96229835
  entropy T*S    EENTRO =        -0.00000000
  eigenvalues    EBANDS =      -628.50878864
  atomic energy  EATOM  =      5015.81329822
  Solvation  Ediel_sol  =         0.00000000
  ---------------------------------------------------
  free energy    TOTEN  =      -234.52429787 eV

  energy without entropy =     -234.52429787  energy(sigma->0) =     -234.52429787


--------------------------------------------------------------------------------------------------------




--------------------------------------- Iteration      2(   7)  ---------------------------------------


    POTLOK:  cpu time    0.0429: real time    0.0433
    SETDIJ:  cpu time    0.8672: real time    0.8674
     EDDAV:  cpu time   11.2740: real time   11.3108
       DOS:  cpu time    0.0055: real time    0.0055
    --------------------------------------------
      LOOP:  cpu time   12.1896: real time   12.2269

 eigenvalue-minimisations  : 16144
 total energy-change (2. order) :-0.4642397E-05  (-0.1992679E-06)
 number of electron      96.0000001 magnetization      -0.0000026
 augmentation part       -1.8149612 magnetization       0.0000066

 Free energy of the ion-electron system (eV)
  ---------------------------------------------------
  alpha Z        PSCENC =       209.21535714
  Ewald energy   TEWEN  =     -4017.97396408
  -Hartree energ DENC   =     -1021.70120244
  -exchange      EXHF   =         0.00000000
  -V(xc)+E(xc)   XCENC  =       139.69419660
  PAW double counting   =     11994.10004257   -11925.16597773
  entropy T*S    EENTRO =        -0.00000000
  eigenvalues    EBANDS =      -628.50605280
  atomic energy  EATOM  =      5015.81329822
  Solvation  Ediel_sol  =         0.00000000
  ---------------------------------------------------
  free energy    TOTEN  =      -234.52430251 eV

  energy without entropy =     -234.52430251  energy(sigma->0) =     -234.52430251


--------------------------------------------------------------------------------------------------------




 average (electrostatic) potential at core
  the test charge radii are     0.9748  1.1929  1.0406  0.9587
  (the norm of the test charge is              1.0000)
       1 -27.3135       2 -27.3135       3 -27.3135       4 -27.3135       5 -41.5654
       6 -41.5654       7 -41.5654       8 -41.5654       9 -79.3567      10 -79.3567
      11 -79.3567      12 -79.3567      13 -86.3214      14 -86.3214      15 -86.3214
      16 -86.3214      17 -86.2662      18 -86.2662      19 -86.2662      20 -86.2662
 
 
 
 E-fermi :   3.7148     XC(G=0):  -9.4811     alpha+bet :-11.1437


 spin component 1

 k-point     1 :       0.0000    0.0000    0.0000
  band No.  band energies     occupation 
      1     -32.3898      1.00000
      2     -32.3743      1.00000
      3     -32.3731      1.00000
      4     -32.3718      1.00000
      5     -13.9670      1.00000
      6     -13.8945      1.00000
      7     -13.8867      1.00000
      8     -13.8225      1.00000
      9     -13.8090      1.00000
     10     -13.8049      1.00000
     11     -13.7452      1.00000
     12     -13.7446      1.00000
     13     -13.7399      1.00000
     14     -13.7379      1.00000
     15     -13.6817      1.00000
     16     -13.6729      1.00000
     17      -7.6420      1.00000
     18      -6.7483      1.00000
     19      -6.5205      1.00000
     20      -6.0059      1.00000
     21      -5.9154      1.00000
     22      -5.9011      1.00000
     23      -5.8850      1.00000
     24      -5.8277      1.00000
     25      -2.0125      1.00000
     26      -1.1045      1.00000
     27      -1.1026      1.00000
     28      -0.3674      1.00000
     29       0.1853      1.00000
     30       0.3489      1.00000
     31       0.3526      1.00000
     32       0.6004      1.00000
     33       0.6008      1.00000
     34       1.2180      1.00000
     35       1.3691      1.00000
     36       1.6190      1.00000
     37       1.6824      1.00000
     38       1.8774      1.00000
     39       1.9200      1.00000
     40       2.0058      1.00000
     41       2.3583      1.00000
     42       2.3686      1.00000
     43       2.4726      1.00000
     44       2.5259      1.00000
     45       2.7806      1.00000
     46       3.3093      1.00000
     47       3.4577      1.00000
     48       3.4637      1.00000
     49       5.2954      0.00000
     50       6.3001      0.00000
     51       6.5376      0.00000
     52       6.8396      0.00000
     53       7.0013      0.00000
     54       7.1250      0.00000
     55       7.1578      0.00000
     56       7.4246      0.00000
     57       7.5436      0.00000
     58       7.6286      0.00000
     59       7.6594      0.00000
     60       7.6887      0.00000
     61       7.8115      0.00000
     62       7.8263      0.00000
     63       8.0887      0.00000
     64       8.3007      0.00000

 k-point     2 :       0.1667   -0.0000   -0.0000
  band No.  band energies     occupation 
      1     -32.3898      1.00000
      2     -32.3743      1.00000
      3     -32.3731      1.00000
      4     -32.3718      1.00000
      5     -13.9668      1.00000
      6     -13.8945      1.00000
      7     -13.8866      1.00000
      8     -13.8233      1.00000
      9     -13.8090      1.00000
     10     -13.8049      1.00000
     11     -13.7453      1.00000
     12     -13.7448      1.00000
     13     -13.7399      1.00000
     14     -13.7380      1.00000
     15     -13.6817      1.00000
     16     -13.6729      1.00000
     17      -7.5869      1.00000
     18      -6.7595      1.00000
     19      -6.5661      1.00000
     20      -6.0249      1.00000
     21      -5.9523      1.00000
     22      -5.9000      1.00000
     23      -5.8779      1.00000
     24      -5.8163      1.00000
     25      -1.9921      1.00000
     26      -1.1791      1.00000
     27      -0.9397      1.00000
     28      -0.3811      1.00000
     29       0.2105      1.00000
     30       0.2718      1.00000
     31       0.4723      1.00000
     32       0.4885      1.00000
     33       0.7775      1.00000
     34       1.1571      1.00000
     35       1.4035      1.00000
     36       1.4605      1.00000
     37       1.8269      1.00000
     38       1.9507      1.00000
     39       1.9609      1.00000
     40       2.0124      1.00000
     41       2.2988      1.00000
     42       2.4360      1.00000
     43       2.5719      1.00000
     44       2.6016      1.00000
     45       2.7702      1.00000
     46       2.9044      1.00000
     47       3.3642      1.00000
     48       3.3786      1.00000
     49       5.3145      0.00000
     50       6.3626      0.00000
     51       6.5006      0.00000
     52       6.7687      0.00000
     53       7.0093      0.00000
     54       7.0755      0.00000
     55       7.1639      0.00000
     56       7.2886      0.00000
     57       7.3312      0.00000
     58       7.5255      0.00000
     59       7.6484      0.00000
     60       7.6626      0.00000
     61       7.8372      0.00000
     62       7.8676      0.00000
     63       8.1142      0.00000
     64       8.2579      0.00000

 k-point     3 :       0.3333   -0.0000   -0.0000
  band No.  band energies     occupation 
      1     -32.3898      1.00000
      2     -32.3743      1.00000
      3     -32.3731      1.00000
      4     -32.3718      1.00000
      5     -13.9665      1.00000
      6     -13.8945      1.00000
      7     -13.8862      1.00000
      8     -13.8249      1.00000
      9     -13.8089      1.00000
     10     -13.8048      1.00000
     11     -13.7456      1.00000
     12     -13.7452      1.00000
     13     -13.7401      1.00000
     14     -13.7384      1.00000
     15     -13.6817      1.00000
     16     -13.6728      1.00000
     17      -7.4475      1.00000
     18      -6.7810      1.00000
     19      -6.6985      1.00000
     20      -6.0483      1.00000
     21      -6.0437      1.00000
     22      -5.8954      1.00000
     23      -5.8580      1.00000
     24      -5.7820      1.00000
     25      -1.9392      1.00000
     26      -1.3390      1.00000
     27      -0.5919      1.00000
     28      -0.4073      1.00000
     29       0.2535      1.00000
     30       0.3413      1.00000
     31       0.4652      1.00000
     32       0.5883      1.00000
     33       0.9586      1.00000
     34       1.0568      1.00000
     35       1.2755      1.00000
     36       1.6248      1.00000
     37       1.7407      1.00000
     38       1.9426      1.00000
     39       1.9702      1.00000
     40       1.9966      1.00000
     41       2.1530      1.00000
     42       2.4381      1.00000
     43       2.6803      1.00000
     44       2.7048      1.00000
     45       2.7553      1.00000
     46       2.8124      1.00000
     47       3.1448      1.00000
     48       3.1739      1.00000
     49       5.4069      0.00000
     50       6.2014      0.00000
     51       6.2887      0.00000
     52       6.5851      0.00000
     53       6.7391      0.00000
     54       6.8169      0.00000
     55       6.9781      0.00000
     56       7.0266      0.00000
     57       7.2668      0.00000
     58       7.3923      0.00000
     59       7.7947      0.00000
     60       7.8172      0.00000
     61       7.8379      0.00000
     62       8.1872      0.00000
     63       8.3657      0.00000
     64       8.4155      0.00000

 k-point     4 :       0.5000   -0.0000    0.0000
  band No.  band energies     occupation 
      1     -32.3898      1.00000
      2     -32.3743      1.00000
      3     -32.3731      1.00000
      4     -32.3718      1.00000
      5     -13.9664      1.00000
      6     -13.8945      1.00000
      7     -13.8861      1.00000
      8     -13.8257      1.00000
      9     -13.8088      1.00000
     10     -13.8048      1.00000
     11     -13.7457      1.00000
     12     -13.7454      1.00000
     13     -13.7401      1.00000
     14     -13.7385      1.00000
     15     -13.6817      1.00000
     16     -13.6728      1.00000
     17      -7.3473      1.00000
     18      -6.8019      1.00000
     19      -6.7914      1.00000
     20      -6.0816      1.00000
     21      -6.0569      1.00000
     22      -5.8922      1.00000
     23      -5.8536      1.00000
     24      -5.7627      1.00000
     25      -1.9017      1.00000
     26      -1.4276      1.00000
     27      -0.4256      1.00000
     28      -0.4234      1.00000
     29       0.2661      1.00000
     30       0.4826      1.00000
     31       0.5713      1.00000
     32       0.6332      1.00000
     33       1.0010      1.00000
     34       1.0346      1.00000
     35       1.2502      1.00000
     36       1.4339      1.00000
     37       1.6893      1.00000
     38       1.8008      1.00000
     39       1.9181      1.00000
     40       1.9250      1.00000
     41       2.2122      1.00000
     42       2.4320      1.00000
     43       2.8323      1.00000
     44       2.8406      1.00000
     45       2.8990      1.00000
     46       2.9095      1.00000
     47       2.9172      1.00000
     48       2.9721      1.00000
     49       5.5556      0.00000
     50       6.1401      0.00000
     51       6.2063      0.00000
     52       6.2466      0.00000
     53       6.5163      0.00000
     54       6.7349      0.00000
     55       6.8059      0.00000
     56       6.9739      0.00000
     57       7.1723      0.00000
     58       7.3115      0.00000
     59       7.6299      0.00000
     60       7.9443      0.00000
     61       8.1947      0.00000
     62       8.3260      0.00000
     63       8.4995      0.00000
     64       8.5484      0.00000

 k-point     5 :      -0.0000    0.2000   -0.0000
  band No.  band energies     occupation 
      1     -32.3887      1.00000
      2     -32.3773      1.00000
      3     -32.3716      1.00000
      4     -32.3716      1.00000
      5     -13.9585      1.00000
      6     -13.8822      1.00000
      7     -13.8670      1.00000
      8     -13.8519      1.00000
      9     -13.8157      1.00000
     10     -13.7727      1.00000
     11     -13.7575      1.00000
     12     -13.7568      1.00000
     13     -13.7364      1.00000
     14     -13.7337      1.00000
     15     -13.6901      1.00000
     16     -13.6863      1.00000
     17      -7.5872      1.00000
     18      -6.9338      1.00000
     19      -6.3717      1.00000
     20      -5.9888      1.00000
     21      -5.9506      1.00000
     22      -5.9129      1.00000
     23      -5.8703      1.00000
     24      -5.8355      1.00000
     25      -1.9353      1.00000
     26      -1.2163      1.00000
     27      -1.0225      1.00000
     28      -0.3237      1.00000
     29      -0.0444      1.00000
     30       0.3028      1.00000
     31       0.5737      1.00000
     32       0.6700      1.00000
     33       0.7256      1.00000
     34       1.2004      1.00000
     35       1.3776      1.00000
     36       1.6162      1.00000
     37       1.6659      1.00000
     38       1.8199      1.00000
     39       1.9225      1.00000
     40       2.0253      1.00000
     41       2.3016      1.00000
     42       2.3737      1.00000
     43       2.4415      1.00000
     44       2.4816      1.00000
     45       2.8122      1.00000
     46       3.1000      1.00000
     47       3.2094      1.00000
     48       3.3633      1.00000
     49       5.6863      0.00000
     50       6.3632      0.00000
     51       6.5683      0.00000
     52       6.7187      0.00000
     53       7.0069      0.00000
     54       7.1434      0.00000
     55       7.2927      0.00000
     56       7.3780      0.00000
     57       7.6103      0.00000
     58       7.7281      0.00000
     59       7.8216      0.00000
     60       7.9051      0.00000
     61       7.9930      0.00000
     62       8.0866      0.00000
     63       8.1155      0.00000
     64       8.3154      0.00000

 k-point     6 :       0.1667    0.2000   -0.0000
  band No.  band energies     occupation 
      1     -32.3887      1.00000
      2     -32.3773      1.00000
      3     -32.3716      1.00000
      4     -32.3716      1.00000
      5     -13.9584      1.00000
      6     -13.8822      1.00000
      7     -13.8669      1.00000
      8     -13.8518      1.00000
      9     -13.8164      1.00000
     10     -13.7729      1.00000
     11     -13.7576      1.00000
     12     -13.7568      1.00000
     13     -13.7366      1.00000
     14     -13.7338      1.00000
     15     -13.6901      1.00000
     16     -13.6863      1.00000
     17      -7.5359      1.00000
     18      -6.9334      1.00000
     19      -6.4193      1.00000
     20      -6.0159      1.00000
     21      -5.9627      1.00000
     22      -5.9128      1.00000
     23      -5.8876      1.00000
     24      -5.8244      1.00000
     25      -1.9148      1.00000
     26      -1.2685      1.00000
     27      -0.8703      1.00000
     28      -0.3282      1.00000
     29       0.0012      1.00000
     30       0.3247      1.00000
     31       0.4921      1.00000
     32       0.7076      1.00000
     33       0.8267      1.00000
     34       1.1486      1.00000
     35       1.3987      1.00000
     36       1.5447      1.00000
     37       1.7110      1.00000
     38       1.8354      1.00000
     39       1.9452      1.00000
     40       2.1069      1.00000
     41       2.2970      1.00000
     42       2.4072      1.00000
     43       2.4800      1.00000
     44       2.5591      1.00000
     45       2.7155      1.00000
     46       2.7844      1.00000
     47       3.1683      1.00000
     48       3.3117      1.00000
     49       5.6687      0.00000
     50       6.3819      0.00000
     51       6.5356      0.00000
     52       6.8279      0.00000
     53       6.9152      0.00000
     54       7.0473      0.00000
     55       7.3038      0.00000
     56       7.3139      0.00000
     57       7.4645      0.00000
     58       7.5814      0.00000
     59       7.7175      0.00000
     60       7.7637      0.00000
     61       7.9066      0.00000
     62       8.0091      0.00000
     63       8.1610      0.00000
     64       8.3710      0.00000

 k-point     7 :      -0.1667    0.2000   -0.0000
  band No.  band energies     occupation 
      1     -32.3887      1.00000
      2     -32.3773      1.00000
      3     -32.3716      1.00000
      4     -32.3716      1.00000
      5     -13.9584      1.00000
      6     -13.8822      1.00000
      7     -13.8669      1.00000
      8     -13.8518      1.00000
      9     -13.8164      1.00000
     10     -13.7729      1.00000
     11     -13.7576      1.00000
     12     -13.7568      1.00000
     13     -13.7366      1.00000
     14     -13.7338      1.00000
     15     -13.6901      1.00000
     16     -13.6863      1.00000
     17      -7.5359      1.00000
     18      -6.9334      1.00000
     19      -6.4193      1.00000
     20      -6.0159      1.00000
     21      -5.9627      1.00000
     22      -5.9128      1.00000
     23      -5.8876      1.00000
     24      -5.8244      1.00000
     25      -1.9148      1.00000
     26      -1.2685      1.00000
     27      -0.8703      1.00000
     28      -0.3282      1.00000
     29       0.0012      1.00000
     30       0.3247      1.00000
     31       0.4921      1.00000
     32       0.7076      1.00000
     33       0.8267      1.00000
     34       1.1486      1.00000
     35       1.3987      1.00000
     36       1.5447      1.00000
     37       1.7110      1.00000
     38       1.8354      1.00000
     39       1.9452      1.00000
     40       2.1069      1.00000
     41       2.2970      1.00000
     42       2.4072      1.00000
     43       2.4800      1.00000
     44       2.5591      1.00000
     45       2.7155      1.00000
     46       2.7844      1.00000
     47       3.1683      1.00000
     48       3.3117      1.00000
     49       5.6687      0.00000
     50       6.3819      0.00000
     51       6.5356      0.00000
     52       6.8279      0.00000
     53       6.9152      0.00000
     54       7.0473      0.00000
     55       7.3038      0.00000
     56       7.3139      0.00000
     57       7.4645      0.00000
     58       7.5814      0.00000
     59       7.7175      0.00000
     60       7.7637      0.00000
     61       7.9066      0.00000
     62       8.0091      0.00000
     63       8.1610      0.00000
     64       8.3639      0.00000

 k-point     8 :       0.3333    0.2000    0.0000
  band No.  band energies     occupation 
      1     -32.3887      1.00000
      2     -32.3773      1.00000
      3     -32.3716      1.00000
      4     -32.3716      1.00000
      5     -13.9581      1.00000
      6     -13.8821      1.00000
      7     -13.8668      1.00000
      8     -13.8517      1.00000
      9     -13.8178      1.00000
     10     -13.7732      1.00000
     11     -13.7579      1.00000
     12     -13.7568      1.00000
     13     -13.7369      1.00000
     14     -13.7341      1.00000
     15     -13.6901      1.00000
     16     -13.6863      1.00000
     17      -7.4079      1.00000
     18      -6.9413      1.00000
     19      -6.5397      1.00000
     20      -6.0715      1.00000
     21      -5.9804      1.00000
     22      -5.9596      1.00000
     23      -5.8782      1.00000
     24      -5.7914      1.00000
     25      -1.8631      1.00000
     26      -1.3827      1.00000
     27      -0.5470      1.00000
     28      -0.3452      1.00000
     29       0.1296      1.00000
     30       0.4183      1.00000
     31       0.4932      1.00000
     32       0.6764      1.00000
     33       0.9660      1.00000
     34       1.0917      1.00000
     35       1.3544      1.00000
     36       1.5302      1.00000
     37       1.7336      1.00000
     38       1.7766      1.00000
     39       2.0080      1.00000
     40       2.0804      1.00000
     41       2.1773      1.00000
     42       2.3820      1.00000
     43       2.4929      1.00000
     44       2.5937      1.00000
     45       2.7034      1.00000
     46       2.7788      1.00000
     47       2.9380      1.00000
     48       3.1763      1.00000
     49       5.6698      0.00000
     50       6.2405      0.00000
     51       6.4578      0.00000
     52       6.7160      0.00000
     53       6.8140      0.00000
     54       6.8652      0.00000
     55       7.0003      0.00000
     56       7.0701      0.00000
     57       7.3619      0.00000
     58       7.6041      0.00000
     59       7.7390      0.00000
     60       7.8757      0.00000
     61       7.9373      0.00000
     62       7.9952      0.00000
     63       8.3031      0.00000
     64       8.3845      0.00000

 k-point     9 :      -0.3333    0.2000   -0.0000
  band No.  band energies     occupation 
      1     -32.3887      1.00000
      2     -32.3773      1.00000
      3     -32.3716      1.00000
      4     -32.3716      1.00000
      5     -13.9581      1.00000
      6     -13.8821      1.00000
      7     -13.8668      1.00000
      8     -13.8517      1.00000
      9     -13.8178      1.00000
     10     -13.7732      1.00000
     11     -13.7579      1.00000
     12     -13.7568      1.00000
     13     -13.7369      1.00000
     14     -13.7341      1.00000
     15     -13.6901      1.00000
     16     -13.6863      1.00000
     17      -7.4079      1.00000
     18      -6.9413      1.00000
     19      -6.5397      1.00000
     20      -6.0715      1.00000
     21      -5.9804      1.00000
     22      -5.9596      1.00000
     23      -5.8782      1.00000
     24      -5.7914      1.00000
     25      -1.8631      1.00000
     26      -1.3827      1.00000
     27      -0.5470      1.00000
     28      -0.3452      1.00000
     29       0.1296      1.00000
     30       0.4183      1.00000
     31       0.4932      1.00000
     32       0.6764      1.00000
     33       0.9660      1.00000
     34       1.0917      1.00000
     35       1.3544      1.00000
     36       1.5302      1.00000
     37       1.7336      1.00000
     38       1.7766      1.00000
     39       2.0080      1.00000
     40       2.0804      1.00000
     41       2.1773      1.00000
     42       2.3820      1.00000
     43       2.4929      1.00000
     44       2.5937      1.00000
     45       2.7034      1.00000
     46       2.7788      1.00000
     47       2.9380      1.00000
     48       3.1763      1.00000
     49       5.6698      0.00000
     50       6.2405      0.00000
     51       6.4578      0.00000
     52       6.7160      0.00000
     53       6.8140      0.00000
     54       6.8652      0.00000
     55       7.0003      0.00000
     56       7.0701      0.00000
     57       7.3619      0.00000
     58       7.6041      0.00000
     59       7.7390      0.00000
     60       7.8757      0.00000
     61       7.9373      0.00000
     62       7.9952      0.00000
     63       8.3031      0.00000
     64       8.3835      0.00000

 k-point    10 :       0.5000    0.2000   -0.0000
  band No.  band energies     occupation 
      1     -32.3887      1.00000
      2     -32.3773      1.00000
      3     -32.3716      1.00000
      4     -32.3716      1.00000
      5     -13.9579      1.00000
      6     -13.8820      1.00000
      7     -13.8667      1.00000
      8     -13.8516      1.00000
      9     -13.8185      1.00000
     10     -13.7733      1.00000
     11     -13.7581      1.00000
     12     -13.7568      1.00000
     13     -13.7371      1.00000
     14     -13.7343      1.00000
     15     -13.6900      1.00000
     16     -13.6863      1.00000
     17      -7.3185      1.00000
     18      -6.9591      1.00000
     19      -6.6167      1.00000
     20      -6.0950      1.00000
     21      -5.9856      1.00000
     22      -5.9835      1.00000
     23      -5.8752      1.00000
     24      -5.7737      1.00000
     25      -1.8274      1.00000
     26      -1.4492      1.00000
     27      -0.3794      1.00000
     28      -0.3670      1.00000
     29       0.2255      1.00000
     30       0.5042      1.00000
     31       0.6289      1.00000
     32       0.6486      1.00000
     33       0.9229      1.00000
     34       1.1111      1.00000
     35       1.3573      1.00000
     36       1.4294      1.00000
     37       1.5072      1.00000
     38       1.7918      1.00000
     39       2.0231      1.00000
     40       2.0376      1.00000
     41       2.1353      1.00000
     42       2.3755      1.00000
     43       2.5746      1.00000
     44       2.6854      1.00000
     45       2.7345      1.00000
     46       2.7788      1.00000
     47       2.9459      1.00000
     48       2.9904      1.00000
     49       5.7344      0.00000
     50       6.2279      0.00000
     51       6.4132      0.00000
     52       6.4375      0.00000
     53       6.5599      0.00000
     54       6.8014      0.00000
     55       6.9177      0.00000
     56       6.9313      0.00000
     57       7.4086      0.00000
     58       7.5258      0.00000
     59       7.8148      0.00000
     60       7.9151      0.00000
     61       8.2454      0.00000
     62       8.2532      0.00000
     63       8.4225      0.00000
     64       8.5048      0.00000

 k-point    11 :      -0.0000    0.4000   -0.0000
  band No.  band energies     occupation 
      1     -32.3856      1.00000
      2     -32.3815      1.00000
      3     -32.3711      1.00000
      4     -32.3709      1.00000
      5     -13.9338      1.00000
      6     -13.8964      1.00000
      7     -13.8460      1.00000
      8     -13.8230      1.00000
      9     -13.7994      1.00000
     10     -13.7936      1.00000
     11     -13.7869      1.00000
     12     -13.7535      1.00000
     13     -13.7332      1.00000
     14     -13.7312      1.00000
     15     -13.7157      1.00000
     16     -13.6998      1.00000
     17      -7.4314      1.00000
     18      -7.1996      1.00000
     19      -6.1917      1.00000
     20      -6.0482      1.00000
     21      -5.9512      1.00000
     22      -5.9245      1.00000
     23      -5.8611      1.00000
     24      -5.8515      1.00000
     25      -1.7284      1.00000
     26      -1.4589      1.00000
     27      -0.7979      1.00000
     28      -0.4978      1.00000
     29      -0.0647      1.00000
     30       0.1331      1.00000
     31       0.7752      1.00000
     32       0.8021      1.00000
     33       1.0726      1.00000
     34       1.2616      1.00000
     35       1.4003      1.00000
     36       1.4603      1.00000
     37       1.5682      1.00000
     38       1.6735      1.00000
     39       1.9651      1.00000
     40       2.1598      1.00000
     41       2.2864      1.00000
     42       2.3075      1.00000
     43       2.3257      1.00000
     44       2.4750      1.00000
     45       2.5789      1.00000
     46       2.8832      1.00000
     47       2.9999      1.00000
     48       3.2070      1.00000
     49       6.4383      0.00000
     50       6.5124      0.00000
     51       6.5165      0.00000
     52       6.7011      0.00000
     53       6.8091      0.00000
     54       7.1353      0.00000
     55       7.3848      0.00000
     56       7.5563      0.00000
     57       7.6800      0.00000
     58       7.7809      0.00000
     59       7.8757      0.00000
     60       7.8789      0.00000
     61       7.9839      0.00000
     62       8.0480      0.00000
     63       8.3571      0.00000
     64       8.5007      0.00000

 k-point    12 :       0.1667    0.4000    0.0000
  band No.  band energies     occupation 
      1     -32.3856      1.00000
      2     -32.3815      1.00000
      3     -32.3711      1.00000
      4     -32.3709      1.00000
      5     -13.9337      1.00000
      6     -13.8963      1.00000
      7     -13.8460      1.00000
      8     -13.8232      1.00000
      9     -13.7994      1.00000
     10     -13.7939      1.00000
     11     -13.7873      1.00000
     12     -13.7535      1.00000
     13     -13.7334      1.00000
     14     -13.7313      1.00000
     15     -13.7156      1.00000
     16     -13.6998      1.00000
     17      -7.3913      1.00000
     18      -7.1776      1.00000
     19      -6.2349      1.00000
     20      -6.0767      1.00000
     21      -5.9759      1.00000
     22      -5.9281      1.00000
     23      -5.8765      1.00000
     24      -5.8443      1.00000
     25      -1.7150      1.00000
     26      -1.4713      1.00000
     27      -0.6840      1.00000
     28      -0.4454      1.00000
     29      -0.0087      1.00000
     30       0.1739      1.00000
     31       0.7203      1.00000
     32       0.8958      1.00000
     33       1.0334      1.00000
     34       1.2817      1.00000
     35       1.3271      1.00000
     36       1.4623      1.00000
     37       1.5668      1.00000
     38       1.6886      1.00000
     39       1.9444      1.00000
     40       2.1403      1.00000
     41       2.1584      1.00000
     42       2.3549      1.00000
     43       2.3673      1.00000
     44       2.4786      1.00000
     45       2.5901      1.00000
     46       2.8930      1.00000
     47       2.9375      1.00000
     48       3.0822      1.00000
     49       6.3327      0.00000
     50       6.4583      0.00000
     51       6.6081      0.00000
     52       6.6805      0.00000
     53       6.7900      0.00000
     54       7.0361      0.00000
     55       7.2388      0.00000
     56       7.4251      0.00000
     57       7.5996      0.00000
     58       7.6903      0.00000
     59       7.8033      0.00000
     60       7.9921      0.00000
     61       8.1141      0.00000
     62       8.2043      0.00000
     63       8.3032      0.00000
     64       8.4285      0.00000

 k-point    13 :      -0.1667    0.4000    0.0000
  band No.  band energies     occupation 
      1     -32.3856      1.00000
      2     -32.3815      1.00000
      3     -32.3711      1.00000
      4     -32.3709      1.00000
      5     -13.9337      1.00000
      6     -13.8963      1.00000
      7     -13.8460      1.00000
      8     -13.8232      1.00000
      9     -13.7994      1.00000
     10     -13.7939      1.00000
     11     -13.7873      1.00000
     12     -13.7535      1.00000
     13     -13.7334      1.00000
     14     -13.7313      1.00000
     15     -13.7156      1.00000
     16     -13.6998      1.00000
     17      -7.3913      1.00000
     18      -7.1776      1.00000
     19      -6.2349      1.00000
     20      -6.0767      1.00000
     21      -5.9759      1.00000
     22      -5.9281      1.00000
     23      -5.8765      1.00000
     24      -5.8443      1.00000
     25      -1.7150      1.00000
     26      -1.4713      1.00000
     27      -0.6840      1.00000
     28      -0.4454      1.00000
     29      -0.0087      1.00000
     30       0.1739      1.00000
     31       0.7203      1.00000
     32       0.8958      1.00000
     33       1.0334      1.00000
     34       1.2817      1.00000
     35       1.3271      1.00000
     36       1.4623      1.00000
     37       1.5668      1.00000
     38       1.6886      1.00000
     39       1.9444      1.00000
     40       2.1403      1.00000
     41       2.1584      1.00000
     42       2.3549      1.00000
     43       2.3673      1.00000
     44       2.4786      1.00000
     45       2.5901      1.00000
     46       2.8930      1.00000
     47       2.9375      1.00000
     48       3.0822      1.00000
     49       6.3327      0.00000
     50       6.4583      0.00000
     51       6.6081      0.00000
     52       6.6805      0.00000
     53       6.7900      0.00000
     54       7.0361      0.00000
     55       7.2388      0.00000
     56       7.4251      0.00000
     57       7.5996      0.00000
     58       7.6903      0.00000
     59       7.8033      0.00000
     60       7.9921      0.00000
     61       8.1141      0.00000
     62       8.2043      0.00000
     63       8.3032      0.00000
     64       8.4275      0.00000

 k-point    14 :       0.3333    0.4000    0.0000
  band No.  band energies     occupation 
      1     -32.3856      1.00000
      2     -32.3815      1.00000
      3     -32.3711      1.00000
      4     -32.3709      1.00000
      5     -13.9334      1.00000
      6     -13.8960      1.00000
      7     -13.8459      1.00000
      8     -13.8237      1.00000
      9     -13.7995      1.00000
     10     -13.7946      1.00000
     11     -13.7880      1.00000
     12     -13.7535      1.00000
     13     -13.7336      1.00000
     14     -13.7316      1.00000
     15     -13.7156      1.00000
     16     -13.6998      1.00000
     17      -7.2962      1.00000
     18      -7.1317      1.00000
     19      -6.3408      1.00000
     20      -6.1435      1.00000
     21      -6.0227      1.00000
     22      -5.9466      1.00000
     23      -5.8877      1.00000
     24      -5.8257      1.00000
     25      -1.6832      1.00000
     26      -1.5012      1.00000
     27      -0.4443      1.00000
     28      -0.3434      1.00000
     29       0.1365      1.00000
     30       0.2907      1.00000
     31       0.7252      1.00000
     32       0.9072      1.00000
     33       1.0581      1.00000
     34       1.1290      1.00000
     35       1.3013      1.00000
     36       1.4500      1.00000
     37       1.4957      1.00000
     38       1.7291      1.00000
     39       1.9039      1.00000
     40       2.0261      1.00000
     41       2.1708      1.00000
     42       2.2995      1.00000
     43       2.4340      1.00000
     44       2.5564      1.00000
     45       2.6229      1.00000
     46       2.7255      1.00000
     47       2.7913      1.00000
     48       2.9639      1.00000
     49       6.1388      0.00000
     50       6.3497      0.00000
     51       6.6148      0.00000
     52       6.6992      0.00000
     53       6.7701      0.00000
     54       6.9613      0.00000
     55       7.1235      0.00000
     56       7.2487      0.00000
     57       7.4632      0.00000
     58       7.6455      0.00000
     59       7.8920      0.00000
     60       8.0101      0.00000
     61       8.1117      0.00000
     62       8.1860      0.00000
     63       8.4465      0.00000
     64       8.5035      0.00000

 k-point    15 :      -0.3333    0.4000    0.0000
  band No.  band energies     occupation 
      1     -32.3856      1.00000
      2     -32.3815      1.00000
      3     -32.3711      1.00000
      4     -32.3709      1.00000
      5     -13.9334      1.00000
      6     -13.8960      1.00000
      7     -13.8459      1.00000
      8     -13.8237      1.00000
      9     -13.7995      1.00000
     10     -13.7946      1.00000
     11     -13.7880      1.00000
     12     -13.7535      1.00000
     13     -13.7336      1.00000
     14     -13.7316      1.00000
     15     -13.7156      1.00000
     16     -13.6998      1.00000
     17      -7.2962      1.00000
     18      -7.1317      1.00000
     19      -6.3408      1.00000
     20      -6.1435      1.00000
     21      -6.0227      1.00000
     22      -5.9466      1.00000
     23      -5.8877      1.00000
     24      -5.8257      1.00000
     25      -1.6832      1.00000
     26      -1.5012      1.00000
     27      -0.4443      1.00000
     28      -0.3434      1.00000
     29       0.1365      1.00000
     30       0.2907      1.00000
     31       0.7252      1.00000
     32       0.9072      1.00000
     33       1.0581      1.00000
     34       1.1290      1.00000
     35       1.3013      1.00000
     36       1.4500      1.00000
     37       1.4957      1.00000
     38       1.7291      1.00000
     39       1.9039      1.00000
     40       2.0261      1.00000
     41       2.1708      1.00000
     42       2.2995      1.00000
     43       2.4340      1.00000
     44       2.5564      1.00000
     45       2.6229      1.00000
     46       2.7255      1.00000
     47       2.7913      1.00000
     48       2.9639      1.00000
     49       6.1388      0.00000
     50       6.3497      0.00000
     51       6.6148      0.00000
     52       6.6992      0.00000
     53       6.7701      0.00000
     54       6.9613      0.00000
     55       7.1235      0.00000
     56       7.2487      0.00000
     57       7.4632      0.00000
     58       7.6455      0.00000
     59       7.8920      0.00000
     60       8.0101      0.00000
     61       8.1117      0.00000
     62       8.1860      0.00000
     63       8.4462      0.00000
     64       8.5036      0.00000

 k-point    16 :       0.5000    0.4000    0.0000
  band No.  band energies     occupation 
      1     -32.3856      1.00000
      2     -32.3815      1.00000
      3     -32.3711      1.00000
      4     -32.3709      1.00000
      5     -13.9333      1.00000
      6     -13.8959      1.00000
      7     -13.8459      1.00000
      8     -13.8239      1.00000
      9     -13.7996      1.00000
     10     -13.7949      1.00000
     11     -13.7884      1.00000
     12     -13.7535      1.00000
     13     -13.7338      1.00000
     14     -13.7317      1.00000
     15     -13.7155      1.00000
     16     -13.6997      1.00000
     17      -7.2356      1.00000
     18      -7.1099      1.00000
     19      -6.4067      1.00000
     20      -6.1796      1.00000
     21      -6.0459      1.00000
     22      -5.9542      1.00000
     23      -5.8904      1.00000
     24      -5.8159      1.00000
     25      -1.6627      1.00000
     26      -1.5208      1.00000
     27      -0.3144      1.00000
     28      -0.3012      1.00000
     29       0.2385      1.00000
     30       0.3853      1.00000
     31       0.7856      1.00000
     32       0.8427      1.00000
     33       0.9906      1.00000
     34       1.1628      1.00000
     35       1.2442      1.00000
     36       1.3408      1.00000
     37       1.4927      1.00000
     38       1.7411      1.00000
     39       1.8986      1.00000
     40       2.0941      1.00000
     41       2.1692      1.00000
     42       2.2154      1.00000
     43       2.3687      1.00000
     44       2.5886      1.00000
     45       2.6527      1.00000
     46       2.6965      1.00000
     47       2.7273      1.00000
     48       2.8991      1.00000
     49       6.0433      0.00000
     50       6.2452      0.00000
     51       6.6169      0.00000
     52       6.7030      0.00000
     53       6.7890      0.00000
     54       6.9924      0.00000
     55       7.0262      0.00000
     56       7.1678      0.00000
     57       7.5356      0.00000
     58       7.7820      0.00000
     59       7.8859      0.00000
     60       7.9306      0.00000
     61       8.1768      0.00000
     62       8.2299      0.00000
     63       8.3071      0.00000
     64       8.3767      0.00000

 k-point    17 :      -0.0000   -0.0000    0.1667
  band No.  band energies     occupation 
      1     -32.3886      1.00000
      2     -32.3748      1.00000
      3     -32.3732      1.00000
      4     -32.3725      1.00000
      5     -13.9501      1.00000
      6     -13.9145      1.00000
      7     -13.9084      1.00000
      8     -13.8211      1.00000
      9     -13.7851      1.00000
     10     -13.7826      1.00000
     11     -13.7456      1.00000
     12     -13.7442      1.00000
     13     -13.7425      1.00000
     14     -13.7369      1.00000
     15     -13.6996      1.00000
     16     -13.6769      1.00000
     17      -7.5876      1.00000
     18      -6.8050      1.00000
     19      -6.4833      1.00000
     20      -6.0467      1.00000
     21      -5.9405      1.00000
     22      -5.9251      1.00000
     23      -5.8752      1.00000
     24      -5.8383      1.00000
     25      -1.8844      1.00000
     26      -1.0801      1.00000
     27      -1.0401      1.00000
     28      -0.4804      1.00000
     29       0.0819      1.00000
     30       0.1537      1.00000
     31       0.5073      1.00000
     32       0.7585      1.00000
     33       0.8435      1.00000
     34       1.1663      1.00000
     35       1.4197      1.00000
     36       1.5288      1.00000
     37       1.7460      1.00000
     38       1.8954      1.00000
     39       1.9862      1.00000
     40       2.0263      1.00000
     41       2.3347      1.00000
     42       2.3380      1.00000
     43       2.5217      1.00000
     44       2.5253      1.00000
     45       2.6904      1.00000
     46       3.0453      1.00000
     47       3.2588      1.00000
     48       3.3614      1.00000
     49       5.3727      0.00000
     50       6.1702      0.00000
     51       6.2888      0.00000
     52       6.4351      0.00000
     53       6.7857      0.00000
     54       7.1790      0.00000
     55       7.3662      0.00000
     56       7.6302      0.00000
     57       7.6838      0.00000
     58       7.7406      0.00000
     59       7.7456      0.00000
     60       7.9025      0.00000
     61       7.9097      0.00000
     62       7.9989      0.00000
     63       8.3493      0.00000
     64       8.3926      0.00000

 k-point    18 :       0.1667   -0.0000    0.1667
  band No.  band energies     occupation 
      1     -32.3886      1.00000
      2     -32.3748      1.00000
      3     -32.3732      1.00000
      4     -32.3725      1.00000
      5     -13.9500      1.00000
      6     -13.9146      1.00000
      7     -13.9083      1.00000
      8     -13.8217      1.00000
      9     -13.7851      1.00000
     10     -13.7825      1.00000
     11     -13.7457      1.00000
     12     -13.7444      1.00000
     13     -13.7427      1.00000
     14     -13.7369      1.00000
     15     -13.6996      1.00000
     16     -13.6769      1.00000
     17      -7.5293      1.00000
     18      -6.7922      1.00000
     19      -6.5314      1.00000
     20      -6.0191      1.00000
     21      -5.9610      1.00000
     22      -5.9566      1.00000
     23      -5.9085      1.00000
     24      -5.8644      1.00000
     25      -1.8251      1.00000
     26      -1.0672      1.00000
     27      -0.9460      1.00000
     28      -0.4944      1.00000
     29       0.2260      1.00000
     30       0.2421      1.00000
     31       0.5658      1.00000
     32       0.7291      1.00000
     33       0.7354      1.00000
     34       1.0806      1.00000
     35       1.5567      1.00000
     36       1.6124      1.00000
     37       1.6416      1.00000
     38       1.9089      1.00000
     39       1.9199      1.00000
     40       2.0659      1.00000
     41       2.2700      1.00000
     42       2.3041      1.00000
     43       2.5125      1.00000
     44       2.5611      1.00000
     45       2.6640      1.00000
     46       2.7025      1.00000
     47       3.1963      1.00000
     48       3.3717      1.00000
     49       5.3783      0.00000
     50       6.2168      0.00000
     51       6.3180      0.00000
     52       6.5956      0.00000
     53       6.8314      0.00000
     54       6.8988      0.00000
     55       7.2465      0.00000
     56       7.5132      0.00000
     57       7.5919      0.00000
     58       7.7227      0.00000
     59       7.7248      0.00000
     60       7.8044      0.00000
     61       7.9115      0.00000
     62       8.1246      0.00000
     63       8.2257      0.00000
     64       8.3098      0.00000

 k-point    19 :       0.3333    0.0000    0.1667
  band No.  band energies     occupation 
      1     -32.3886      1.00000
      2     -32.3748      1.00000
      3     -32.3732      1.00000
      4     -32.3725      1.00000
      5     -13.9497      1.00000
      6     -13.9144      1.00000
      7     -13.9079      1.00000
      8     -13.8233      1.00000
      9     -13.7851      1.00000
     10     -13.7825      1.00000
     11     -13.7460      1.00000
     12     -13.7448      1.00000
     13     -13.7432      1.00000
     14     -13.7369      1.00000
     15     -13.6995      1.00000
     16     -13.6769      1.00000
     17      -7.3964      1.00000
     18      -6.8085      1.00000
     19      -6.6706      1.00000
     20      -6.0770      1.00000
     21      -6.0124      1.00000
     22      -5.9194      1.00000
     23      -5.8905      1.00000
     24      -5.8454      1.00000
     25      -1.7908      1.00000
     26      -1.2318      1.00000
     27      -0.6832      1.00000
     28      -0.5089      1.00000
     29       0.3019      1.00000
     30       0.3515      1.00000
     31       0.5991      1.00000
     32       0.7722      1.00000
     33       0.7811      1.00000
     34       1.0625      1.00000
     35       1.3651      1.00000
     36       1.7057      1.00000
     37       1.7516      1.00000
     38       1.7953      1.00000
     39       1.9626      1.00000
     40       2.0139      1.00000
     41       2.1870      1.00000
     42       2.4300      1.00000
     43       2.5569      1.00000
     44       2.6012      1.00000
     45       2.6813      1.00000
     46       2.7890      1.00000
     47       2.9450      1.00000
     48       3.2127      1.00000
     49       5.4506      0.00000
     50       6.1085      0.00000
     51       6.2312      0.00000
     52       6.5712      0.00000
     53       6.7248      0.00000
     54       6.8523      0.00000
     55       6.9281      0.00000
     56       7.1483      0.00000
     57       7.3906      0.00000
     58       7.4959      0.00000
     59       7.5682      0.00000
     60       7.7194      0.00000
     61       7.9807      0.00000
     62       8.0860      0.00000
     63       8.1656      0.00000
     64       8.3121      0.00000

 k-point    20 :       0.5000   -0.0000    0.1667
  band No.  band energies     occupation 
      1     -32.3886      1.00000
      2     -32.3748      1.00000
      3     -32.3732      1.00000
      4     -32.3725      1.00000
      5     -13.9496      1.00000
      6     -13.9142      1.00000
      7     -13.9077      1.00000
      8     -13.8242      1.00000
      9     -13.7850      1.00000
     10     -13.7825      1.00000
     11     -13.7462      1.00000
     12     -13.7449      1.00000
     13     -13.7435      1.00000
     14     -13.7370      1.00000
     15     -13.6994      1.00000
     16     -13.6769      1.00000
     17      -7.3160      1.00000
     18      -6.8356      1.00000
     19      -6.7532      1.00000
     20      -6.1174      1.00000
     21      -6.0881      1.00000
     22      -5.8664      1.00000
     23      -5.8411      1.00000
     24      -5.7988      1.00000
     25      -1.8212      1.00000
     26      -1.3467      1.00000
     27      -0.5882      1.00000
     28      -0.5266      1.00000
     29       0.3351      1.00000
     30       0.4453      1.00000
     31       0.4662      1.00000
     32       0.8217      1.00000
     33       0.9288      1.00000
     34       1.1421      1.00000
     35       1.2753      1.00000
     36       1.4072      1.00000
     37       1.7849      1.00000
     38       1.8187      1.00000
     39       2.0003      1.00000
     40       2.0257      1.00000
     41       2.2913      1.00000
     42       2.4715      1.00000
     43       2.7060      1.00000
     44       2.7432      1.00000
     45       2.8223      1.00000
     46       2.8293      1.00000
     47       2.9557      1.00000
     48       2.9945      1.00000
     49       5.6313      0.00000
     50       5.9383      0.00000
     51       6.0294      0.00000
     52       6.2923      0.00000
     53       6.5526      0.00000
     54       6.5860      0.00000
     55       6.8405      0.00000
     56       7.0846      0.00000
     57       7.2911      0.00000
     58       7.3756      0.00000
     59       7.5057      0.00000
     60       7.7050      0.00000
     61       7.8924      0.00000
     62       8.2432      0.00000
     63       8.3019      0.00000
     64       8.4821      0.00000

 k-point    21 :      -0.3333    0.0000    0.1667
  band No.  band energies     occupation 
      1     -32.3886      1.00000
      2     -32.3748      1.00000
      3     -32.3732      1.00000
      4     -32.3725      1.00000
      5     -13.9497      1.00000
      6     -13.9141      1.00000
      7     -13.9079      1.00000
      8     -13.8235      1.00000
      9     -13.7850      1.00000
     10     -13.7826      1.00000
     11     -13.7460      1.00000
     12     -13.7447      1.00000
     13     -13.7432      1.00000
     14     -13.7369      1.00000
     15     -13.6995      1.00000
     16     -13.6769      1.00000
     17      -7.4160      1.00000
     18      -6.8466      1.00000
     19      -6.6488      1.00000
     20      -6.1263      1.00000
     21      -6.0702      1.00000
     22      -5.8488      1.00000
     23      -5.8267      1.00000
     24      -5.7759      1.00000
     25      -1.8944      1.00000
     26      -1.3034      1.00000
     27      -0.6845      1.00000
     28      -0.5308      1.00000
     29       0.1189      1.00000
     30       0.2215      1.00000
     31       0.4896      1.00000
     32       0.8053      1.00000
     33       0.9775      1.00000
     34       1.2121      1.00000
     35       1.2331      1.00000
     36       1.6319      1.00000
     37       1.8635      1.00000
     38       1.8847      1.00000
     39       2.0647      1.00000
     40       2.0682      1.00000
     41       2.2865      1.00000
     42       2.4440      1.00000
     43       2.7089      1.00000
     44       2.7634      1.00000
     45       2.8390      1.00000
     46       2.8641      1.00000
     47       2.9585      1.00000
     48       3.0919      1.00000
     49       5.5131      0.00000
     50       5.8271      0.00000
     51       5.9478      0.00000
     52       6.4967      0.00000
     53       6.6233      0.00000
     54       6.9882      0.00000
     55       6.9928      0.00000
     56       7.1791      0.00000
     57       7.2197      0.00000
     58       7.3986      0.00000
     59       7.4772      0.00000
     60       7.5800      0.00000
     61       7.7740      0.00000
     62       7.9938      0.00000
     63       8.3711      0.00000
     64       8.4643      0.00000

 k-point    22 :      -0.1667    0.0000    0.1667
  band No.  band energies     occupation 
      1     -32.3886      1.00000
      2     -32.3748      1.00000
      3     -32.3732      1.00000
      4     -32.3725      1.00000
      5     -13.9500      1.00000
      6     -13.9143      1.00000
      7     -13.9082      1.00000
      8     -13.8220      1.00000
      9     -13.7850      1.00000
     10     -13.7826      1.00000
     11     -13.7457      1.00000
     12     -13.7444      1.00000
     13     -13.7427      1.00000
     14     -13.7369      1.00000
     15     -13.6995      1.00000
     16     -13.6769      1.00000
     17      -7.5422      1.00000
     18      -6.8321      1.00000
     19      -6.5317      1.00000
     20      -6.1007      1.00000
     21      -5.9599      1.00000
     22      -5.8817      1.00000
     23      -5.8576      1.00000
     24      -5.7963      1.00000
     25      -1.9210      1.00000
     26      -1.1632      1.00000
     27      -0.9411      1.00000
     28      -0.4830      1.00000
     29      -0.0445      1.00000
     30       0.1414      1.00000
     31       0.5188      1.00000
     32       0.7969      1.00000
     33       0.9710      1.00000
     34       1.1998      1.00000
     35       1.2573      1.00000
     36       1.5367      1.00000
     37       1.8533      1.00000
     38       1.9040      1.00000
     39       2.0248      1.00000
     40       2.1891      1.00000
     41       2.3191      1.00000
     42       2.5755      1.00000
     43       2.6355      1.00000
     44       2.6467      1.00000
     45       2.7391      1.00000
     46       2.8077      1.00000
     47       3.1817      1.00000
     48       3.1892      1.00000
     49       5.4023      0.00000
     50       6.0312      0.00000
     51       6.0477      0.00000
     52       6.6132      0.00000
     53       6.9471      0.00000
     54       7.0769      0.00000
     55       7.2451      0.00000
     56       7.3016      0.00000
     57       7.3571      0.00000
     58       7.5701      0.00000
     59       7.6343      0.00000
     60       7.8115      0.00000
     61       7.8351      0.00000
     62       8.0453      0.00000
     63       8.2831      0.00000
     64       8.3668      0.00000

 k-point    23 :      -0.0000    0.2000    0.1667
  band No.  band energies     occupation 
      1     -32.3876      1.00000
      2     -32.3771      1.00000
      3     -32.3727      1.00000
      4     -32.3718      1.00000
      5     -13.9437      1.00000
      6     -13.9107      1.00000
      7     -13.8860      1.00000
      8     -13.8202      1.00000
      9     -13.8077      1.00000
     10     -13.7647      1.00000
     11     -13.7542      1.00000
     12     -13.7518      1.00000
     13     -13.7409      1.00000
     14     -13.7350      1.00000
     15     -13.7113      1.00000
     16     -13.6833      1.00000
     17      -7.5351      1.00000
     18      -6.9376      1.00000
     19      -6.3984      1.00000
     20      -6.0410      1.00000
     21      -5.9851      1.00000
     22      -5.8962      1.00000
     23      -5.8722      1.00000
     24      -5.8432      1.00000
     25      -1.8070      1.00000
     26      -1.1469      1.00000
     27      -0.9903      1.00000
     28      -0.4024      1.00000
     29      -0.0802      1.00000
     30       0.3371      1.00000
     31       0.5213      1.00000
     32       0.5646      1.00000
     33       1.0279      1.00000
     34       1.2443      1.00000
     35       1.2864      1.00000
     36       1.6625      1.00000
     37       1.7164      1.00000
     38       1.7868      1.00000
     39       1.9346      1.00000
     40       2.0611      1.00000
     41       2.2846      1.00000
     42       2.3716      1.00000
     43       2.4218      1.00000
     44       2.5241      1.00000
     45       2.7445      1.00000
     46       2.8056      1.00000
     47       3.1022      1.00000
     48       3.3380      1.00000
     49       5.7492      0.00000
     50       6.0242      0.00000
     51       6.4164      0.00000
     52       6.5828      0.00000
     53       6.8277      0.00000
     54       7.1968      0.00000
     55       7.4392      0.00000
     56       7.5785      0.00000
     57       7.6434      0.00000
     58       7.6898      0.00000
     59       7.8142      0.00000
     60       7.9659      0.00000
     61       8.1799      0.00000
     62       8.2487      0.00000
     63       8.2734      0.00000
     64       8.4216      0.00000

 k-point    24 :       0.0000    0.2000   -0.1667
  band No.  band energies     occupation 
      1     -32.3876      1.00000
      2     -32.3771      1.00000
      3     -32.3727      1.00000
      4     -32.3718      1.00000
      5     -13.9437      1.00000
      6     -13.9107      1.00000
      7     -13.8860      1.00000
      8     -13.8202      1.00000
      9     -13.8077      1.00000
     10     -13.7647      1.00000
     11     -13.7542      1.00000
     12     -13.7518      1.00000
     13     -13.7409      1.00000
     14     -13.7350      1.00000
     15     -13.7113      1.00000
     16     -13.6833      1.00000
     17      -7.5351      1.00000
     18      -6.9376      1.00000
     19      -6.3984      1.00000
     20      -6.0410      1.00000
     21      -5.9851      1.00000
     22      -5.8962      1.00000
     23      -5.8722      1.00000
     24      -5.8432      1.00000
     25      -1.8070      1.00000
     26      -1.1469      1.00000
     27      -0.9903      1.00000
     28      -0.4024      1.00000
     29      -0.0802      1.00000
     30       0.3371      1.00000
     31       0.5213      1.00000
     32       0.5646      1.00000
     33       1.0279      1.00000
     34       1.2443      1.00000
     35       1.2864      1.00000
     36       1.6625      1.00000
     37       1.7164      1.00000
     38       1.7868      1.00000
     39       1.9346      1.00000
     40       2.0611      1.00000
     41       2.2846      1.00000
     42       2.3716      1.00000
     43       2.4218      1.00000
     44       2.5241      1.00000
     45       2.7445      1.00000
     46       2.8056      1.00000
     47       3.1022      1.00000
     48       3.3380      1.00000
     49       5.7492      0.00000
     50       6.0242      0.00000
     51       6.4164      0.00000
     52       6.5828      0.00000
     53       6.8277      0.00000
     54       7.1968      0.00000
     55       7.4392      0.00000
     56       7.5785      0.00000
     57       7.6434      0.00000
     58       7.6898      0.00000
     59       7.8142      0.00000
     60       7.9659      0.00000
     61       8.1799      0.00000
     62       8.2487      0.00000
     63       8.2734      0.00000
     64       8.4119      0.00000

 k-point    25 :       0.1667    0.2000    0.1667
  band No.  band energies     occupation 
      1     -32.3876      1.00000
      2     -32.3771      1.00000
      3     -32.3727      1.00000
      4     -32.3718      1.00000
      5     -13.9436      1.00000
      6     -13.9106      1.00000
      7     -13.8860      1.00000
      8     -13.8204      1.00000
      9     -13.8082      1.00000
     10     -13.7649      1.00000
     11     -13.7543      1.00000
     12     -13.7518      1.00000
     13     -13.7411      1.00000
     14     -13.7352      1.00000
     15     -13.7113      1.00000
     16     -13.6832      1.00000
     17      -7.4795      1.00000
     18      -6.9204      1.00000
     19      -6.4384      1.00000
     20      -6.0621      1.00000
     21      -5.9911      1.00000
     22      -5.9280      1.00000
     23      -5.8827      1.00000
     24      -5.8671      1.00000
     25      -1.7553      1.00000
     26      -1.1696      1.00000
     27      -0.8634      1.00000
     28      -0.3993      1.00000
     29       0.0591      1.00000
     30       0.4111      1.00000
     31       0.5292      1.00000
     32       0.5975      1.00000
     33       0.9072      1.00000
     34       1.1753      1.00000
     35       1.4311      1.00000
     36       1.6560      1.00000
     37       1.6826      1.00000
     38       1.7280      1.00000
     39       2.0064      1.00000
     40       2.0840      1.00000
     41       2.2205      1.00000
     42       2.3880      1.00000
     43       2.3988      1.00000
     44       2.4956      1.00000
     45       2.5955      1.00000
     46       2.7372      1.00000
     47       3.0474      1.00000
     48       3.1590      1.00000
     49       5.7525      0.00000
     50       6.0420      0.00000
     51       6.4803      0.00000
     52       6.5647      0.00000
     53       6.8103      0.00000
     54       6.9409      0.00000
     55       7.3069      0.00000
     56       7.5744      0.00000
     57       7.6678      0.00000
     58       7.7049      0.00000
     59       7.7831      0.00000
     60       8.0201      0.00000
     61       8.1594      0.00000
     62       8.1738      0.00000
     63       8.3189      0.00000
     64       8.4055      0.00000

 k-point    26 :      -0.1667    0.2000   -0.1667
  band No.  band energies     occupation 
      1     -32.3876      1.00000
      2     -32.3771      1.00000
      3     -32.3727      1.00000
      4     -32.3718      1.00000
      5     -13.9436      1.00000
      6     -13.9106      1.00000
      7     -13.8860      1.00000
      8     -13.8204      1.00000
      9     -13.8082      1.00000
     10     -13.7649      1.00000
     11     -13.7543      1.00000
     12     -13.7518      1.00000
     13     -13.7411      1.00000
     14     -13.7352      1.00000
     15     -13.7113      1.00000
     16     -13.6832      1.00000
     17      -7.4795      1.00000
     18      -6.9204      1.00000
     19      -6.4384      1.00000
     20      -6.0621      1.00000
     21      -5.9911      1.00000
     22      -5.9280      1.00000
     23      -5.8827      1.00000
     24      -5.8671      1.00000
     25      -1.7553      1.00000
     26      -1.1696      1.00000
     27      -0.8634      1.00000
     28      -0.3993      1.00000
     29       0.0591      1.00000
     30       0.4111      1.00000
     31       0.5292      1.00000
     32       0.5975      1.00000
     33       0.9072      1.00000
     34       1.1753      1.00000
     35       1.4311      1.00000
     36       1.6560      1.00000
     37       1.6826      1.00000
     38       1.7280      1.00000
     39       2.0064      1.00000
     40       2.0840      1.00000
     41       2.2205      1.00000
     42       2.3880      1.00000
     43       2.3988      1.00000
     44       2.4956      1.00000
     45       2.5955      1.00000
     46       2.7372      1.00000
     47       3.0474      1.00000
     48       3.1590      1.00000
     49       5.7525      0.00000
     50       6.0420      0.00000
     51       6.4803      0.00000
     52       6.5647      0.00000
     53       6.8103      0.00000
     54       6.9409      0.00000
     55       7.3069      0.00000
     56       7.5744      0.00000
     57       7.6678      0.00000
     58       7.7049      0.00000
     59       7.7831      0.00000
     60       8.0201      0.00000
     61       8.1594      0.00000
     62       8.1738      0.00000
     63       8.3189      0.00000
     64       8.4058      0.00000

 k-point    27 :       0.3333    0.2000    0.1667
  band No.  band energies     occupation 
      1     -32.3876      1.00000
      2     -32.3771      1.00000
      3     -32.3727      1.00000
      4     -32.3718      1.00000
      5     -13.9433      1.00000
      6     -13.9103      1.00000
      7     -13.8858      1.00000
      8     -13.8212      1.00000
      9     -13.8087      1.00000
     10     -13.7653      1.00000
     11     -13.7545      1.00000
     12     -13.7518      1.00000
     13     -13.7414      1.00000
     14     -13.7355      1.00000
     15     -13.7112      1.00000
     16     -13.6832      1.00000
     17      -7.3578      1.00000
     18      -6.9284      1.00000
     19      -6.5521      1.00000
     20      -6.0956      1.00000
     21      -6.0108      1.00000
     22      -5.9780      1.00000
     23      -5.8635      1.00000
     24      -5.8467      1.00000
     25      -1.7233      1.00000
     26      -1.2912      1.00000
     27      -0.6200      1.00000
     28      -0.4225      1.00000
     29       0.2240      1.00000
     30       0.4199      1.00000
     31       0.5750      1.00000
     32       0.7506      1.00000
     33       0.8634      1.00000
     34       1.1256      1.00000
     35       1.4558      1.00000
     36       1.5860      1.00000
     37       1.6539      1.00000
     38       1.7638      1.00000
     39       1.9357      1.00000
     40       2.0925      1.00000
     41       2.2027      1.00000
     42       2.2912      1.00000
     43       2.4871      1.00000
     44       2.5484      1.00000
     45       2.6518      1.00000
     46       2.7660      1.00000
     47       2.8952      1.00000
     48       3.0233      1.00000
     49       5.7471      0.00000
     50       6.0316      0.00000
     51       6.3308      0.00000
     52       6.5770      0.00000
     53       6.6165      0.00000
     54       7.0074      0.00000
     55       7.0708      0.00000
     56       7.1088      0.00000
     57       7.3893      0.00000
     58       7.6733      0.00000
     59       7.7593      0.00000
     60       7.8630      0.00000
     61       7.9751      0.00000
     62       8.0666      0.00000
     63       8.2554      0.00000
     64       8.5030      0.00000

 k-point    28 :      -0.3333    0.2000   -0.1667
  band No.  band energies     occupation 
      1     -32.3876      1.00000
      2     -32.3771      1.00000
      3     -32.3727      1.00000
      4     -32.3718      1.00000
      5     -13.9433      1.00000
      6     -13.9103      1.00000
      7     -13.8858      1.00000
      8     -13.8212      1.00000
      9     -13.8087      1.00000
     10     -13.7653      1.00000
     11     -13.7545      1.00000
     12     -13.7518      1.00000
     13     -13.7414      1.00000
     14     -13.7355      1.00000
     15     -13.7112      1.00000
     16     -13.6832      1.00000
     17      -7.3578      1.00000
     18      -6.9284      1.00000
     19      -6.5521      1.00000
     20      -6.0956      1.00000
     21      -6.0108      1.00000
     22      -5.9780      1.00000
     23      -5.8635      1.00000
     24      -5.8467      1.00000
     25      -1.7233      1.00000
     26      -1.2912      1.00000
     27      -0.6200      1.00000
     28      -0.4225      1.00000
     29       0.2240      1.00000
     30       0.4199      1.00000
     31       0.5750      1.00000
     32       0.7506      1.00000
     33       0.8634      1.00000
     34       1.1256      1.00000
     35       1.4558      1.00000
     36       1.5860      1.00000
     37       1.6539      1.00000
     38       1.7638      1.00000
     39       1.9357      1.00000
     40       2.0925      1.00000
     41       2.2027      1.00000
     42       2.2912      1.00000
     43       2.4871      1.00000
     44       2.5484      1.00000
     45       2.6518      1.00000
     46       2.7660      1.00000
     47       2.8952      1.00000
     48       3.0233      1.00000
     49       5.7471      0.00000
     50       6.0316      0.00000
     51       6.3308      0.00000
     52       6.5770      0.00000
     53       6.6165      0.00000
     54       7.0074      0.00000
     55       7.0708      0.00000
     56       7.1088      0.00000
     57       7.3893      0.00000
     58       7.6733      0.00000
     59       7.7593      0.00000
     60       7.8630      0.00000
     61       7.9751      0.00000
     62       8.0666      0.00000
     63       8.2554      0.00000
     64       8.5153      0.00000

 k-point    29 :       0.5000    0.2000    0.1667
  band No.  band energies     occupation 
      1     -32.3876      1.00000
      2     -32.3771      1.00000
      3     -32.3727      1.00000
      4     -32.3718      1.00000
      5     -13.9432      1.00000
      6     -13.9101      1.00000
      7     -13.8856      1.00000
      8     -13.8219      1.00000
      9     -13.8089      1.00000
     10     -13.7655      1.00000
     11     -13.7546      1.00000
     12     -13.7519      1.00000
     13     -13.7416      1.00000
     14     -13.7356      1.00000
     15     -13.7111      1.00000
     16     -13.6832      1.00000
     17      -7.2889      1.00000
     18      -6.9558      1.00000
     19      -6.6113      1.00000
     20      -6.1251      1.00000
     21      -6.0674      1.00000
     22      -5.9394      1.00000
     23      -5.8452      1.00000
     24      -5.8032      1.00000
     25      -1.7477      1.00000
     26      -1.3741      1.00000
     27      -0.5274      1.00000
     28      -0.4704      1.00000
     29       0.2959      1.00000
     30       0.4916      1.00000
     31       0.5370      1.00000
     32       0.7170      1.00000
     33       1.0096      1.00000
     34       1.1532      1.00000
     35       1.3678      1.00000
     36       1.3860      1.00000
     37       1.6825      1.00000
     38       1.7411      1.00000
     39       1.9006      1.00000
     40       2.1900      1.00000
     41       2.2152      1.00000
     42       2.4000      1.00000
     43       2.5673      1.00000
     44       2.6484      1.00000
     45       2.7246      1.00000
     46       2.7845      1.00000
     47       2.8668      1.00000
     48       3.0185      1.00000
     49       5.7978      0.00000
     50       6.0099      0.00000
     51       6.1532      0.00000
     52       6.5283      0.00000
     53       6.5573      0.00000
     54       6.7048      0.00000
     55       6.8035      0.00000
     56       7.0387      0.00000
     57       7.3531      0.00000
     58       7.5706      0.00000
     59       7.6667      0.00000
     60       7.8601      0.00000
     61       8.0628      0.00000
     62       8.0908      0.00000
     63       8.2207      0.00000
     64       8.3771      0.00000

 k-point    30 :       0.5000    0.2000   -0.1667
  band No.  band energies     occupation 
      1     -32.3876      1.00000
      2     -32.3771      1.00000
      3     -32.3727      1.00000
      4     -32.3718      1.00000
      5     -13.9432      1.00000
      6     -13.9101      1.00000
      7     -13.8856      1.00000
      8     -13.8219      1.00000
      9     -13.8089      1.00000
     10     -13.7655      1.00000
     11     -13.7546      1.00000
     12     -13.7519      1.00000
     13     -13.7416      1.00000
     14     -13.7356      1.00000
     15     -13.7111      1.00000
     16     -13.6832      1.00000
     17      -7.2889      1.00000
     18      -6.9558      1.00000
     19      -6.6113      1.00000
     20      -6.1251      1.00000
     21      -6.0674      1.00000
     22      -5.9394      1.00000
     23      -5.8452      1.00000
     24      -5.8032      1.00000
     25      -1.7477      1.00000
     26      -1.3741      1.00000
     27      -0.5274      1.00000
     28      -0.4704      1.00000
     29       0.2959      1.00000
     30       0.4916      1.00000
     31       0.5370      1.00000
     32       0.7170      1.00000
     33       1.0096      1.00000
     34       1.1532      1.00000
     35       1.3678      1.00000
     36       1.3860      1.00000
     37       1.6825      1.00000
     38       1.7411      1.00000
     39       1.9006      1.00000
     40       2.1900      1.00000
     41       2.2152      1.00000
     42       2.4000      1.00000
     43       2.5673      1.00000
     44       2.6484      1.00000
     45       2.7246      1.00000
     46       2.7845      1.00000
     47       2.8668      1.00000
     48       3.0185      1.00000
     49       5.7978      0.00000
     50       6.0099      0.00000
     51       6.1532      0.00000
     52       6.5283      0.00000
     53       6.5573      0.00000
     54       6.7048      0.00000
     55       6.8035      0.00000
     56       7.0387      0.00000
     57       7.3531      0.00000
     58       7.5706      0.00000
     59       7.6667      0.00000
     60       7.8601      0.00000
     61       8.0628      0.00000
     62       8.0908      0.00000
     63       8.2207      0.00000
     64       8.3771      0.00000

 k-point    31 :      -0.3333    0.2000    0.1667
  band No.  band energies     occupation 
      1     -32.3876      1.00000
      2     -32.3771      1.00000
      3     -32.3727      1.00000
      4     -32.3718      1.00000
      5     -13.9433      1.00000
      6     -13.9102      1.00000
      7     -13.8856      1.00000
      8     -13.8216      1.00000
      9     -13.8085      1.00000
     10     -13.7653      1.00000
     11     -13.7545      1.00000
     12     -13.7519      1.00000
     13     -13.7414      1.00000
     14     -13.7355      1.00000
     15     -13.7112      1.00000
     16     -13.6832      1.00000
     17      -7.3798      1.00000
     18      -6.9593      1.00000
     19      -6.5322      1.00000
     20      -6.1219      1.00000
     21      -6.0506      1.00000
     22      -5.8986      1.00000
     23      -5.8514      1.00000
     24      -5.7850      1.00000
     25      -1.8129      1.00000
     26      -1.3342      1.00000
     27      -0.6299      1.00000
     28      -0.4961      1.00000
     29       0.0876      1.00000
     30       0.3277      1.00000
     31       0.5328      1.00000
     32       0.7277      1.00000
     33       1.0311      1.00000
     34       1.2037      1.00000
     35       1.3160      1.00000
     36       1.6502      1.00000
     37       1.7089      1.00000
     38       1.7478      1.00000
     39       1.8945      1.00000
     40       2.1855      1.00000
     41       2.2544      1.00000
     42       2.5159      1.00000
     43       2.5257      1.00000
     44       2.6655      1.00000
     45       2.7469      1.00000
     46       2.8371      1.00000
     47       2.8534      1.00000
     48       3.2045      1.00000
     49       5.7065      0.00000
     50       5.8850      0.00000
     51       6.1833      0.00000
     52       6.6895      0.00000
     53       6.7924      0.00000
     54       6.8275      0.00000
     55       6.9534      0.00000
     56       7.1183      0.00000
     57       7.3052      0.00000
     58       7.4961      0.00000
     59       7.5978      0.00000
     60       7.6881      0.00000
     61       7.9525      0.00000
     62       8.0293      0.00000
     63       8.3217      0.00000
     64       8.4156      0.00000

 k-point    32 :       0.3333    0.2000   -0.1667
  band No.  band energies     occupation 
      1     -32.3876      1.00000
      2     -32.3771      1.00000
      3     -32.3727      1.00000
      4     -32.3718      1.00000
      5     -13.9433      1.00000
      6     -13.9102      1.00000
      7     -13.8856      1.00000
      8     -13.8216      1.00000
      9     -13.8085      1.00000
     10     -13.7653      1.00000
     11     -13.7545      1.00000
     12     -13.7519      1.00000
     13     -13.7414      1.00000
     14     -13.7355      1.00000
     15     -13.7112      1.00000
     16     -13.6832      1.00000
     17      -7.3798      1.00000
     18      -6.9593      1.00000
     19      -6.5322      1.00000
     20      -6.1219      1.00000
     21      -6.0506      1.00000
     22      -5.8986      1.00000
     23      -5.8514      1.00000
     24      -5.7850      1.00000
     25      -1.8129      1.00000
     26      -1.3342      1.00000
     27      -0.6299      1.00000
     28      -0.4961      1.00000
     29       0.0876      1.00000
     30       0.3277      1.00000
     31       0.5328      1.00000
     32       0.7277      1.00000
     33       1.0311      1.00000
     34       1.2037      1.00000
     35       1.3160      1.00000
     36       1.6502      1.00000
     37       1.7089      1.00000
     38       1.7478      1.00000
     39       1.8945      1.00000
     40       2.1855      1.00000
     41       2.2544      1.00000
     42       2.5159      1.00000
     43       2.5257      1.00000
     44       2.6655      1.00000
     45       2.7469      1.00000
     46       2.8371      1.00000
     47       2.8534      1.00000
     48       3.2045      1.00000
     49       5.7065      0.00000
     50       5.8850      0.00000
     51       6.1833      0.00000
     52       6.6895      0.00000
     53       6.7924      0.00000
     54       6.8275      0.00000
     55       6.9534      0.00000
     56       7.1183      0.00000
     57       7.3052      0.00000
     58       7.4961      0.00000
     59       7.5978      0.00000
     60       7.6881      0.00000
     61       7.9525      0.00000
     62       8.0293      0.00000
     63       8.3217      0.00000
     64       8.4156      0.00000

 k-point    33 :      -0.1667    0.2000    0.1667
  band No.  band energies     occupation 
      1     -32.3876      1.00000
      2     -32.3771      1.00000
      3     -32.3727      1.00000
      4     -32.3718      1.00000
      5     -13.9436      1.00000
      6     -13.9105      1.00000
      7     -13.8858      1.00000
      8     -13.8208      1.00000
      9     -13.8079      1.00000
     10     -13.7649      1.00000
     11     -13.7543      1.00000
     12     -13.7518      1.00000
     13     -13.7411      1.00000
     14     -13.7352      1.00000
     15     -13.7113      1.00000
     16     -13.6832      1.00000
     17      -7.4947      1.00000
     18      -6.9544      1.00000
     19      -6.4388      1.00000
     20      -6.0789      1.00000
     21      -5.9709      1.00000
     22      -5.9105      1.00000
     23      -5.8592      1.00000
     24      -5.8079      1.00000
     25      -1.8381      1.00000
     26      -1.2283      1.00000
     27      -0.8725      1.00000
     28      -0.4422      1.00000
     29      -0.1014      1.00000
     30       0.2627      1.00000
     31       0.5245      1.00000
     32       0.6983      1.00000
     33       1.0558      1.00000
     34       1.1963      1.00000
     35       1.2990      1.00000
     36       1.6299      1.00000
     37       1.7328      1.00000
     38       1.8209      1.00000
     39       1.9274      1.00000
     40       2.1741      1.00000
     41       2.4128      1.00000
     42       2.4348      1.00000
     43       2.4570      1.00000
     44       2.5228      1.00000
     45       2.6905      1.00000
     46       2.8256      1.00000
     47       3.0971      1.00000
     48       3.3191      1.00000
     49       5.7022      0.00000
     50       5.9385      0.00000
     51       6.3586      0.00000
     52       6.6163      0.00000
     53       6.8764      0.00000
     54       7.1429      0.00000
     55       7.2416      0.00000
     56       7.4064      0.00000
     57       7.4582      0.00000
     58       7.6024      0.00000
     59       7.7153      0.00000
     60       7.7760      0.00000
     61       7.9542      0.00000
     62       7.9832      0.00000
     63       8.3481      0.00000
     64       8.3980      0.00000

 k-point    34 :       0.1667    0.2000   -0.1667
  band No.  band energies     occupation 
      1     -32.3876      1.00000
      2     -32.3771      1.00000
      3     -32.3727      1.00000
      4     -32.3718      1.00000
      5     -13.9436      1.00000
      6     -13.9105      1.00000
      7     -13.8858      1.00000
      8     -13.8208      1.00000
      9     -13.8079      1.00000
     10     -13.7649      1.00000
     11     -13.7543      1.00000
     12     -13.7518      1.00000
     13     -13.7411      1.00000
     14     -13.7352      1.00000
     15     -13.7113      1.00000
     16     -13.6832      1.00000
     17      -7.4946      1.00000
     18      -6.9544      1.00000
     19      -6.4388      1.00000
     20      -6.0789      1.00000
     21      -5.9709      1.00000
     22      -5.9105      1.00000
     23      -5.8592      1.00000
     24      -5.8079      1.00000
     25      -1.8381      1.00000
     26      -1.2283      1.00000
     27      -0.8725      1.00000
     28      -0.4422      1.00000
     29      -0.1014      1.00000
     30       0.2627      1.00000
     31       0.5245      1.00000
     32       0.6983      1.00000
     33       1.0558      1.00000
     34       1.1963      1.00000
     35       1.2990      1.00000
     36       1.6299      1.00000
     37       1.7328      1.00000
     38       1.8209      1.00000
     39       1.9274      1.00000
     40       2.1741      1.00000
     41       2.4128      1.00000
     42       2.4348      1.00000
     43       2.4570      1.00000
     44       2.5228      1.00000
     45       2.6905      1.00000
     46       2.8256      1.00000
     47       3.0971      1.00000
     48       3.3191      1.00000
     49       5.7022      0.00000
     50       5.9385      0.00000
     51       6.3586      0.00000
     52       6.6163      0.00000
     53       6.8764      0.00000
     54       7.1429      0.00000
     55       7.2416      0.00000
     56       7.4064      0.00000
     57       7.4582      0.00000
     58       7.6024      0.00000
     59       7.7153      0.00000
     60       7.7760      0.00000
     61       7.9542      0.00000
     62       7.9832      0.00000
     63       8.3482      0.00000
     64       8.3958      0.00000

 k-point    35 :      -0.0000    0.4000    0.1667
  band No.  band energies     occupation 
      1     -32.3847      1.00000
      2     -32.3809      1.00000
      3     -32.3720      1.00000
      4     -32.3715      1.00000
      5     -13.9258      1.00000
      6     -13.9080      1.00000
      7     -13.8377      1.00000
      8     -13.8210      1.00000
      9     -13.7974      1.00000
     10     -13.7911      1.00000
     11     -13.7840      1.00000
     12     -13.7662      1.00000
     13     -13.7380      1.00000
     14     -13.7344      1.00000
     15     -13.7130      1.00000
     16     -13.6962      1.00000
     17      -7.3869      1.00000
     18      -7.1708      1.00000
     19      -6.2645      1.00000
     20      -6.1336      1.00000
     21      -5.9488      1.00000
     22      -5.9057      1.00000
     23      -5.8596      1.00000
     24      -5.8506      1.00000
     25      -1.6045      1.00000
     26      -1.3549      1.00000
     27      -0.7746      1.00000
     28      -0.5015      1.00000
     29      -0.0603      1.00000
     30       0.2142      1.00000
     31       0.6245      1.00000
     32       0.6896      1.00000
     33       1.1415      1.00000
     34       1.2061      1.00000
     35       1.4753      1.00000
     36       1.5155      1.00000
     37       1.5685      1.00000
     38       1.7238      1.00000
     39       1.8504      1.00000
     40       2.1360      1.00000
     41       2.1729      1.00000
     42       2.2957      1.00000
     43       2.3877      1.00000
     44       2.4708      1.00000
     45       2.6216      1.00000
     46       2.9183      1.00000
     47       2.9496      1.00000
     48       3.0908      1.00000
     49       5.9932      0.00000
     50       6.2101      0.00000
     51       6.5938      0.00000
     52       6.8422      0.00000
     53       7.0143      0.00000
     54       7.2228      0.00000
     55       7.3222      0.00000
     56       7.5692      0.00000
     57       7.6842      0.00000
     58       7.7332      0.00000
     59       7.7809      0.00000
     60       7.9264      0.00000
     61       8.1864      0.00000
     62       8.2113      0.00000
     63       8.3555      0.00000
     64       8.4603      0.00000

 k-point    36 :       0.0000    0.4000   -0.1667
  band No.  band energies     occupation 
      1     -32.3847      1.00000
      2     -32.3809      1.00000
      3     -32.3720      1.00000
      4     -32.3715      1.00000
      5     -13.9258      1.00000
      6     -13.9080      1.00000
      7     -13.8377      1.00000
      8     -13.8210      1.00000
      9     -13.7974      1.00000
     10     -13.7911      1.00000
     11     -13.7840      1.00000
     12     -13.7662      1.00000
     13     -13.7380      1.00000
     14     -13.7344      1.00000
     15     -13.7130      1.00000
     16     -13.6962      1.00000
     17      -7.3869      1.00000
     18      -7.1708      1.00000
     19      -6.2645      1.00000
     20      -6.1336      1.00000
     21      -5.9488      1.00000
     22      -5.9057      1.00000
     23      -5.8596      1.00000
     24      -5.8506      1.00000
     25      -1.6045      1.00000
     26      -1.3549      1.00000
     27      -0.7746      1.00000
     28      -0.5015      1.00000
     29      -0.0603      1.00000
     30       0.2142      1.00000
     31       0.6245      1.00000
     32       0.6896      1.00000
     33       1.1415      1.00000
     34       1.2061      1.00000
     35       1.4753      1.00000
     36       1.5155      1.00000
     37       1.5685      1.00000
     38       1.7238      1.00000
     39       1.8504      1.00000
     40       2.1360      1.00000
     41       2.1729      1.00000
     42       2.2957      1.00000
     43       2.3877      1.00000
     44       2.4708      1.00000
     45       2.6216      1.00000
     46       2.9183      1.00000
     47       2.9496      1.00000
     48       3.0908      1.00000
     49       5.9932      0.00000
     50       6.2101      0.00000
     51       6.5938      0.00000
     52       6.8422      0.00000
     53       7.0143      0.00000
     54       7.2228      0.00000
     55       7.3222      0.00000
     56       7.5692      0.00000
     57       7.6842      0.00000
     58       7.7332      0.00000
     59       7.7809      0.00000
     60       7.9264      0.00000
     61       8.1864      0.00000
     62       8.2113      0.00000
     63       8.3555      0.00000
     64       8.4605      0.00000

 k-point    37 :       0.1667    0.4000    0.1667
  band No.  band energies     occupation 
      1     -32.3847      1.00000
      2     -32.3809      1.00000
      3     -32.3720      1.00000
      4     -32.3715      1.00000
      5     -13.9257      1.00000
      6     -13.9079      1.00000
      7     -13.8379      1.00000
      8     -13.8209      1.00000
      9     -13.7981      1.00000
     10     -13.7911      1.00000
     11     -13.7841      1.00000
     12     -13.7662      1.00000
     13     -13.7382      1.00000
     14     -13.7346      1.00000
     15     -13.7130      1.00000
     16     -13.6962      1.00000
     17      -7.3396      1.00000
     18      -7.1375      1.00000
     19      -6.3011      1.00000
     20      -6.1731      1.00000
     21      -5.9600      1.00000
     22      -5.9394      1.00000
     23      -5.8691      1.00000
     24      -5.8608      1.00000
     25      -1.5753      1.00000
     26      -1.3576      1.00000
     27      -0.6579      1.00000
     28      -0.4179      1.00000
     29       0.0085      1.00000
     30       0.2328      1.00000
     31       0.6441      1.00000
     32       0.7756      1.00000
     33       1.0895      1.00000
     34       1.2070      1.00000
     35       1.3904      1.00000
     36       1.4887      1.00000
     37       1.6330      1.00000
     38       1.8050      1.00000
     39       1.8730      1.00000
     40       2.0649      1.00000
     41       2.2353      1.00000
     42       2.3213      1.00000
     43       2.3683      1.00000
     44       2.4401      1.00000
     45       2.5051      1.00000
     46       2.7155      1.00000
     47       2.8427      1.00000
     48       2.9315      1.00000
     49       5.9918      0.00000
     50       6.1970      0.00000
     51       6.4909      0.00000
     52       6.7154      0.00000
     53       6.8564      0.00000
     54       7.0711      0.00000
     55       7.1745      0.00000
     56       7.5100      0.00000
     57       7.6797      0.00000
     58       7.8527      0.00000
     59       8.0399      0.00000
     60       8.0823      0.00000
     61       8.2275      0.00000
     62       8.4544      0.00000
     63       8.5185      0.00000
     64       8.5648      0.00000

 k-point    38 :      -0.1667    0.4000   -0.1667
  band No.  band energies     occupation 
      1     -32.3847      1.00000
      2     -32.3809      1.00000
      3     -32.3720      1.00000
      4     -32.3715      1.00000
      5     -13.9257      1.00000
      6     -13.9079      1.00000
      7     -13.8379      1.00000
      8     -13.8209      1.00000
      9     -13.7981      1.00000
     10     -13.7911      1.00000
     11     -13.7841      1.00000
     12     -13.7662      1.00000
     13     -13.7382      1.00000
     14     -13.7346      1.00000
     15     -13.7130      1.00000
     16     -13.6962      1.00000
     17      -7.3396      1.00000
     18      -7.1375      1.00000
     19      -6.3011      1.00000
     20      -6.1731      1.00000
     21      -5.9600      1.00000
     22      -5.9394      1.00000
     23      -5.8691      1.00000
     24      -5.8608      1.00000
     25      -1.5753      1.00000
     26      -1.3576      1.00000
     27      -0.6579      1.00000
     28      -0.4179      1.00000
     29       0.0085      1.00000
     30       0.2328      1.00000
     31       0.6441      1.00000
     32       0.7756      1.00000
     33       1.0895      1.00000
     34       1.2070      1.00000
     35       1.3904      1.00000
     36       1.4887      1.00000
     37       1.6330      1.00000
     38       1.8050      1.00000
     39       1.8730      1.00000
     40       2.0649      1.00000
     41       2.2353      1.00000
     42       2.3213      1.00000
     43       2.3683      1.00000
     44       2.4401      1.00000
     45       2.5051      1.00000
     46       2.7155      1.00000
     47       2.8427      1.00000
     48       2.9315      1.00000
     49       5.9918      0.00000
     50       6.1970      0.00000
     51       6.4909      0.00000
     52       6.7154      0.00000
     53       6.8564      0.00000
     54       7.0711      0.00000
     55       7.1745      0.00000
     56       7.5100      0.00000
     57       7.6797      0.00000
     58       7.8527      0.00000
     59       8.0399      0.00000
     60       8.0823      0.00000
     61       8.2275      0.00000
     62       8.4544      0.00000
     63       8.5185      0.00000
     64       8.5650      0.00000

 k-point    39 :       0.3333    0.4000    0.1667
  band No.  band energies     occupation 
      1     -32.3847      1.00000
      2     -32.3809      1.00000
      3     -32.3720      1.00000
      4     -32.3715      1.00000
      5     -13.9254      1.00000
      6     -13.9076      1.00000
      7     -13.8380      1.00000
      8     -13.8209      1.00000
      9     -13.7991      1.00000
     10     -13.7914      1.00000
     11     -13.7844      1.00000
     12     -13.7664      1.00000
     13     -13.7385      1.00000
     14     -13.7349      1.00000
     15     -13.7130      1.00000
     16     -13.6962      1.00000
     17      -7.2506      1.00000
     18      -7.0974      1.00000
     19      -6.3797      1.00000
     20      -6.2080      1.00000
     21      -6.0161      1.00000
     22      -5.9948      1.00000
     23      -5.8545      1.00000
     24      -5.8522      1.00000
     25      -1.5662      1.00000
     26      -1.4088      1.00000
     27      -0.4873      1.00000
     28      -0.3697      1.00000
     29       0.2000      1.00000
     30       0.3547      1.00000
     31       0.6637      1.00000
     32       0.9158      1.00000
     33       1.0467      1.00000
     34       1.1110      1.00000
     35       1.3324      1.00000
     36       1.4085      1.00000
     37       1.6300      1.00000
     38       1.7653      1.00000
     39       1.9074      1.00000
     40       1.9828      1.00000
     41       2.1923      1.00000
     42       2.2595      1.00000
     43       2.3470      1.00000
     44       2.4823      1.00000
     45       2.5602      1.00000
     46       2.6382      1.00000
     47       2.8478      1.00000
     48       2.8967      1.00000
     49       6.0151      0.00000
     50       6.2075      0.00000
     51       6.2235      0.00000
     52       6.4183      0.00000
     53       6.7913      0.00000
     54       6.9871      0.00000
     55       7.0836      0.00000
     56       7.2426      0.00000
     57       7.6441      0.00000
     58       7.8069      0.00000
     59       8.0402      0.00000
     60       8.1611      0.00000
     61       8.2888      0.00000
     62       8.3967      0.00000
     63       8.5198      0.00000
     64       8.5546      0.00000

 k-point    40 :      -0.3333    0.4000   -0.1667
  band No.  band energies     occupation 
      1     -32.3847      1.00000
      2     -32.3809      1.00000
      3     -32.3720      1.00000
      4     -32.3715      1.00000
      5     -13.9254      1.00000
      6     -13.9076      1.00000
      7     -13.8380      1.00000
      8     -13.8209      1.00000
      9     -13.7991      1.00000
     10     -13.7914      1.00000
     11     -13.7844      1.00000
     12     -13.7664      1.00000
     13     -13.7385      1.00000
     14     -13.7349      1.00000
     15     -13.7130      1.00000
     16     -13.6962      1.00000
     17      -7.2506      1.00000
     18      -7.0974      1.00000
     19      -6.3797      1.00000
     20      -6.2080      1.00000
     21      -6.0161      1.00000
     22      -5.9948      1.00000
     23      -5.8545      1.00000
     24      -5.8522      1.00000
     25      -1.5662      1.00000
     26      -1.4088      1.00000
     27      -0.4873      1.00000
     28      -0.3697      1.00000
     29       0.2000      1.00000
     30       0.3547      1.00000
     31       0.6637      1.00000
     32       0.9158      1.00000
     33       1.0467      1.00000
     34       1.1110      1.00000
     35       1.3324      1.00000
     36       1.4085      1.00000
     37       1.6300      1.00000
     38       1.7653      1.00000
     39       1.9074      1.00000
     40       1.9828      1.00000
     41       2.1923      1.00000
     42       2.2595      1.00000
     43       2.3470      1.00000
     44       2.4823      1.00000
     45       2.5602      1.00000
     46       2.6382      1.00000
     47       2.8478      1.00000
     48       2.8967      1.00000
     49       6.0151      0.00000
     50       6.2075      0.00000
     51       6.2235      0.00000
     52       6.4183      0.00000
     53       6.7913      0.00000
     54       6.9871      0.00000
     55       7.0836      0.00000
     56       7.2426      0.00000
     57       7.6441      0.00000
     58       7.8069      0.00000
     59       8.0402      0.00000
     60       8.1611      0.00000
     61       8.2888      0.00000
     62       8.3967      0.00000
     63       8.5199      0.00000
     64       8.5547      0.00000

 k-point    41 :       0.5000    0.4000    0.1667
  band No.  band energies     occupation 
      1     -32.3847      1.00000
      2     -32.3809      1.00000
      3     -32.3720      1.00000
      4     -32.3715      1.00000
      5     -13.9253      1.00000
      6     -13.9075      1.00000
      7     -13.8379      1.00000
      8     -13.8209      1.00000
      9     -13.7993      1.00000
     10     -13.7917      1.00000
     11     -13.7847      1.00000
     12     -13.7665      1.00000
     13     -13.7387      1.00000
     14     -13.7350      1.00000
     15     -13.7129      1.00000
     16     -13.6962      1.00000
     17      -7.2114      1.00000
     18      -7.0948      1.00000
     19      -6.4068      1.00000
     20      -6.1968      1.00000
     21      -6.0717      1.00000
     22      -6.0103      1.00000
     23      -5.8500      1.00000
     24      -5.8254      1.00000
     25      -1.5866      1.00000
     26      -1.4489      1.00000
     27      -0.4314      1.00000
     28      -0.4007      1.00000
     29       0.3018      1.00000
     30       0.4292      1.00000
     31       0.7278      1.00000
     32       0.8105      1.00000
     33       1.0456      1.00000
     34       1.1093      1.00000
     35       1.3203      1.00000
     36       1.3673      1.00000
     37       1.5807      1.00000
     38       1.6567      1.00000
     39       1.9677      1.00000
     40       2.0896      1.00000
     41       2.1228      1.00000
     42       2.2311      1.00000
     43       2.3464      1.00000
     44       2.5376      1.00000
     45       2.6287      1.00000
     46       2.6761      1.00000
     47       2.8993      1.00000
     48       3.0324      1.00000
     49       6.0328      0.00000
     50       6.1403      0.00000
     51       6.2849      0.00000
     52       6.3967      0.00000
     53       6.7699      0.00000
     54       6.9675      0.00000
     55       6.9856      0.00000
     56       7.1639      0.00000
     57       7.4046      0.00000
     58       7.5225      0.00000
     59       7.9453      0.00000
     60       8.0629      0.00000
     61       8.1829      0.00000
     62       8.2948      0.00000
     63       8.3547      0.00000
     64       8.4990      0.00000

 k-point    42 :       0.5000    0.4000   -0.1667
  band No.  band energies     occupation 
      1     -32.3847      1.00000
      2     -32.3809      1.00000
      3     -32.3720      1.00000
      4     -32.3715      1.00000
      5     -13.9253      1.00000
      6     -13.9075      1.00000
      7     -13.8379      1.00000
      8     -13.8209      1.00000
      9     -13.7993      1.00000
     10     -13.7917      1.00000
     11     -13.7847      1.00000
     12     -13.7665      1.00000
     13     -13.7387      1.00000
     14     -13.7350      1.00000
     15     -13.7129      1.00000
     16     -13.6962      1.00000
     17      -7.2114      1.00000
     18      -7.0948      1.00000
     19      -6.4068      1.00000
     20      -6.1968      1.00000
     21      -6.0717      1.00000
     22      -6.0103      1.00000
     23      -5.8500      1.00000
     24      -5.8254      1.00000
     25      -1.5866      1.00000
     26      -1.4489      1.00000
     27      -0.4314      1.00000
     28      -0.4007      1.00000
     29       0.3018      1.00000
     30       0.4292      1.00000
     31       0.7278      1.00000
     32       0.8105      1.00000
     33       1.0456      1.00000
     34       1.1093      1.00000
     35       1.3203      1.00000
     36       1.3673      1.00000
     37       1.5807      1.00000
     38       1.6567      1.00000
     39       1.9677      1.00000
     40       2.0896      1.00000
     41       2.1228      1.00000
     42       2.2311      1.00000
     43       2.3464      1.00000
     44       2.5376      1.00000
     45       2.6287      1.00000
     46       2.6761      1.00000
     47       2.8993      1.00000
     48       3.0324      1.00000
     49       6.0328      0.00000
     50       6.1403      0.00000
     51       6.2849      0.00000
     52       6.3967      0.00000
     53       6.7699      0.00000
     54       6.9675      0.00000
     55       6.9856      0.00000
     56       7.1639      0.00000
     57       7.4046      0.00000
     58       7.5225      0.00000
     59       7.9453      0.00000
     60       8.0629      0.00000
     61       8.1829      0.00000
     62       8.2948      0.00000
     63       8.3547      0.00000
     64       8.4990      0.00000

 k-point    43 :      -0.3333    0.4000    0.1667
  band No.  band energies     occupation 
      1     -32.3847      1.00000
      2     -32.3809      1.00000
      3     -32.3720      1.00000
      4     -32.3715      1.00000
      5     -13.9254      1.00000
      6     -13.9076      1.00000
      7     -13.8377      1.00000
      8     -13.8210      1.00000
      9     -13.7986      1.00000
     10     -13.7916      1.00000
     11     -13.7846      1.00000
     12     -13.7665      1.00000
     13     -13.7386      1.00000
     14     -13.7349      1.00000
     15     -13.7129      1.00000
     16     -13.6962      1.00000
     17      -7.2779      1.00000
     18      -7.1282      1.00000
     19      -6.3420      1.00000
     20      -6.1533      1.00000
     21      -6.0595      1.00000
     22      -5.9729      1.00000
     23      -5.8602      1.00000
     24      -5.8158      1.00000
     25      -1.6225      1.00000
     26      -1.4377      1.00000
     27      -0.5337      1.00000
     28      -0.4798      1.00000
     29       0.1680      1.00000
     30       0.3758      1.00000
     31       0.5999      1.00000
     32       0.8539      1.00000
     33       1.0287      1.00000
     34       1.1923      1.00000
     35       1.3603      1.00000
     36       1.4066      1.00000
     37       1.5616      1.00000
     38       1.6376      1.00000
     39       1.9249      1.00000
     40       2.0491      1.00000
     41       2.1156      1.00000
     42       2.2522      1.00000
     43       2.5183      1.00000
     44       2.6158      1.00000
     45       2.7272      1.00000
     46       2.7870      1.00000
     47       2.9509      1.00000
     48       3.1654      1.00000
     49       6.0508      0.00000
     50       6.1546      0.00000
     51       6.4904      0.00000
     52       6.5158      0.00000
     53       6.7369      0.00000
     54       6.8896      0.00000
     55       6.9723      0.00000
     56       7.1443      0.00000
     57       7.4997      0.00000
     58       7.5796      0.00000
     59       7.9136      0.00000
     60       8.0016      0.00000
     61       8.0235      0.00000
     62       8.2813      0.00000
     63       8.3251      0.00000
     64       8.3653      0.00000

 k-point    44 :       0.3333    0.4000   -0.1667
  band No.  band energies     occupation 
      1     -32.3847      1.00000
      2     -32.3809      1.00000
      3     -32.3720      1.00000
      4     -32.3715      1.00000
      5     -13.9254      1.00000
      6     -13.9076      1.00000
      7     -13.8377      1.00000
      8     -13.8210      1.00000
      9     -13.7986      1.00000
     10     -13.7916      1.00000
     11     -13.7846      1.00000
     12     -13.7665      1.00000
     13     -13.7386      1.00000
     14     -13.7349      1.00000
     15     -13.7129      1.00000
     16     -13.6962      1.00000
     17      -7.2779      1.00000
     18      -7.1282      1.00000
     19      -6.3420      1.00000
     20      -6.1533      1.00000
     21      -6.0595      1.00000
     22      -5.9729      1.00000
     23      -5.8602      1.00000
     24      -5.8158      1.00000
     25      -1.6225      1.00000
     26      -1.4377      1.00000
     27      -0.5337      1.00000
     28      -0.4798      1.00000
     29       0.1680      1.00000
     30       0.3758      1.00000
     31       0.5999      1.00000
     32       0.8539      1.00000
     33       1.0287      1.00000
     34       1.1923      1.00000
     35       1.3603      1.00000
     36       1.4066      1.00000
     37       1.5616      1.00000
     38       1.6376      1.00000
     39       1.9249      1.00000
     40       2.0491      1.00000
     41       2.1156      1.00000
     42       2.2522      1.00000
     43       2.5183      1.00000
     44       2.6158      1.00000
     45       2.7272      1.00000
     46       2.7870      1.00000
     47       2.9509      1.00000
     48       3.1654      1.00000
     49       6.0508      0.00000
     50       6.1546      0.00000
     51       6.4904      0.00000
     52       6.5158      0.00000
     53       6.7369      0.00000
     54       6.8896      0.00000
     55       6.9723      0.00000
     56       7.1443      0.00000
     57       7.4997      0.00000
     58       7.5796      0.00000
     59       7.9136      0.00000
     60       8.0016      0.00000
     61       8.0235      0.00000
     62       8.2813      0.00000
     63       8.3251      0.00000
     64       8.3656      0.00000

 k-point    45 :      -0.1667    0.4000    0.1667
  band No.  band energies     occupation 
      1     -32.3847      1.00000
      2     -32.3809      1.00000
      3     -32.3720      1.00000
      4     -32.3715      1.00000
      5     -13.9257      1.00000
      6     -13.9078      1.00000
      7     -13.8376      1.00000
      8     -13.8210      1.00000
      9     -13.7977      1.00000
     10     -13.7913      1.00000
     11     -13.7842      1.00000
     12     -13.7663      1.00000
     13     -13.7382      1.00000
     14     -13.7346      1.00000
     15     -13.7130      1.00000
     16     -13.6962      1.00000
     17      -7.3607      1.00000
     18      -7.1657      1.00000
     19      -6.2828      1.00000
     20      -6.1258      1.00000
     21      -5.9856      1.00000
     22      -5.9149      1.00000
     23      -5.8695      1.00000
     24      -5.8308      1.00000
     25      -1.6304      1.00000
     26      -1.3960      1.00000
     27      -0.7109      1.00000
     28      -0.5297      1.00000
     29       0.0119      1.00000
     30       0.2816      1.00000
     31       0.5628      1.00000
     32       0.7689      1.00000
     33       1.1092      1.00000
     34       1.2055      1.00000
     35       1.4274      1.00000
     36       1.5146      1.00000
     37       1.5922      1.00000
     38       1.6051      1.00000
     39       1.8782      1.00000
     40       2.0461      1.00000
     41       2.1162      1.00000
     42       2.2726      1.00000
     43       2.4475      1.00000
     44       2.5699      1.00000
     45       2.7748      1.00000
     46       2.9834      1.00000
     47       3.0224      1.00000
     48       3.1914      1.00000
     49       5.9725      0.00000
     50       6.2571      0.00000
     51       6.4214      0.00000
     52       6.7693      0.00000
     53       6.8870      0.00000
     54       7.0772      0.00000
     55       7.1634      0.00000
     56       7.4342      0.00000
     57       7.6391      0.00000
     58       7.6682      0.00000
     59       7.8907      0.00000
     60       7.9328      0.00000
     61       8.0129      0.00000
     62       8.2434      0.00000
     63       8.2552      0.00000
     64       8.3257      0.00000

 k-point    46 :       0.1667    0.4000   -0.1667
  band No.  band energies     occupation 
      1     -32.3847      1.00000
      2     -32.3809      1.00000
      3     -32.3720      1.00000
      4     -32.3715      1.00000
      5     -13.9257      1.00000
      6     -13.9078      1.00000
      7     -13.8376      1.00000
      8     -13.8210      1.00000
      9     -13.7977      1.00000
     10     -13.7913      1.00000
     11     -13.7842      1.00000
     12     -13.7663      1.00000
     13     -13.7382      1.00000
     14     -13.7346      1.00000
     15     -13.7130      1.00000
     16     -13.6962      1.00000
     17      -7.3607      1.00000
     18      -7.1657      1.00000
     19      -6.2828      1.00000
     20      -6.1258      1.00000
     21      -5.9856      1.00000
     22      -5.9149      1.00000
     23      -5.8695      1.00000
     24      -5.8308      1.00000
     25      -1.6304      1.00000
     26      -1.3960      1.00000
     27      -0.7109      1.00000
     28      -0.5297      1.00000
     29       0.0119      1.00000
     30       0.2816      1.00000
     31       0.5628      1.00000
     32       0.7689      1.00000
     33       1.1092      1.00000
     34       1.2055      1.00000
     35       1.4274      1.00000
     36       1.5146      1.00000
     37       1.5922      1.00000
     38       1.6051      1.00000
     39       1.8782      1.00000
     40       2.0461      1.00000
     41       2.1162      1.00000
     42       2.2726      1.00000
     43       2.4475      1.00000
     44       2.5699      1.00000
     45       2.7748      1.00000
     46       2.9834      1.00000
     47       3.0224      1.00000
     48       3.1914      1.00000
     49       5.9725      0.00000
     50       6.2571      0.00000
     51       6.4214      0.00000
     52       6.7693      0.00000
     53       6.8870      0.00000
     54       7.0772      0.00000
     55       7.1634      0.00000
     56       7.4342      0.00000
     57       7.6391      0.00000
     58       7.6682      0.00000
     59       7.8907      0.00000
     60       7.9328      0.00000
     61       8.0129      0.00000
     62       8.2437      0.00000
     63       8.2541      0.00000
     64       8.3246      0.00000

 k-point    47 :      -0.0000    0.0000    0.3333
  band No.  band energies     occupation 
      1     -32.3855      1.00000
      2     -32.3772      1.00000
      3     -32.3732      1.00000
      4     -32.3731      1.00000
      5     -13.9423      1.00000
      6     -13.9414      1.00000
      7     -13.8987      1.00000
      8     -13.8064      1.00000
      9     -13.7739      1.00000
     10     -13.7640      1.00000
     11     -13.7487      1.00000
     12     -13.7440      1.00000
     13     -13.7436      1.00000
     14     -13.7358      1.00000
     15     -13.7217      1.00000
     16     -13.6881      1.00000
     17      -7.4339      1.00000
     18      -6.9748      1.00000
     19      -6.3791      1.00000
     20      -6.1134      1.00000
     21      -6.0023      1.00000
     22      -5.9873      1.00000
     23      -5.8660      1.00000
     24      -5.8523      1.00000
     25      -1.5707      1.00000
     26      -1.0797      1.00000
     27      -0.9343      1.00000
     28      -0.6698      1.00000
     29      -0.0434      1.00000
     30       0.2543      1.00000
     31       0.4044      1.00000
     32       1.1078      1.00000
     33       1.1887      1.00000
     34       1.2244      1.00000
     35       1.3363      1.00000
     36       1.5577      1.00000
     37       1.7583      1.00000
     38       1.7779      1.00000
     39       1.8703      1.00000
     40       2.2166      1.00000
     41       2.2836      1.00000
     42       2.3217      1.00000
     43       2.3924      1.00000
     44       2.5532      1.00000
     45       2.5844      1.00000
     46       2.7842      1.00000
     47       3.0410      1.00000
     48       3.1437      1.00000
     49       5.4296      0.00000
     50       5.4429      0.00000
     51       5.7492      0.00000
     52       6.4385      0.00000
     53       6.8968      0.00000
     54       7.1524      0.00000
     55       7.3908      0.00000
     56       7.6789      0.00000
     57       7.7387      0.00000
     58       7.8404      0.00000
     59       7.9056      0.00000
     60       8.1939      0.00000
     61       8.2419      0.00000
     62       8.3371      0.00000
     63       8.4237      0.00000
     64       8.4878      0.00000

 k-point    48 :       0.1667   -0.0000    0.3333
  band No.  band energies     occupation 
      1     -32.3855      1.00000
      2     -32.3772      1.00000
      3     -32.3732      1.00000
      4     -32.3731      1.00000
      5     -13.9423      1.00000
      6     -13.9413      1.00000
      7     -13.8985      1.00000
      8     -13.8071      1.00000
      9     -13.7739      1.00000
     10     -13.7643      1.00000
     11     -13.7488      1.00000
     12     -13.7442      1.00000
     13     -13.7439      1.00000
     14     -13.7358      1.00000
     15     -13.7217      1.00000
     16     -13.6881      1.00000
     17      -7.3836      1.00000
     18      -6.9543      1.00000
     19      -6.4391      1.00000
     20      -6.1189      1.00000
     21      -5.9958      1.00000
     22      -5.9893      1.00000
     23      -5.9007      1.00000
     24      -5.8734      1.00000
     25      -1.5137      1.00000
     26      -1.0239      1.00000
     27      -0.9324      1.00000
     28      -0.7384      1.00000
     29       0.1622      1.00000
     30       0.3103      1.00000
     31       0.4636      1.00000
     32       1.0192      1.00000
     33       1.0603      1.00000
     34       1.2378      1.00000
     35       1.4206      1.00000
     36       1.5039      1.00000
     37       1.6674      1.00000
     38       1.8127      1.00000
     39       2.0419      1.00000
     40       2.1320      1.00000
     41       2.1584      1.00000
     42       2.1939      1.00000
     43       2.3434      1.00000
     44       2.5476      1.00000
     45       2.6411      1.00000
     46       2.7451      1.00000
     47       3.0674      1.00000
     48       3.2323      1.00000
     49       5.4633      0.00000
     50       5.4657      0.00000
     51       5.7207      0.00000
     52       6.5530      0.00000
     53       6.9078      0.00000
     54       6.9507      0.00000
     55       7.1987      0.00000
     56       7.4444      0.00000
     57       7.5018      0.00000
     58       7.8220      0.00000
     59       7.8436      0.00000
     60       7.9018      0.00000
     61       8.1602      0.00000
     62       8.2766      0.00000
     63       8.4390      0.00000
     64       8.6089      0.00000

 k-point    49 :       0.3333    0.0000    0.3333
  band No.  band energies     occupation 
      1     -32.3855      1.00000
      2     -32.3772      1.00000
      3     -32.3732      1.00000
      4     -32.3731      1.00000
      5     -13.9420      1.00000
      6     -13.9410      1.00000
      7     -13.8981      1.00000
      8     -13.8084      1.00000
      9     -13.7738      1.00000
     10     -13.7648      1.00000
     11     -13.7488      1.00000
     12     -13.7446      1.00000
     13     -13.7443      1.00000
     14     -13.7357      1.00000
     15     -13.7217      1.00000
     16     -13.6881      1.00000
     17      -7.2789      1.00000
     18      -6.9416      1.00000
     19      -6.5692      1.00000
     20      -6.2064      1.00000
     21      -6.0130      1.00000
     22      -5.9432      1.00000
     23      -5.8714      1.00000
     24      -5.8638      1.00000
     25      -1.5175      1.00000
     26      -1.0772      1.00000
     27      -0.9441      1.00000
     28      -0.7497      1.00000
     29       0.3391      1.00000
     30       0.4425      1.00000
     31       0.5761      1.00000
     32       0.8500      1.00000
     33       1.0070      1.00000
     34       1.2588      1.00000
     35       1.3198      1.00000
     36       1.4670      1.00000
     37       1.5535      1.00000
     38       1.9728      1.00000
     39       2.0581      1.00000
     40       2.1015      1.00000
     41       2.2702      1.00000
     42       2.2868      1.00000
     43       2.5868      1.00000
     44       2.6386      1.00000
     45       2.6730      1.00000
     46       2.7441      1.00000
     47       2.9434      1.00000
     48       3.1683      1.00000
     49       5.5331      0.00000
     50       5.5612      0.00000
     51       5.6950      0.00000
     52       6.5194      0.00000
     53       6.7200      0.00000
     54       6.8853      0.00000
     55       6.9405      0.00000
     56       7.0265      0.00000
     57       7.2938      0.00000
     58       7.3579      0.00000
     59       7.5938      0.00000
     60       7.8705      0.00000
     61       8.0132      0.00000
     62       8.1160      0.00000
     63       8.1749      0.00000
     64       8.3763      0.00000

 k-point    50 :       0.5000   -0.0000    0.3333
  band No.  band energies     occupation 
      1     -32.3855      1.00000
      2     -32.3772      1.00000
      3     -32.3732      1.00000
      4     -32.3731      1.00000
      5     -13.9417      1.00000
      6     -13.9409      1.00000
      7     -13.8979      1.00000
      8     -13.8092      1.00000
      9     -13.7738      1.00000
     10     -13.7651      1.00000
     11     -13.7489      1.00000
     12     -13.7447      1.00000
     13     -13.7445      1.00000
     14     -13.7356      1.00000
     15     -13.7217      1.00000
     16     -13.6881      1.00000
     17      -7.2265      1.00000
     18      -6.9502      1.00000
     19      -6.6205      1.00000
     20      -6.2611      1.00000
     21      -6.0790      1.00000
     22      -5.9132      1.00000
     23      -5.8208      1.00000
     24      -5.8024      1.00000
     25      -1.5914      1.00000
     26      -1.1724      1.00000
     27      -0.9091      1.00000
     28      -0.7638      1.00000
     29       0.3837      1.00000
     30       0.4062      1.00000
     31       0.6678      1.00000
     32       0.8030      1.00000
     33       1.0043      1.00000
     34       1.2099      1.00000
     35       1.3157      1.00000
     36       1.3588      1.00000
     37       1.7716      1.00000
     38       1.9461      1.00000
     39       1.9803      1.00000
     40       2.2279      1.00000
     41       2.3674      1.00000
     42       2.4238      1.00000
     43       2.6148      1.00000
     44       2.7204      1.00000
     45       2.7630      1.00000
     46       2.7994      1.00000
     47       3.0443      1.00000
     48       3.0536      1.00000
     49       5.5892      0.00000
     50       5.6029      0.00000
     51       5.8256      0.00000
     52       6.1452      0.00000
     53       6.4128      0.00000
     54       6.6604      0.00000
     55       6.7718      0.00000
     56       6.8557      0.00000
     57       7.0601      0.00000
     58       7.4421      0.00000
     59       7.5984      0.00000
     60       7.6953      0.00000
     61       8.0768      0.00000
     62       8.1291      0.00000
     63       8.2507      0.00000
     64       8.3220      0.00000

 k-point    51 :      -0.3333    0.0000    0.3333
  band No.  band energies     occupation 
      1     -32.3855      1.00000
      2     -32.3772      1.00000
      3     -32.3732      1.00000
      4     -32.3731      1.00000
      5     -13.9418      1.00000
      6     -13.9410      1.00000
      7     -13.8980      1.00000
      8     -13.8085      1.00000
      9     -13.7738      1.00000
     10     -13.7649      1.00000
     11     -13.7489      1.00000
     12     -13.7445      1.00000
     13     -13.7443      1.00000
     14     -13.7357      1.00000
     15     -13.7217      1.00000
     16     -13.6881      1.00000
     17      -7.3029      1.00000
     18      -6.9705      1.00000
     19      -6.5332      1.00000
     20      -6.2617      1.00000
     21      -6.0609      1.00000
     22      -5.8891      1.00000
     23      -5.8257      1.00000
     24      -5.7850      1.00000
     25      -1.6538      1.00000
     26      -1.1597      1.00000
     27      -0.8876      1.00000
     28      -0.7825      1.00000
     29       0.1097      1.00000
     30       0.2860      1.00000
     31       0.6301      1.00000
     32       0.8794      1.00000
     33       1.0272      1.00000
     34       1.3257      1.00000
     35       1.3286      1.00000
     36       1.5233      1.00000
     37       1.8173      1.00000
     38       1.8556      1.00000
     39       1.9516      1.00000
     40       2.2718      1.00000
     41       2.4028      1.00000
     42       2.4824      1.00000
     43       2.6892      1.00000
     44       2.7403      1.00000
     45       2.7500      1.00000
     46       2.7924      1.00000
     47       2.9994      1.00000
     48       3.0444      1.00000
     49       5.4547      0.00000
     50       5.4919      0.00000
     51       5.8756      0.00000
     52       6.3666      0.00000
     53       6.4678      0.00000
     54       6.7450      0.00000
     55       6.7557      0.00000
     56       6.8889      0.00000
     57       6.9416      0.00000
     58       7.4426      0.00000
     59       7.6393      0.00000
     60       7.7668      0.00000
     61       8.1713      0.00000
     62       8.1794      0.00000
     63       8.2266      0.00000
     64       8.3698      0.00000

 k-point    52 :      -0.1667    0.0000    0.3333
  band No.  band energies     occupation 
      1     -32.3855      1.00000
      2     -32.3772      1.00000
      3     -32.3732      1.00000
      4     -32.3731      1.00000
      5     -13.9421      1.00000
      6     -13.9413      1.00000
      7     -13.8984      1.00000
      8     -13.8072      1.00000
      9     -13.7739      1.00000
     10     -13.7643      1.00000
     11     -13.7488      1.00000
     12     -13.7441      1.00000
     13     -13.7439      1.00000
     14     -13.7357      1.00000
     15     -13.7217      1.00000
     16     -13.6881      1.00000
     17      -7.4001      1.00000
     18      -6.9825      1.00000
     19      -6.4314      1.00000
     20      -6.2065      1.00000
     21      -5.9534      1.00000
     22      -5.9215      1.00000
     23      -5.8981      1.00000
     24      -5.8039      1.00000
     25      -1.6386      1.00000
     26      -1.0623      1.00000
     27      -1.0099      1.00000
     28      -0.6491      1.00000
     29      -0.1455      1.00000
     30       0.2538      1.00000
     31       0.4991      1.00000
     32       1.0717      1.00000
     33       1.0833      1.00000
     34       1.2881      1.00000
     35       1.3139      1.00000
     36       1.5576      1.00000
     37       1.8062      1.00000
     38       1.8077      1.00000
     39       2.0243      1.00000
     40       2.2502      1.00000
     41       2.3597      1.00000
     42       2.3811      1.00000
     43       2.6206      1.00000
     44       2.6454      1.00000
     45       2.7565      1.00000
     46       2.7784      1.00000
     47       2.9510      1.00000
     48       2.9732      1.00000
     49       5.4311      0.00000
     50       5.4539      0.00000
     51       5.7678      0.00000
     52       6.4634      0.00000
     53       6.7625      0.00000
     54       6.7985      0.00000
     55       7.2195      0.00000
     56       7.3260      0.00000
     57       7.4401      0.00000
     58       7.6804      0.00000
     59       7.7167      0.00000
     60       7.9938      0.00000
     61       8.2079      0.00000
     62       8.2410      0.00000
     63       8.4052      0.00000
     64       8.4392      0.00000

 k-point    53 :      -0.0000    0.2000    0.3333
  band No.  band energies     occupation 
      1     -32.3847      1.00000
      2     -32.3775      1.00000
      3     -32.3744      1.00000
      4     -32.3727      1.00000
      5     -13.9374      1.00000
      6     -13.9185      1.00000
      7     -13.8973      1.00000
      8     -13.8019      1.00000
      9     -13.7829      1.00000
     10     -13.7669      1.00000
     11     -13.7594      1.00000
     12     -13.7514      1.00000
     13     -13.7444      1.00000
     14     -13.7386      1.00000
     15     -13.7196      1.00000
     16     -13.6925      1.00000
     17      -7.3895      1.00000
     18      -7.0061      1.00000
     19      -6.4150      1.00000
     20      -6.1710      1.00000
     21      -5.9958      1.00000
     22      -5.9273      1.00000
     23      -5.8628      1.00000
     24      -5.8528      1.00000
     25      -1.4925      1.00000
     26      -1.0608      1.00000
     27      -0.9147      1.00000
     28      -0.5864      1.00000
     29      -0.0563      1.00000
     30       0.3096      1.00000
     31       0.4218      1.00000
     32       0.8521      1.00000
     33       1.0755      1.00000
     34       1.2970      1.00000
     35       1.3948      1.00000
     36       1.5397      1.00000
     37       1.7692      1.00000
     38       1.8139      1.00000
     39       1.8470      1.00000
     40       2.1081      1.00000
     41       2.2101      1.00000
     42       2.2645      1.00000
     43       2.3724      1.00000
     44       2.4997      1.00000
     45       2.6805      1.00000
     46       2.7284      1.00000
     47       2.8617      1.00000
     48       3.2423      1.00000
     49       5.3886      0.00000
     50       5.8248      0.00000
     51       6.0443      0.00000
     52       6.5352      0.00000
     53       6.8512      0.00000
     54       7.1439      0.00000
     55       7.3900      0.00000
     56       7.6514      0.00000
     57       7.7156      0.00000
     58       7.8146      0.00000
     59       7.9360      0.00000
     60       8.1634      0.00000
     61       8.2588      0.00000
     62       8.3383      0.00000
     63       8.4206      0.00000
     64       8.5546      0.00000

 k-point    54 :       0.0000    0.2000   -0.3333
  band No.  band energies     occupation 
      1     -32.3847      1.00000
      2     -32.3775      1.00000
      3     -32.3744      1.00000
      4     -32.3727      1.00000
      5     -13.9374      1.00000
      6     -13.9185      1.00000
      7     -13.8973      1.00000
      8     -13.8019      1.00000
      9     -13.7829      1.00000
     10     -13.7669      1.00000
     11     -13.7594      1.00000
     12     -13.7514      1.00000
     13     -13.7444      1.00000
     14     -13.7386      1.00000
     15     -13.7196      1.00000
     16     -13.6925      1.00000
     17      -7.3895      1.00000
     18      -7.0061      1.00000
     19      -6.4150      1.00000
     20      -6.1710      1.00000
     21      -5.9958      1.00000
     22      -5.9273      1.00000
     23      -5.8628      1.00000
     24      -5.8528      1.00000
     25      -1.4925      1.00000
     26      -1.0608      1.00000
     27      -0.9147      1.00000
     28      -0.5864      1.00000
     29      -0.0563      1.00000
     30       0.3096      1.00000
     31       0.4218      1.00000
     32       0.8521      1.00000
     33       1.0755      1.00000
     34       1.2970      1.00000
     35       1.3948      1.00000
     36       1.5397      1.00000
     37       1.7692      1.00000
     38       1.8139      1.00000
     39       1.8470      1.00000
     40       2.1081      1.00000
     41       2.2101      1.00000
     42       2.2645      1.00000
     43       2.3724      1.00000
     44       2.4997      1.00000
     45       2.6805      1.00000
     46       2.7284      1.00000
     47       2.8617      1.00000
     48       3.2423      1.00000
     49       5.3886      0.00000
     50       5.8248      0.00000
     51       6.0443      0.00000
     52       6.5352      0.00000
     53       6.8512      0.00000
     54       7.1439      0.00000
     55       7.3900      0.00000
     56       7.6514      0.00000
     57       7.7156      0.00000
     58       7.8146      0.00000
     59       7.9360      0.00000
     60       8.1634      0.00000
     61       8.2588      0.00000
     62       8.3383      0.00000
     63       8.4206      0.00000
     64       8.5506      0.00000

 k-point    55 :       0.1667    0.2000    0.3333
  band No.  band energies     occupation 
      1     -32.3847      1.00000
      2     -32.3775      1.00000
      3     -32.3744      1.00000
      4     -32.3727      1.00000
      5     -13.9373      1.00000
      6     -13.9185      1.00000
      7     -13.8971      1.00000
      8     -13.8025      1.00000
      9     -13.7828      1.00000
     10     -13.7670      1.00000
     11     -13.7596      1.00000
     12     -13.7517      1.00000
     13     -13.7444      1.00000
     14     -13.7387      1.00000
     15     -13.7196      1.00000
     16     -13.6925      1.00000
     17      -7.3413      1.00000
     18      -6.9858      1.00000
     19      -6.4456      1.00000
     20      -6.1947      1.00000
     21      -6.0066      1.00000
     22      -5.9440      1.00000
     23      -5.8948      1.00000
     24      -5.8521      1.00000
     25      -1.4526      1.00000
     26      -1.0718      1.00000
     27      -0.8746      1.00000
     28      -0.6101      1.00000
     29       0.1653      1.00000
     30       0.3280      1.00000
     31       0.4779      1.00000
     32       0.8453      1.00000
     33       1.0721      1.00000
     34       1.2416      1.00000
     35       1.3441      1.00000
     36       1.4633      1.00000
     37       1.6952      1.00000
     38       1.8396      1.00000
     39       1.9570      1.00000
     40       2.0988      1.00000
     41       2.1358      1.00000
     42       2.2579      1.00000
     43       2.3596      1.00000
     44       2.5505      1.00000
     45       2.6397      1.00000
     46       2.7020      1.00000
     47       2.8775      1.00000
     48       3.1429      1.00000
     49       5.4005      0.00000
     50       5.8120      0.00000
     51       6.0217      0.00000
     52       6.6873      0.00000
     53       6.7537      0.00000
     54       6.9199      0.00000
     55       7.1094      0.00000
     56       7.4228      0.00000
     57       7.6381      0.00000
     58       7.7384      0.00000
     59       7.9586      0.00000
     60       8.1599      0.00000
     61       8.2179      0.00000
     62       8.4742      0.00000
     63       8.5066      0.00000
     64       8.5390      0.00000

 k-point    56 :      -0.1667    0.2000   -0.3333
  band No.  band energies     occupation 
      1     -32.3847      1.00000
      2     -32.3775      1.00000
      3     -32.3744      1.00000
      4     -32.3727      1.00000
      5     -13.9373      1.00000
      6     -13.9185      1.00000
      7     -13.8971      1.00000
      8     -13.8025      1.00000
      9     -13.7828      1.00000
     10     -13.7670      1.00000
     11     -13.7596      1.00000
     12     -13.7517      1.00000
     13     -13.7444      1.00000
     14     -13.7387      1.00000
     15     -13.7196      1.00000
     16     -13.6925      1.00000
     17      -7.3413      1.00000
     18      -6.9858      1.00000
     19      -6.4456      1.00000
     20      -6.1947      1.00000
     21      -6.0066      1.00000
     22      -5.9440      1.00000
     23      -5.8948      1.00000
     24      -5.8521      1.00000
     25      -1.4526      1.00000
     26      -1.0718      1.00000
     27      -0.8746      1.00000
     28      -0.6101      1.00000
     29       0.1653      1.00000
     30       0.3280      1.00000
     31       0.4779      1.00000
     32       0.8453      1.00000
     33       1.0721      1.00000
     34       1.2416      1.00000
     35       1.3441      1.00000
     36       1.4633      1.00000
     37       1.6952      1.00000
     38       1.8396      1.00000
     39       1.9570      1.00000
     40       2.0988      1.00000
     41       2.1358      1.00000
     42       2.2579      1.00000
     43       2.3596      1.00000
     44       2.5505      1.00000
     45       2.6397      1.00000
     46       2.7020      1.00000
     47       2.8775      1.00000
     48       3.1429      1.00000
     49       5.4005      0.00000
     50       5.8120      0.00000
     51       6.0217      0.00000
     52       6.6873      0.00000
     53       6.7537      0.00000
     54       6.9199      0.00000
     55       7.1094      0.00000
     56       7.4228      0.00000
     57       7.6381      0.00000
     58       7.7384      0.00000
     59       7.9586      0.00000
     60       8.1599      0.00000
     61       8.2179      0.00000
     62       8.4742      0.00000
     63       8.5066      0.00000
     64       8.5391      0.00000

 k-point    57 :       0.3333    0.2000    0.3333
  band No.  band energies     occupation 
      1     -32.3847      1.00000
      2     -32.3775      1.00000
      3     -32.3744      1.00000
      4     -32.3726      1.00000
      5     -13.9370      1.00000
      6     -13.9182      1.00000
      7     -13.8968      1.00000
      8     -13.8037      1.00000
      9     -13.7828      1.00000
     10     -13.7672      1.00000
     11     -13.7600      1.00000
     12     -13.7523      1.00000
     13     -13.7444      1.00000
     14     -13.7389      1.00000
     15     -13.7196      1.00000
     16     -13.6925      1.00000
     17      -7.2479      1.00000
     18      -6.9771      1.00000
     19      -6.5305      1.00000
     20      -6.2280      1.00000
     21      -6.0161      1.00000
     22      -5.9705      1.00000
     23      -5.9142      1.00000
     24      -5.8174      1.00000
     25      -1.4615      1.00000
     26      -1.1680      1.00000
     27      -0.7957      1.00000
     28      -0.6776      1.00000
     29       0.3655      1.00000
     30       0.4835      1.00000
     31       0.5416      1.00000
     32       0.8540      1.00000
     33       0.9251      1.00000
     34       1.2336      1.00000
     35       1.3131      1.00000
     36       1.3999      1.00000
     37       1.6666      1.00000
     38       1.8921      1.00000
     39       1.9775      1.00000
     40       2.1128      1.00000
     41       2.2204      1.00000
     42       2.2982      1.00000
     43       2.5510      1.00000
     44       2.5800      1.00000
     45       2.6884      1.00000
     46       2.7394      1.00000
     47       2.8147      1.00000
     48       3.0332      1.00000
     49       5.4907      0.00000
     50       5.7835      0.00000
     51       5.9690      0.00000
     52       6.6264      0.00000
     53       6.7334      0.00000
     54       6.8274      0.00000
     55       6.9762      0.00000
     56       7.0542      0.00000
     57       7.1707      0.00000
     58       7.4660      0.00000
     59       7.7194      0.00000
     60       7.7606      0.00000
     61       8.1357      0.00000
     62       8.3757      0.00000
     63       8.4383      0.00000
     64       8.5081      0.00000

 k-point    58 :      -0.3333    0.2000   -0.3333
  band No.  band energies     occupation 
      1     -32.3847      1.00000
      2     -32.3775      1.00000
      3     -32.3744      1.00000
      4     -32.3727      1.00000
      5     -13.9370      1.00000
      6     -13.9182      1.00000
      7     -13.8968      1.00000
      8     -13.8037      1.00000
      9     -13.7828      1.00000
     10     -13.7672      1.00000
     11     -13.7600      1.00000
     12     -13.7523      1.00000
     13     -13.7444      1.00000
     14     -13.7389      1.00000
     15     -13.7196      1.00000
     16     -13.6925      1.00000
     17      -7.2479      1.00000
     18      -6.9771      1.00000
     19      -6.5305      1.00000
     20      -6.2280      1.00000
     21      -6.0161      1.00000
     22      -5.9705      1.00000
     23      -5.9142      1.00000
     24      -5.8174      1.00000
     25      -1.4615      1.00000
     26      -1.1680      1.00000
     27      -0.7957      1.00000
     28      -0.6776      1.00000
     29       0.3655      1.00000
     30       0.4835      1.00000
     31       0.5416      1.00000
     32       0.8540      1.00000
     33       0.9251      1.00000
     34       1.2336      1.00000
     35       1.3131      1.00000
     36       1.3999      1.00000
     37       1.6665      1.00000
     38       1.8921      1.00000
     39       1.9775      1.00000
     40       2.1128      1.00000
     41       2.2204      1.00000
     42       2.2982      1.00000
     43       2.5510      1.00000
     44       2.5800      1.00000
     45       2.6884      1.00000
     46       2.7394      1.00000
     47       2.8147      1.00000
     48       3.0332      1.00000
     49       5.4907      0.00000
     50       5.7835      0.00000
     51       5.9690      0.00000
     52       6.6264      0.00000
     53       6.7334      0.00000
     54       6.8274      0.00000
     55       6.9762      0.00000
     56       7.0542      0.00000
     57       7.1707      0.00000
     58       7.4660      0.00000
     59       7.7194      0.00000
     60       7.7606      0.00000
     61       8.1357      0.00000
     62       8.3757      0.00000
     63       8.4383      0.00000
     64       8.5078      0.00000

 k-point    59 :       0.5000    0.2000    0.3333
  band No.  band energies     occupation 
      1     -32.3847      1.00000
      2     -32.3775      1.00000
      3     -32.3744      1.00000
      4     -32.3726      1.00000
      5     -13.9369      1.00000
      6     -13.9180      1.00000
      7     -13.8965      1.00000
      8     -13.8044      1.00000
      9     -13.7828      1.00000
     10     -13.7672      1.00000
     11     -13.7602      1.00000
     12     -13.7526      1.00000
     13     -13.7445      1.00000
     14     -13.7390      1.00000
     15     -13.7196      1.00000
     16     -13.6925      1.00000
     17      -7.2060      1.00000
     18      -6.9904      1.00000
     19      -6.5561      1.00000
     20      -6.2611      1.00000
     21      -6.0810      1.00000
     22      -5.9074      1.00000
     23      -5.8811      1.00000
     24      -5.8104      1.00000
     25      -1.5218      1.00000
     26      -1.2149      1.00000
     27      -0.8034      1.00000
     28      -0.7162      1.00000
     29       0.3968      1.00000
     30       0.4423      1.00000
     31       0.6733      1.00000
     32       0.7716      1.00000
     33       0.9944      1.00000
     34       1.1553      1.00000
     35       1.2961      1.00000
     36       1.3999      1.00000
     37       1.7962      1.00000
     38       1.9086      1.00000
     39       1.9814      1.00000
     40       2.1766      1.00000
     41       2.2305      1.00000
     42       2.3191      1.00000
     43       2.5514      1.00000
     44       2.7475      1.00000
     45       2.7585      1.00000
     46       2.8030      1.00000
     47       2.8610      1.00000
     48       3.0175      1.00000
     49       5.6182      0.00000
     50       5.7479      0.00000
     51       6.0495      0.00000
     52       6.2945      0.00000
     53       6.5968      0.00000
     54       6.7296      0.00000
     55       6.8221      0.00000
     56       6.8580      0.00000
     57       7.0579      0.00000
     58       7.4516      0.00000
     59       7.5714      0.00000
     60       7.7611      0.00000
     61       7.8690      0.00000
     62       8.2239      0.00000
     63       8.2640      0.00000
     64       8.5041      0.00000

 k-point    60 :       0.5000    0.2000   -0.3333
  band No.  band energies     occupation 
      1     -32.3847      1.00000
      2     -32.3775      1.00000
      3     -32.3743      1.00000
      4     -32.3726      1.00000
      5     -13.9369      1.00000
      6     -13.9180      1.00000
      7     -13.8965      1.00000
      8     -13.8044      1.00000
      9     -13.7828      1.00000
     10     -13.7672      1.00000
     11     -13.7602      1.00000
     12     -13.7526      1.00000
     13     -13.7445      1.00000
     14     -13.7390      1.00000
     15     -13.7196      1.00000
     16     -13.6925      1.00000
     17      -7.2060      1.00000
     18      -6.9904      1.00000
     19      -6.5561      1.00000
     20      -6.2611      1.00000
     21      -6.0810      1.00000
     22      -5.9074      1.00000
     23      -5.8811      1.00000
     24      -5.8104      1.00000
     25      -1.5218      1.00000
     26      -1.2149      1.00000
     27      -0.8034      1.00000
     28      -0.7162      1.00000
     29       0.3968      1.00000
     30       0.4423      1.00000
     31       0.6733      1.00000
     32       0.7716      1.00000
     33       0.9944      1.00000
     34       1.1553      1.00000
     35       1.2961      1.00000
     36       1.3999      1.00000
     37       1.7962      1.00000
     38       1.9086      1.00000
     39       1.9814      1.00000
     40       2.1766      1.00000
     41       2.2305      1.00000
     42       2.3191      1.00000
     43       2.5514      1.00000
     44       2.7475      1.00000
     45       2.7585      1.00000
     46       2.8030      1.00000
     47       2.8610      1.00000
     48       3.0175      1.00000
     49       5.6182      0.00000
     50       5.7479      0.00000
     51       6.0495      0.00000
     52       6.2945      0.00000
     53       6.5968      0.00000
     54       6.7296      0.00000
     55       6.8221      0.00000
     56       6.8580      0.00000
     57       7.0579      0.00000
     58       7.4516      0.00000
     59       7.5714      0.00000
     60       7.7611      0.00000
     61       7.8690      0.00000
     62       8.2239      0.00000
     63       8.2640      0.00000
     64       8.4699      0.00000

 k-point    61 :      -0.3333    0.2000    0.3333
  band No.  band energies     occupation 
      1     -32.3847      1.00000
      2     -32.3775      1.00000
      3     -32.3744      1.00000
      4     -32.3726      1.00000
      5     -13.9370      1.00000
      6     -13.9181      1.00000
      7     -13.8967      1.00000
      8     -13.8038      1.00000
      9     -13.7829      1.00000
     10     -13.7671      1.00000
     11     -13.7600      1.00000
     12     -13.7523      1.00000
     13     -13.7445      1.00000
     14     -13.7389      1.00000
     15     -13.7196      1.00000
     16     -13.6925      1.00000
     17      -7.2754      1.00000
     18      -7.0071      1.00000
     19      -6.4984      1.00000
     20      -6.2448      1.00000
     21      -6.0614      1.00000
     22      -5.8959      1.00000
     23      -5.8518      1.00000
     24      -5.8152      1.00000
     25      -1.5723      1.00000
     26      -1.1754      1.00000
     27      -0.8233      1.00000
     28      -0.7376      1.00000
     29       0.1489      1.00000
     30       0.3309      1.00000
     31       0.6569      1.00000
     32       0.8373      1.00000
     33       0.9951      1.00000
     34       1.2742      1.00000
     35       1.2939      1.00000
     36       1.5068      1.00000
     37       1.7585      1.00000
     38       1.8326      1.00000
     39       1.9178      1.00000
     40       2.1399      1.00000
     41       2.2851      1.00000
     42       2.5249      1.00000
     43       2.5975      1.00000
     44       2.6745      1.00000
     45       2.8237      1.00000
     46       2.8426      1.00000
     47       2.9229      1.00000
     48       3.0016      1.00000
     49       5.4915      0.00000
     50       5.7371      0.00000
     51       6.0670      0.00000
     52       6.4936      0.00000
     53       6.5954      0.00000
     54       6.7384      0.00000
     55       6.8709      0.00000
     56       6.9667      0.00000
     57       7.0669      0.00000
     58       7.4181      0.00000
     59       7.6111      0.00000
     60       7.7810      0.00000
     61       8.1239      0.00000
     62       8.2065      0.00000
     63       8.2558      0.00000
     64       8.3686      0.00000

 k-point    62 :       0.3333    0.2000   -0.3333
  band No.  band energies     occupation 
      1     -32.3847      1.00000
      2     -32.3775      1.00000
      3     -32.3744      1.00000
      4     -32.3727      1.00000
      5     -13.9370      1.00000
      6     -13.9181      1.00000
      7     -13.8967      1.00000
      8     -13.8038      1.00000
      9     -13.7829      1.00000
     10     -13.7671      1.00000
     11     -13.7600      1.00000
     12     -13.7523      1.00000
     13     -13.7445      1.00000
     14     -13.7389      1.00000
     15     -13.7196      1.00000
     16     -13.6925      1.00000
     17      -7.2754      1.00000
     18      -7.0071      1.00000
     19      -6.4984      1.00000
     20      -6.2448      1.00000
     21      -6.0614      1.00000
     22      -5.8959      1.00000
     23      -5.8518      1.00000
     24      -5.8152      1.00000
     25      -1.5723      1.00000
     26      -1.1754      1.00000
     27      -0.8233      1.00000
     28      -0.7376      1.00000
     29       0.1489      1.00000
     30       0.3309      1.00000
     31       0.6569      1.00000
     32       0.8373      1.00000
     33       0.9951      1.00000
     34       1.2742      1.00000
     35       1.2939      1.00000
     36       1.5068      1.00000
     37       1.7585      1.00000
     38       1.8326      1.00000
     39       1.9178      1.00000
     40       2.1399      1.00000
     41       2.2851      1.00000
     42       2.5249      1.00000
     43       2.5975      1.00000
     44       2.6745      1.00000
     45       2.8237      1.00000
     46       2.8426      1.00000
     47       2.9229      1.00000
     48       3.0016      1.00000
     49       5.4915      0.00000
     50       5.7371      0.00000
     51       6.0670      0.00000
     52       6.4936      0.00000
     53       6.5954      0.00000
     54       6.7384      0.00000
     55       6.8709      0.00000
     56       6.9667      0.00000
     57       7.0669      0.00000
     58       7.4181      0.00000
     59       7.6111      0.00000
     60       7.7810      0.00000
     61       8.1239      0.00000
     62       8.2065      0.00000
     63       8.2558      0.00000
     64       8.3684      0.00000

 k-point    63 :      -0.1667    0.2000    0.3333
  band No.  band energies     occupation 
      1     -32.3847      1.00000
      2     -32.3775      1.00000
      3     -32.3744      1.00000
      4     -32.3727      1.00000
      5     -13.9372      1.00000
      6     -13.9183      1.00000
      7     -13.8971      1.00000
      8     -13.8025      1.00000
      9     -13.7829      1.00000
     10     -13.7669      1.00000
     11     -13.7596      1.00000
     12     -13.7517      1.00000
     13     -13.7444      1.00000
     14     -13.7387      1.00000
     15     -13.7196      1.00000
     16     -13.6925      1.00000
     17      -7.3615      1.00000
     18      -7.0155      1.00000
     19      -6.4468      1.00000
     20      -6.1856      1.00000
     21      -5.9931      1.00000
     22      -5.9258      1.00000
     23      -5.8693      1.00000
     24      -5.8160      1.00000
     25      -1.5540      1.00000
     26      -1.0975      1.00000
     27      -0.9094      1.00000
     28      -0.6313      1.00000
     29      -0.0996      1.00000
     30       0.3099      1.00000
     31       0.5331      1.00000
     32       0.8513      1.00000
     33       1.0601      1.00000
     34       1.2735      1.00000
     35       1.3416      1.00000
     36       1.6145      1.00000
     37       1.7483      1.00000
     38       1.7957      1.00000
     39       1.8765      1.00000
     40       2.0801      1.00000
     41       2.2965      1.00000
     42       2.4465      1.00000
     43       2.4826      1.00000
     44       2.5755      1.00000
     45       2.7589      1.00000
     46       2.8215      1.00000
     47       2.9344      1.00000
     48       3.0986      1.00000
     49       5.4123      0.00000
     50       5.7975      0.00000
     51       6.0243      0.00000
     52       6.5635      0.00000
     53       6.7957      0.00000
     54       6.9272      0.00000
     55       7.1082      0.00000
     56       7.3871      0.00000
     57       7.5456      0.00000
     58       7.6549      0.00000
     59       7.7734      0.00000
     60       8.0165      0.00000
     61       8.0955      0.00000
     62       8.2263      0.00000
     63       8.3071      0.00000
     64       8.4055      0.00000

 k-point    64 :       0.1667    0.2000   -0.3333
  band No.  band energies     occupation 
      1     -32.3847      1.00000
      2     -32.3775      1.00000
      3     -32.3744      1.00000
      4     -32.3727      1.00000
      5     -13.9372      1.00000
      6     -13.9183      1.00000
      7     -13.8971      1.00000
      8     -13.8025      1.00000
      9     -13.7829      1.00000
     10     -13.7669      1.00000
     11     -13.7596      1.00000
     12     -13.7517      1.00000
     13     -13.7444      1.00000
     14     -13.7387      1.00000
     15     -13.7196      1.00000
     16     -13.6925      1.00000
     17      -7.3615      1.00000
     18      -7.0155      1.00000
     19      -6.4468      1.00000
     20      -6.1856      1.00000
     21      -5.9931      1.00000
     22      -5.9258      1.00000
     23      -5.8693      1.00000
     24      -5.8160      1.00000
     25      -1.5540      1.00000
     26      -1.0975      1.00000
     27      -0.9094      1.00000
     28      -0.6313      1.00000
     29      -0.0996      1.00000
     30       0.3099      1.00000
     31       0.5331      1.00000
     32       0.8513      1.00000
     33       1.0601      1.00000
     34       1.2735      1.00000
     35       1.3416      1.00000
     36       1.6145      1.00000
     37       1.7483      1.00000
     38       1.7957      1.00000
     39       1.8765      1.00000
     40       2.0801      1.00000
     41       2.2965      1.00000
     42       2.4465      1.00000
     43       2.4826      1.00000
     44       2.5755      1.00000
     45       2.7589      1.00000
     46       2.8215      1.00000
     47       2.9344      1.00000
     48       3.0986      1.00000
     49       5.4123      0.00000
     50       5.7975      0.00000
     51       6.0243      0.00000
     52       6.5635      0.00000
     53       6.7957      0.00000
     54       6.9272      0.00000
     55       7.1082      0.00000
     56       7.3871      0.00000
     57       7.5456      0.00000
     58       7.6549      0.00000
     59       7.7734      0.00000
     60       8.0165      0.00000
     61       8.0955      0.00000
     62       8.2263      0.00000
     63       8.3071      0.00000
     64       8.4050      0.00000

 k-point    65 :      -0.0000    0.4000    0.3333
  band No.  band energies     occupation 
      1     -32.3823      1.00000
      2     -32.3794      1.00000
      3     -32.3742      1.00000
      4     -32.3732      1.00000
      5     -13.9157      1.00000
      6     -13.8995      1.00000
      7     -13.8713      1.00000
      8     -13.8177      1.00000
      9     -13.7891      1.00000
     10     -13.7785      1.00000
     11     -13.7729      1.00000
     12     -13.7662      1.00000
     13     -13.7491      1.00000
     14     -13.7427      1.00000
     15     -13.7104      1.00000
     16     -13.7010      1.00000
     17      -7.2693      1.00000
     18      -7.1168      1.00000
     19      -6.4046      1.00000
     20      -6.3021      1.00000
     21      -5.9324      1.00000
     22      -5.9011      1.00000
     23      -5.8573      1.00000
     24      -5.8541      1.00000
     25      -1.3051      1.00000
     26      -1.1282      1.00000
     27      -0.7514      1.00000
     28      -0.5733      1.00000
     29       0.0186      1.00000
     30       0.2660      1.00000
     31       0.5686      1.00000
     32       0.6883      1.00000
     33       0.9477      1.00000
     34       1.0999      1.00000
     35       1.4255      1.00000
     36       1.5316      1.00000
     37       1.6234      1.00000
     38       1.7837      1.00000
     39       1.8554      1.00000
     40       1.9065      1.00000
     41       2.1860      1.00000
     42       2.2279      1.00000
     43       2.4057      1.00000
     44       2.5791      1.00000
     45       2.6269      1.00000
     46       2.7865      1.00000
     47       2.8443      1.00000
     48       3.0825      1.00000
     49       5.6273      0.00000
     50       6.1117      0.00000
     51       6.3843      0.00000
     52       6.7825      0.00000
     53       6.8988      0.00000
     54       7.1633      0.00000
     55       7.4278      0.00000
     56       7.6051      0.00000
     57       7.7580      0.00000
     58       7.8222      0.00000
     59       7.9317      0.00000
     60       8.0375      0.00000
     61       8.1774      0.00000
     62       8.3212      0.00000
     63       8.3814      0.00000
     64       8.5263      0.00000

 k-point    66 :       0.0000    0.4000   -0.3333
  band No.  band energies     occupation 
      1     -32.3823      1.00000
      2     -32.3794      1.00000
      3     -32.3742      1.00000
      4     -32.3732      1.00000
      5     -13.9157      1.00000
      6     -13.8995      1.00000
      7     -13.8713      1.00000
      8     -13.8177      1.00000
      9     -13.7891      1.00000
     10     -13.7785      1.00000
     11     -13.7729      1.00000
     12     -13.7662      1.00000
     13     -13.7491      1.00000
     14     -13.7427      1.00000
     15     -13.7104      1.00000
     16     -13.7010      1.00000
     17      -7.2693      1.00000
     18      -7.1168      1.00000
     19      -6.4046      1.00000
     20      -6.3021      1.00000
     21      -5.9324      1.00000
     22      -5.9011      1.00000
     23      -5.8573      1.00000
     24      -5.8541      1.00000
     25      -1.3051      1.00000
     26      -1.1282      1.00000
     27      -0.7514      1.00000
     28      -0.5733      1.00000
     29       0.0186      1.00000
     30       0.2660      1.00000
     31       0.5686      1.00000
     32       0.6883      1.00000
     33       0.9477      1.00000
     34       1.0999      1.00000
     35       1.4255      1.00000
     36       1.5316      1.00000
     37       1.6234      1.00000
     38       1.7837      1.00000
     39       1.8554      1.00000
     40       1.9065      1.00000
     41       2.1860      1.00000
     42       2.2279      1.00000
     43       2.4057      1.00000
     44       2.5791      1.00000
     45       2.6269      1.00000
     46       2.7865      1.00000
     47       2.8443      1.00000
     48       3.0825      1.00000
     49       5.6273      0.00000
     50       6.1117      0.00000
     51       6.3843      0.00000
     52       6.7825      0.00000
     53       6.8988      0.00000
     54       7.1633      0.00000
     55       7.4278      0.00000
     56       7.6051      0.00000
     57       7.7580      0.00000
     58       7.8222      0.00000
     59       7.9317      0.00000
     60       8.0375      0.00000
     61       8.1774      0.00000
     62       8.3212      0.00000
     63       8.3814      0.00000
     64       8.5247      0.00000

 k-point    67 :       0.1667    0.4000    0.3333
  band No.  band energies     occupation 
      1     -32.3823      1.00000
      2     -32.3794      1.00000
      3     -32.3742      1.00000
      4     -32.3732      1.00000
      5     -13.9156      1.00000
      6     -13.8993      1.00000
      7     -13.8713      1.00000
      8     -13.8178      1.00000
      9     -13.7893      1.00000
     10     -13.7787      1.00000
     11     -13.7730      1.00000
     12     -13.7664      1.00000
     13     -13.7493      1.00000
     14     -13.7429      1.00000
     15     -13.7104      1.00000
     16     -13.7010      1.00000
     17      -7.2283      1.00000
     18      -7.0881      1.00000
     19      -6.4176      1.00000
     20      -6.3240      1.00000
     21      -5.9683      1.00000
     22      -5.9441      1.00000
     23      -5.8695      1.00000
     24      -5.8411      1.00000
     25      -1.3046      1.00000
     26      -1.1602      1.00000
     27      -0.6901      1.00000
     28      -0.5319      1.00000
     29       0.1731      1.00000
     30       0.2906      1.00000
     31       0.6318      1.00000
     32       0.7323      1.00000
     33       0.9448      1.00000
     34       1.0201      1.00000
     35       1.3720      1.00000
     36       1.5000      1.00000
     37       1.6868      1.00000
     38       1.8094      1.00000
     39       1.8897      1.00000
     40       1.9102      1.00000
     41       2.2449      1.00000
     42       2.2957      1.00000
     43       2.3600      1.00000
     44       2.5036      1.00000
     45       2.5793      1.00000
     46       2.6546      1.00000
     47       2.8128      1.00000
     48       2.9382      1.00000
     49       5.6107      0.00000
     50       6.0943      0.00000
     51       6.2517      0.00000
     52       6.5615      0.00000
     53       6.9443      0.00000
     54       7.0055      0.00000
     55       7.2090      0.00000
     56       7.4816      0.00000
     57       7.5283      0.00000
     58       7.7667      0.00000
     59       8.2410      0.00000
     60       8.3080      0.00000
     61       8.4111      0.00000
     62       8.4294      0.00000
     63       8.5317      0.00000
     64       8.7253      0.00000

 k-point    68 :      -0.1667    0.4000   -0.3333
  band No.  band energies     occupation 
      1     -32.3823      1.00000
      2     -32.3794      1.00000
      3     -32.3742      1.00000
      4     -32.3732      1.00000
      5     -13.9156      1.00000
      6     -13.8993      1.00000
      7     -13.8713      1.00000
      8     -13.8178      1.00000
      9     -13.7893      1.00000
     10     -13.7787      1.00000
     11     -13.7730      1.00000
     12     -13.7664      1.00000
     13     -13.7493      1.00000
     14     -13.7429      1.00000
     15     -13.7104      1.00000
     16     -13.7010      1.00000
     17      -7.2283      1.00000
     18      -7.0881      1.00000
     19      -6.4176      1.00000
     20      -6.3240      1.00000
     21      -5.9683      1.00000
     22      -5.9441      1.00000
     23      -5.8695      1.00000
     24      -5.8411      1.00000
     25      -1.3046      1.00000
     26      -1.1602      1.00000
     27      -0.6901      1.00000
     28      -0.5319      1.00000
     29       0.1731      1.00000
     30       0.2906      1.00000
     31       0.6318      1.00000
     32       0.7323      1.00000
     33       0.9448      1.00000
     34       1.0201      1.00000
     35       1.3720      1.00000
     36       1.5000      1.00000
     37       1.6868      1.00000
     38       1.8094      1.00000
     39       1.8897      1.00000
     40       1.9102      1.00000
     41       2.2449      1.00000
     42       2.2957      1.00000
     43       2.3600      1.00000
     44       2.5036      1.00000
     45       2.5793      1.00000
     46       2.6546      1.00000
     47       2.8128      1.00000
     48       2.9382      1.00000
     49       5.6107      0.00000
     50       6.0943      0.00000
     51       6.2517      0.00000
     52       6.5615      0.00000
     53       6.9443      0.00000
     54       7.0055      0.00000
     55       7.2090      0.00000
     56       7.4816      0.00000
     57       7.5283      0.00000
     58       7.7667      0.00000
     59       8.2410      0.00000
     60       8.3080      0.00000
     61       8.4111      0.00000
     62       8.4294      0.00000
     63       8.5317      0.00000
     64       8.7252      0.00000

 k-point    69 :       0.3333    0.4000    0.3333
  band No.  band energies     occupation 
      1     -32.3823      1.00000
      2     -32.3794      1.00000
      3     -32.3742      1.00000
      4     -32.3732      1.00000
      5     -13.9153      1.00000
      6     -13.8990      1.00000
      7     -13.8711      1.00000
      8     -13.8177      1.00000
      9     -13.7901      1.00000
     10     -13.7789      1.00000
     11     -13.7733      1.00000
     12     -13.7668      1.00000
     13     -13.7497      1.00000
     14     -13.7433      1.00000
     15     -13.7104      1.00000
     16     -13.7010      1.00000
     17      -7.1661      1.00000
     18      -7.0636      1.00000
     19      -6.4340      1.00000
     20      -6.3148      1.00000
     21      -6.0204      1.00000
     22      -6.0114      1.00000
     23      -5.8827      1.00000
     24      -5.8314      1.00000
     25      -1.3393      1.00000
     26      -1.2389      1.00000
     27      -0.6468      1.00000
     28      -0.5745      1.00000
     29       0.4085      1.00000
     30       0.4968      1.00000
     31       0.6644      1.00000
     32       0.7241      1.00000
     33       0.9512      1.00000
     34       0.9678      1.00000
     35       1.2669      1.00000
     36       1.4903      1.00000
     37       1.7726      1.00000
     38       1.8613      1.00000
     39       1.9122      1.00000
     40       1.9626      1.00000
     41       2.2226      1.00000
     42       2.2881      1.00000
     43       2.3565      1.00000
     44       2.4624      1.00000
     45       2.5936      1.00000
     46       2.6628      1.00000
     47       2.8521      1.00000
     48       2.9325      1.00000
     49       5.6724      0.00000
     50       6.0622      0.00000
     51       6.1393      0.00000
     52       6.2850      0.00000
     53       6.8397      0.00000
     54       6.9703      0.00000
     55       7.0284      0.00000
     56       7.1400      0.00000
     57       7.3016      0.00000
     58       7.5097      0.00000
     59       7.9691      0.00000
     60       8.1868      0.00000
     61       8.3726      0.00000
     62       8.4466      0.00000
     63       8.5941      0.00000
     64       8.7224      0.00000

 k-point    70 :      -0.3333    0.4000   -0.3333
  band No.  band energies     occupation 
      1     -32.3823      1.00000
      2     -32.3794      1.00000
      3     -32.3742      1.00000
      4     -32.3732      1.00000
      5     -13.9153      1.00000
      6     -13.8990      1.00000
      7     -13.8711      1.00000
      8     -13.8177      1.00000
      9     -13.7901      1.00000
     10     -13.7789      1.00000
     11     -13.7733      1.00000
     12     -13.7668      1.00000
     13     -13.7497      1.00000
     14     -13.7433      1.00000
     15     -13.7104      1.00000
     16     -13.7010      1.00000
     17      -7.1661      1.00000
     18      -7.0636      1.00000
     19      -6.4340      1.00000
     20      -6.3148      1.00000
     21      -6.0204      1.00000
     22      -6.0114      1.00000
     23      -5.8827      1.00000
     24      -5.8314      1.00000
     25      -1.3393      1.00000
     26      -1.2389      1.00000
     27      -0.6468      1.00000
     28      -0.5745      1.00000
     29       0.4085      1.00000
     30       0.4968      1.00000
     31       0.6644      1.00000
     32       0.7241      1.00000
     33       0.9512      1.00000
     34       0.9678      1.00000
     35       1.2669      1.00000
     36       1.4903      1.00000
     37       1.7726      1.00000
     38       1.8613      1.00000
     39       1.9122      1.00000
     40       1.9626      1.00000
     41       2.2226      1.00000
     42       2.2881      1.00000
     43       2.3565      1.00000
     44       2.4624      1.00000
     45       2.5936      1.00000
     46       2.6628      1.00000
     47       2.8521      1.00000
     48       2.9325      1.00000
     49       5.6724      0.00000
     50       6.0622      0.00000
     51       6.1393      0.00000
     52       6.2850      0.00000
     53       6.8397      0.00000
     54       6.9703      0.00000
     55       7.0284      0.00000
     56       7.1400      0.00000
     57       7.3016      0.00000
     58       7.5097      0.00000
     59       7.9691      0.00000
     60       8.1868      0.00000
     61       8.3726      0.00000
     62       8.4466      0.00000
     63       8.5941      0.00000
     64       8.7213      0.00000

 k-point    71 :       0.5000    0.4000    0.3333
  band No.  band energies     occupation 
      1     -32.3823      1.00000
      2     -32.3794      1.00000
      3     -32.3742      1.00000
      4     -32.3732      1.00000
      5     -13.9152      1.00000
      6     -13.8989      1.00000
      7     -13.8708      1.00000
      8     -13.8174      1.00000
      9     -13.7907      1.00000
     10     -13.7790      1.00000
     11     -13.7736      1.00000
     12     -13.7670      1.00000
     13     -13.7500      1.00000
     14     -13.7435      1.00000
     15     -13.7104      1.00000
     16     -13.7010      1.00000
     17      -7.1493      1.00000
     18      -7.0702      1.00000
     19      -6.4188      1.00000
     20      -6.2985      1.00000
     21      -6.0643      1.00000
     22      -5.9900      1.00000
     23      -5.8849      1.00000
     24      -5.8496      1.00000
     25      -1.3762      1.00000
     26      -1.2711      1.00000
     27      -0.6697      1.00000
     28      -0.6392      1.00000
     29       0.4299      1.00000
     30       0.5229      1.00000
     31       0.6331      1.00000
     32       0.8288      1.00000
     33       0.8798      1.00000
     34       1.0759      1.00000
     35       1.2645      1.00000
     36       1.5344      1.00000
     37       1.7508      1.00000
     38       1.8379      1.00000
     39       1.9607      1.00000
     40       2.0060      1.00000
     41       2.1662      1.00000
     42       2.2741      1.00000
     43       2.3452      1.00000
     44       2.5437      1.00000
     45       2.6877      1.00000
     46       2.7220      1.00000
     47       2.9353      1.00000
     48       3.0153      1.00000
     49       5.8314      0.00000
     50       5.9905      0.00000
     51       6.2420      0.00000
     52       6.3091      0.00000
     53       6.6537      0.00000
     54       6.7385      0.00000
     55       6.8900      0.00000
     56       7.0585      0.00000
     57       7.1745      0.00000
     58       7.3572      0.00000
     59       7.7670      0.00000
     60       7.9615      0.00000
     61       8.1575      0.00000
     62       8.3500      0.00000
     63       8.4454      0.00000
     64       8.5041      0.00000

 k-point    72 :       0.5000    0.4000   -0.3333
  band No.  band energies     occupation 
      1     -32.3823      1.00000
      2     -32.3794      1.00000
      3     -32.3742      1.00000
      4     -32.3732      1.00000
      5     -13.9152      1.00000
      6     -13.8989      1.00000
      7     -13.8708      1.00000
      8     -13.8174      1.00000
      9     -13.7907      1.00000
     10     -13.7790      1.00000
     11     -13.7736      1.00000
     12     -13.7670      1.00000
     13     -13.7500      1.00000
     14     -13.7435      1.00000
     15     -13.7104      1.00000
     16     -13.7010      1.00000
     17      -7.1493      1.00000
     18      -7.0702      1.00000
     19      -6.4188      1.00000
     20      -6.2985      1.00000
     21      -6.0643      1.00000
     22      -5.9900      1.00000
     23      -5.8849      1.00000
     24      -5.8496      1.00000
     25      -1.3762      1.00000
     26      -1.2711      1.00000
     27      -0.6697      1.00000
     28      -0.6392      1.00000
     29       0.4299      1.00000
     30       0.5229      1.00000
     31       0.6331      1.00000
     32       0.8288      1.00000
     33       0.8798      1.00000
     34       1.0759      1.00000
     35       1.2645      1.00000
     36       1.5344      1.00000
     37       1.7508      1.00000
     38       1.8379      1.00000
     39       1.9607      1.00000
     40       2.0060      1.00000
     41       2.1662      1.00000
     42       2.2741      1.00000
     43       2.3452      1.00000
     44       2.5437      1.00000
     45       2.6877      1.00000
     46       2.7220      1.00000
     47       2.9353      1.00000
     48       3.0153      1.00000
     49       5.8314      0.00000
     50       5.9905      0.00000
     51       6.2420      0.00000
     52       6.3091      0.00000
     53       6.6537      0.00000
     54       6.7385      0.00000
     55       6.8900      0.00000
     56       7.0585      0.00000
     57       7.1745      0.00000
     58       7.3572      0.00000
     59       7.7670      0.00000
     60       7.9615      0.00000
     61       8.1575      0.00000
     62       8.3500      0.00000
     63       8.4441      0.00000
     64       8.5038      0.00000

 k-point    73 :      -0.3333    0.4000    0.3333
  band No.  band energies     occupation 
      1     -32.3823      1.00000
      2     -32.3794      1.00000
      3     -32.3742      1.00000
      4     -32.3732      1.00000
      5     -13.9153      1.00000
      6     -13.8990      1.00000
      7     -13.8709      1.00000
      8     -13.8173      1.00000
      9     -13.7904      1.00000
     10     -13.7788      1.00000
     11     -13.7735      1.00000
     12     -13.7668      1.00000
     13     -13.7498      1.00000
     14     -13.7433      1.00000
     15     -13.7104      1.00000
     16     -13.7010      1.00000
     17      -7.2000      1.00000
     18      -7.0980      1.00000
     19      -6.3979      1.00000
     20      -6.2776      1.00000
     21      -6.0270      1.00000
     22      -5.9235      1.00000
     23      -5.8916      1.00000
     24      -5.8677      1.00000
     25      -1.3894      1.00000
     26      -1.2370      1.00000
     27      -0.7140      1.00000
     28      -0.6805      1.00000
     29       0.2890      1.00000
     30       0.4858      1.00000
     31       0.5381      1.00000
     32       0.7779      1.00000
     33       0.9482      1.00000
     34       1.0774      1.00000
     35       1.2708      1.00000
     36       1.5116      1.00000
     37       1.7582      1.00000
     38       1.8220      1.00000
     39       1.8732      1.00000
     40       1.9602      1.00000
     41       2.1732      1.00000
     42       2.2390      1.00000
     43       2.5601      1.00000
     44       2.6411      1.00000
     45       2.7432      1.00000
     46       2.8148      1.00000
     47       3.0122      1.00000
     48       3.0571      1.00000
     49       5.7916      0.00000
     50       6.1065      0.00000
     51       6.2880      0.00000
     52       6.4190      0.00000
     53       6.6668      0.00000
     54       6.7426      0.00000
     55       6.9756      0.00000
     56       7.0753      0.00000
     57       7.3069      0.00000
     58       7.4222      0.00000
     59       7.8401      0.00000
     60       7.9611      0.00000
     61       8.0482      0.00000
     62       8.1905      0.00000
     63       8.2528      0.00000
     64       8.3261      0.00000

 k-point    74 :       0.3333    0.4000   -0.3333
  band No.  band energies     occupation 
      1     -32.3823      1.00000
      2     -32.3794      1.00000
      3     -32.3742      1.00000
      4     -32.3732      1.00000
      5     -13.9153      1.00000
      6     -13.8990      1.00000
      7     -13.8709      1.00000
      8     -13.8173      1.00000
      9     -13.7904      1.00000
     10     -13.7788      1.00000
     11     -13.7735      1.00000
     12     -13.7668      1.00000
     13     -13.7498      1.00000
     14     -13.7433      1.00000
     15     -13.7104      1.00000
     16     -13.7010      1.00000
     17      -7.2000      1.00000
     18      -7.0980      1.00000
     19      -6.3979      1.00000
     20      -6.2776      1.00000
     21      -6.0270      1.00000
     22      -5.9235      1.00000
     23      -5.8916      1.00000
     24      -5.8677      1.00000
     25      -1.3894      1.00000
     26      -1.2370      1.00000
     27      -0.7140      1.00000
     28      -0.6805      1.00000
     29       0.2890      1.00000
     30       0.4858      1.00000
     31       0.5381      1.00000
     32       0.7779      1.00000
     33       0.9482      1.00000
     34       1.0774      1.00000
     35       1.2708      1.00000
     36       1.5116      1.00000
     37       1.7582      1.00000
     38       1.8220      1.00000
     39       1.8732      1.00000
     40       1.9602      1.00000
     41       2.1732      1.00000
     42       2.2390      1.00000
     43       2.5601      1.00000
     44       2.6411      1.00000
     45       2.7432      1.00000
     46       2.8148      1.00000
     47       3.0122      1.00000
     48       3.0571      1.00000
     49       5.7916      0.00000
     50       6.1065      0.00000
     51       6.2880      0.00000
     52       6.4190      0.00000
     53       6.6668      0.00000
     54       6.7426      0.00000
     55       6.9756      0.00000
     56       7.0753      0.00000
     57       7.3069      0.00000
     58       7.4222      0.00000
     59       7.8401      0.00000
     60       7.9611      0.00000
     61       8.0482      0.00000
     62       8.1905      0.00000
     63       8.2528      0.00000
     64       8.3266      0.00000

 k-point    75 :      -0.1667    0.4000    0.3333
  band No.  band energies     occupation 
      1     -32.3823      1.00000
      2     -32.3794      1.00000
      3     -32.3742      1.00000
      4     -32.3732      1.00000
      5     -13.9156      1.00000
      6     -13.8993      1.00000
      7     -13.8711      1.00000
      8     -13.8175      1.00000
      9     -13.7896      1.00000
     10     -13.7786      1.00000
     11     -13.7731      1.00000
     12     -13.7664      1.00000
     13     -13.7493      1.00000
     14     -13.7429      1.00000
     15     -13.7104      1.00000
     16     -13.7010      1.00000
     17      -7.2567      1.00000
     18      -7.1210      1.00000
     19      -6.3989      1.00000
     20      -6.2739      1.00000
     21      -5.9584      1.00000
     22      -5.8916      1.00000
     23      -5.8859      1.00000
     24      -5.8527      1.00000
     25      -1.3553      1.00000
     26      -1.1743      1.00000
     27      -0.7542      1.00000
     28      -0.6504      1.00000
     29       0.0936      1.00000
     30       0.4287      1.00000
     31       0.4975      1.00000
     32       0.6596      1.00000
     33       0.9933      1.00000
     34       1.0718      1.00000
     35       1.3512      1.00000
     36       1.4940      1.00000
     37       1.7116      1.00000
     38       1.8058      1.00000
     39       1.8391      1.00000
     40       1.9161      1.00000
     41       2.1592      1.00000
     42       2.1939      1.00000
     43       2.4945      1.00000
     44       2.6552      1.00000
     45       2.7789      1.00000
     46       2.8513      1.00000
     47       2.9714      1.00000
     48       3.1249      1.00000
     49       5.6698      0.00000
     50       6.1299      0.00000
     51       6.3550      0.00000
     52       6.5886      0.00000
     53       6.9501      0.00000
     54       7.0326      0.00000
     55       7.2174      0.00000
     56       7.3239      0.00000
     57       7.4644      0.00000
     58       7.6147      0.00000
     59       7.8942      0.00000
     60       8.0243      0.00000
     61       8.0869      0.00000
     62       8.1817      0.00000
     63       8.2578      0.00000
     64       8.3926      0.00000

 k-point    76 :       0.1667    0.4000   -0.3333
  band No.  band energies     occupation 
      1     -32.3823      1.00000
      2     -32.3794      1.00000
      3     -32.3742      1.00000
      4     -32.3732      1.00000
      5     -13.9156      1.00000
      6     -13.8993      1.00000
      7     -13.8711      1.00000
      8     -13.8175      1.00000
      9     -13.7896      1.00000
     10     -13.7786      1.00000
     11     -13.7731      1.00000
     12     -13.7664      1.00000
     13     -13.7493      1.00000
     14     -13.7429      1.00000
     15     -13.7104      1.00000
     16     -13.7010      1.00000
     17      -7.2567      1.00000
     18      -7.1210      1.00000
     19      -6.3989      1.00000
     20      -6.2739      1.00000
     21      -5.9584      1.00000
     22      -5.8916      1.00000
     23      -5.8859      1.00000
     24      -5.8527      1.00000
     25      -1.3553      1.00000
     26      -1.1743      1.00000
     27      -0.7542      1.00000
     28      -0.6504      1.00000
     29       0.0936      1.00000
     30       0.4287      1.00000
     31       0.4975      1.00000
     32       0.6596      1.00000
     33       0.9933      1.00000
     34       1.0718      1.00000
     35       1.3512      1.00000
     36       1.4940      1.00000
     37       1.7116      1.00000
     38       1.8058      1.00000
     39       1.8391      1.00000
     40       1.9161      1.00000
     41       2.1592      1.00000
     42       2.1939      1.00000
     43       2.4945      1.00000
     44       2.6552      1.00000
     45       2.7789      1.00000
     46       2.8513      1.00000
     47       2.9714      1.00000
     48       3.1249      1.00000
     49       5.6698      0.00000
     50       6.1299      0.00000
     51       6.3550      0.00000
     52       6.5886      0.00000
     53       6.9501      0.00000
     54       7.0326      0.00000
     55       7.2174      0.00000
     56       7.3239      0.00000
     57       7.4644      0.00000
     58       7.6147      0.00000
     59       7.8942      0.00000
     60       8.0243      0.00000
     61       8.0869      0.00000
     62       8.1817      0.00000
     63       8.2578      0.00000
     64       8.3916      0.00000

 k-point    77 :      -0.0000    0.0000    0.5000
  band No.  band energies     occupation 
      1     -32.3813      1.00000
      2     -32.3813      1.00000
      3     -32.3732      1.00000
      4     -32.3732      1.00000
      5     -13.9529      1.00000
      6     -13.9529      1.00000
      7     -13.8328      1.00000
      8     -13.8328      1.00000
      9     -13.7843      1.00000
     10     -13.7843      1.00000
     11     -13.7437      1.00000
     12     -13.7437      1.00000
     13     -13.7368      1.00000
     14     -13.7368      1.00000
     15     -13.7042      1.00000
     16     -13.7042      1.00000
     17      -7.2108      1.00000
     18      -7.2108      1.00000
     19      -6.2336      1.00000
     20      -6.2336      1.00000
     21      -6.0265      1.00000
     22      -6.0265      1.00000
     23      -5.8596      1.00000
     24      -5.8596      1.00000
     25      -1.2451      1.00000
     26      -1.2451      1.00000
     27      -0.8259      1.00000
     28      -0.8259      1.00000
     29       0.0380      1.00000
     30       0.0380      1.00000
     31       0.8968      1.00000
     32       0.8968      1.00000
     33       1.2634      1.00000
     34       1.2634      1.00000
     35       1.4708      1.00000
     36       1.4708      1.00000
     37       1.7104      1.00000
     38       1.7104      1.00000
     39       1.8837      1.00000
     40       1.8837      1.00000
     41       2.3048      1.00000
     42       2.3048      1.00000
     43       2.5581      1.00000
     44       2.5581      1.00000
     45       2.7625      1.00000
     46       2.7625      1.00000
     47       2.9385      1.00000
     48       2.9385      1.00000
     49       5.1429      0.00000
     50       5.1429      0.00000
     51       6.0681      0.00000
     52       6.0681      0.00000
     53       7.0988      0.00000
     54       7.0988      0.00000
     55       7.4301      0.00000
     56       7.4301      0.00000
     57       7.7736      0.00000
     58       7.7736      0.00000
     59       8.0570      0.00000
     60       8.0570      0.00000
     61       8.3286      0.00000
     62       8.3286      0.00000
     63       8.5262      0.00000
     64       8.5262      0.00000

 k-point    78 :       0.1667   -0.0000    0.5000
  band No.  band energies     occupation 
      1     -32.3813      1.00000
      2     -32.3813      1.00000
      3     -32.3732      1.00000
      4     -32.3732      1.00000
      5     -13.9528      1.00000
      6     -13.9527      1.00000
      7     -13.8328      1.00000
      8     -13.8326      1.00000
      9     -13.7848      1.00000
     10     -13.7847      1.00000
     11     -13.7439      1.00000
     12     -13.7439      1.00000
     13     -13.7368      1.00000
     14     -13.7368      1.00000
     15     -13.7042      1.00000
     16     -13.7042      1.00000
     17      -7.1861      1.00000
     18      -7.1838      1.00000
     19      -6.3199      1.00000
     20      -6.2824      1.00000
     21      -5.9892      1.00000
     22      -5.9523      1.00000
     23      -5.9247      1.00000
     24      -5.8333      1.00000
     25      -1.2805      1.00000
     26      -1.2028      1.00000
     27      -0.9350      1.00000
     28      -0.8179      1.00000
     29       0.0231      1.00000
     30       0.2411      1.00000
     31       0.8183      1.00000
     32       0.9397      1.00000
     33       1.1669      1.00000
     34       1.2598      1.00000
     35       1.3674      1.00000
     36       1.4256      1.00000
     37       1.7309      1.00000
     38       1.8180      1.00000
     39       1.9289      1.00000
     40       2.0154      1.00000
     41       2.2802      1.00000
     42       2.3543      1.00000
     43       2.5202      1.00000
     44       2.6494      1.00000
     45       2.6691      1.00000
     46       2.8356      1.00000
     47       2.9499      1.00000
     48       3.0702      1.00000
     49       5.1729      0.00000
     50       5.1910      0.00000
     51       6.0181      0.00000
     52       6.1333      0.00000
     53       6.8357      0.00000
     54       6.8648      0.00000
     55       7.1191      0.00000
     56       7.2863      0.00000
     57       7.4430      0.00000
     58       7.8360      0.00000
     59       7.8874      0.00000
     60       8.1058      0.00000
     61       8.1072      0.00000
     62       8.3802      0.00000
     63       8.4334      0.00000
     64       8.6809      0.00000

 k-point    79 :       0.3333    0.0000    0.5000
  band No.  band energies     occupation 
      1     -32.3813      1.00000
      2     -32.3813      1.00000
      3     -32.3732      1.00000
      4     -32.3732      1.00000
      5     -13.9525      1.00000
      6     -13.9524      1.00000
      7     -13.8326      1.00000
      8     -13.8324      1.00000
      9     -13.7858      1.00000
     10     -13.7857      1.00000
     11     -13.7443      1.00000
     12     -13.7443      1.00000
     13     -13.7368      1.00000
     14     -13.7368      1.00000
     15     -13.7042      1.00000
     16     -13.7042      1.00000
     17      -7.1295      1.00000
     18      -7.1251      1.00000
     19      -6.4195      1.00000
     20      -6.3746      1.00000
     21      -6.0138      1.00000
     22      -5.9784      1.00000
     23      -5.8373      1.00000
     24      -5.8135      1.00000
     25      -1.3048      1.00000
     26      -1.1895      1.00000
     27      -0.9706      1.00000
     28      -0.9545      1.00000
     29       0.2470      1.00000
     30       0.4039      1.00000
     31       0.7622      1.00000
     32       0.9533      1.00000
     33       1.0423      1.00000
     34       1.1587      1.00000
     35       1.3621      1.00000
     36       1.3724      1.00000
     37       1.6395      1.00000
     38       1.9130      1.00000
     39       2.0216      1.00000
     40       2.1582      1.00000
     41       2.3469      1.00000
     42       2.3690      1.00000
     43       2.6794      1.00000
     44       2.7236      1.00000
     45       2.7562      1.00000
     46       2.7882      1.00000
     47       3.0312      1.00000
     48       3.1265      1.00000
     49       5.2816      0.00000
     50       5.3042      0.00000
     51       5.9667      0.00000
     52       6.2854      0.00000
     53       6.4051      0.00000
     54       6.6190      0.00000
     55       6.6952      0.00000
     56       6.8743      0.00000
     57       7.2312      0.00000
     58       7.4270      0.00000
     59       7.7070      0.00000
     60       7.8386      0.00000
     61       8.0712      0.00000
     62       8.2585      0.00000
     63       8.4304      0.00000
     64       8.4755      0.00000

 k-point    80 :       0.5000   -0.0000    0.5000
  band No.  band energies     occupation 
      1     -32.3813      1.00000
      2     -32.3813      1.00000
      3     -32.3732      1.00000
      4     -32.3732      1.00000
      5     -13.9523      1.00000
      6     -13.9523      1.00000
      7     -13.8324      1.00000
      8     -13.8324      1.00000
      9     -13.7862      1.00000
     10     -13.7862      1.00000
     11     -13.7445      1.00000
     12     -13.7445      1.00000
     13     -13.7368      1.00000
     14     -13.7368      1.00000
     15     -13.7042      1.00000
     16     -13.7042      1.00000
     17      -7.0945      1.00000
     18      -7.0945      1.00000
     19      -6.4409      1.00000
     20      -6.4409      1.00000
     21      -6.0202      1.00000
     22      -6.0202      1.00000
     23      -5.7950      1.00000
     24      -5.7950      1.00000
     25      -1.2676      1.00000
     26      -1.2676      1.00000
     27      -0.9795      1.00000
     28      -0.9795      1.00000
     29       0.4101      1.00000
     30       0.4101      1.00000
     31       0.8625      1.00000
     32       0.8625      1.00000
     33       1.0171      1.00000
     34       1.0171      1.00000
     35       1.3661      1.00000
     36       1.3661      1.00000
     37       1.8235      1.00000
     38       1.8235      1.00000
     39       2.1191      1.00000
     40       2.1191      1.00000
     41       2.3355      1.00000
     42       2.3355      1.00000
     43       2.7214      1.00000
     44       2.7214      1.00000
     45       2.8403      1.00000
     46       2.8403      1.00000
     47       3.1210      1.00000
     48       3.1211      1.00000
     49       5.4073      0.00000
     50       5.4073      0.00000
     51       5.9672      0.00000
     52       5.9672      0.00000
     53       6.3609      0.00000
     54       6.3609      0.00000
     55       6.8365      0.00000
     56       6.8365      0.00000
     57       7.2250      0.00000
     58       7.2250      0.00000
     59       7.5018      0.00000
     60       7.5018      0.00000
     61       8.1625      0.00000
     62       8.1625      0.00000
     63       8.4429      0.00000
     64       8.4429      0.00000

 k-point    81 :      -0.0000    0.2000    0.5000
  band No.  band energies     occupation 
      1     -32.3807      1.00000
      2     -32.3807      1.00000
      3     -32.3738      1.00000
      4     -32.3738      1.00000
      5     -13.9384      1.00000
      6     -13.9384      1.00000
      7     -13.8384      1.00000
      8     -13.8384      1.00000
      9     -13.7813      1.00000
     10     -13.7813      1.00000
     11     -13.7490      1.00000
     12     -13.7490      1.00000
     13     -13.7410      1.00000
     14     -13.7410      1.00000
     15     -13.7077      1.00000
     16     -13.7077      1.00000
     17      -7.1867      1.00000
     18      -7.1867      1.00000
     19      -6.3228      1.00000
     20      -6.3228      1.00000
     21      -5.9694      1.00000
     22      -5.9694      1.00000
     23      -5.8579      1.00000
     24      -5.8579      1.00000
     25      -1.1735      1.00000
     26      -1.1735      1.00000
     27      -0.7886      1.00000
     28      -0.7886      1.00000
     29       0.0791      1.00000
     30       0.0791      1.00000
     31       0.8378      1.00000
     32       0.8378      1.00000
     33       1.1149      1.00000
     34       1.1149      1.00000
     35       1.4746      1.00000
     36       1.4746      1.00000
     37       1.6566      1.00000
     38       1.6566      1.00000
     39       1.9705      1.00000
     40       1.9705      1.00000
     41       2.2216      1.00000
     42       2.2216      1.00000
     43       2.5702      1.00000
     44       2.5702      1.00000
     45       2.5957      1.00000
     46       2.5957      1.00000
     47       3.0251      1.00000
     48       3.0251      1.00000
     49       5.3288      0.00000
     50       5.3288      0.00000
     51       6.3685      0.00000
     52       6.3685      0.00000
     53       6.9150      0.00000
     54       6.9150      0.00000
     55       7.5020      0.00000
     56       7.5020      0.00000
     57       7.9158      0.00000
     58       7.9158      0.00000
     59       8.0330      0.00000
     60       8.0330      0.00000
     61       8.2183      0.00000
     62       8.2183      0.00000
     63       8.5435      0.00000
     64       8.5435      0.00000

 k-point    82 :       0.1667    0.2000    0.5000
  band No.  band energies     occupation 
      1     -32.3807      1.00000
      2     -32.3807      1.00000
      3     -32.3738      1.00000
      4     -32.3738      1.00000
      5     -13.9383      1.00000
      6     -13.9382      1.00000
      7     -13.8383      1.00000
      8     -13.8383      1.00000
      9     -13.7818      1.00000
     10     -13.7817      1.00000
     11     -13.7492      1.00000
     12     -13.7491      1.00000
     13     -13.7411      1.00000
     14     -13.7410      1.00000
     15     -13.7076      1.00000
     16     -13.7076      1.00000
     17      -7.1727      1.00000
     18      -7.1567      1.00000
     19      -6.4010      1.00000
     20      -6.2854      1.00000
     21      -6.0090      1.00000
     22      -5.9226      1.00000
     23      -5.9120      1.00000
     24      -5.8265      1.00000
     25      -1.2271      1.00000
     26      -1.1396      1.00000
     27      -0.8873      1.00000
     28      -0.7728      1.00000
     29       0.0714      1.00000
     30       0.2939      1.00000
     31       0.7750      1.00000
     32       0.8638      1.00000
     33       1.0204      1.00000
     34       1.2006      1.00000
     35       1.3223      1.00000
     36       1.4926      1.00000
     37       1.5756      1.00000
     38       1.8050      1.00000
     39       1.8962      1.00000
     40       2.0720      1.00000
     41       2.2397      1.00000
     42       2.4111      1.00000
     43       2.5202      1.00000
     44       2.5921      1.00000
     45       2.6440      1.00000
     46       2.7221      1.00000
     47       2.9043      1.00000
     48       3.0601      1.00000
     49       5.3353      0.00000
     50       5.3740      0.00000
     51       6.3264      0.00000
     52       6.3823      0.00000
     53       6.6948      0.00000
     54       6.9464      0.00000
     55       7.0675      0.00000
     56       7.3494      0.00000
     57       7.5461      0.00000
     58       7.8104      0.00000
     59       7.9066      0.00000
     60       8.0235      0.00000
     61       8.1675      0.00000
     62       8.3548      0.00000
     63       8.4309      0.00000
     64       8.6289      0.00000

 k-point    83 :      -0.1667    0.2000    0.5000
  band No.  band energies     occupation 
      1     -32.3807      1.00000
      2     -32.3807      1.00000
      3     -32.3738      1.00000
      4     -32.3738      1.00000
      5     -13.9383      1.00000
      6     -13.9382      1.00000
      7     -13.8383      1.00000
      8     -13.8383      1.00000
      9     -13.7818      1.00000
     10     -13.7817      1.00000
     11     -13.7492      1.00000
     12     -13.7491      1.00000
     13     -13.7411      1.00000
     14     -13.7410      1.00000
     15     -13.7076      1.00000
     16     -13.7076      1.00000
     17      -7.1727      1.00000
     18      -7.1567      1.00000
     19      -6.4010      1.00000
     20      -6.2854      1.00000
     21      -6.0090      1.00000
     22      -5.9226      1.00000
     23      -5.9120      1.00000
     24      -5.8265      1.00000
     25      -1.2271      1.00000
     26      -1.1396      1.00000
     27      -0.8873      1.00000
     28      -0.7728      1.00000
     29       0.0714      1.00000
     30       0.2939      1.00000
     31       0.7750      1.00000
     32       0.8638      1.00000
     33       1.0204      1.00000
     34       1.2006      1.00000
     35       1.3223      1.00000
     36       1.4926      1.00000
     37       1.5756      1.00000
     38       1.8050      1.00000
     39       1.8962      1.00000
     40       2.0720      1.00000
     41       2.2397      1.00000
     42       2.4111      1.00000
     43       2.5202      1.00000
     44       2.5921      1.00000
     45       2.6440      1.00000
     46       2.7221      1.00000
     47       2.9043      1.00000
     48       3.0601      1.00000
     49       5.3353      0.00000
     50       5.3740      0.00000
     51       6.3264      0.00000
     52       6.3823      0.00000
     53       6.6948      0.00000
     54       6.9464      0.00000
     55       7.0675      0.00000
     56       7.3494      0.00000
     57       7.5461      0.00000
     58       7.8104      0.00000
     59       7.9066      0.00000
     60       8.0235      0.00000
     61       8.1675      0.00000
     62       8.3548      0.00000
     63       8.4310      0.00000
     64       8.6350      0.00000

 k-point    84 :       0.3333    0.2000    0.5000
  band No.  band energies     occupation 
      1     -32.3807      1.00000
      2     -32.3807      1.00000
      3     -32.3738      1.00000
      4     -32.3738      1.00000
      5     -13.9380      1.00000
      6     -13.9379      1.00000
      7     -13.8381      1.00000
      8     -13.8380      1.00000
      9     -13.7827      1.00000
     10     -13.7826      1.00000
     11     -13.7496      1.00000
     12     -13.7495      1.00000
     13     -13.7411      1.00000
     14     -13.7410      1.00000
     15     -13.7076      1.00000
     16     -13.7076      1.00000
     17      -7.1269      1.00000
     18      -7.1072      1.00000
     19      -6.4474      1.00000
     20      -6.3459      1.00000
     21      -6.0104      1.00000
     22      -5.9734      1.00000
     23      -5.8960      1.00000
     24      -5.8028      1.00000
     25      -1.2615      1.00000
     26      -1.1575      1.00000
     27      -0.9231      1.00000
     28      -0.8798      1.00000
     29       0.2887      1.00000
     30       0.4558      1.00000
     31       0.7201      1.00000
     32       0.8865      1.00000
     33       0.9958      1.00000
     34       1.0886      1.00000
     35       1.3062      1.00000
     36       1.3776      1.00000
     37       1.6719      1.00000
     38       1.8697      1.00000
     39       2.0445      1.00000
     40       2.1149      1.00000
     41       2.3267      1.00000
     42       2.4247      1.00000
     43       2.5761      1.00000
     44       2.6246      1.00000
     45       2.6830      1.00000
     46       2.8423      1.00000
     47       2.9341      1.00000
     48       3.0023      1.00000
     49       5.4188      0.00000
     50       5.4620      0.00000
     51       6.2258      0.00000
     52       6.3942      0.00000
     53       6.5094      0.00000
     54       6.7390      0.00000
     55       6.8145      0.00000
     56       6.8471      0.00000
     57       7.2545      0.00000
     58       7.5044      0.00000
     59       7.7137      0.00000
     60       7.8550      0.00000
     61       8.0317      0.00000
     62       8.2285      0.00000
     63       8.2682      0.00000
     64       8.4758      0.00000

 k-point    85 :      -0.3333    0.2000    0.5000
  band No.  band energies     occupation 
      1     -32.3807      1.00000
      2     -32.3807      1.00000
      3     -32.3738      1.00000
      4     -32.3738      1.00000
      5     -13.9380      1.00000
      6     -13.9379      1.00000
      7     -13.8381      1.00000
      8     -13.8380      1.00000
      9     -13.7827      1.00000
     10     -13.7826      1.00000
     11     -13.7496      1.00000
     12     -13.7495      1.00000
     13     -13.7411      1.00000
     14     -13.7410      1.00000
     15     -13.7076      1.00000
     16     -13.7076      1.00000
     17      -7.1269      1.00000
     18      -7.1072      1.00000
     19      -6.4474      1.00000
     20      -6.3459      1.00000
     21      -6.0104      1.00000
     22      -5.9734      1.00000
     23      -5.8960      1.00000
     24      -5.8028      1.00000
     25      -1.2615      1.00000
     26      -1.1575      1.00000
     27      -0.9231      1.00000
     28      -0.8798      1.00000
     29       0.2887      1.00000
     30       0.4558      1.00000
     31       0.7201      1.00000
     32       0.8865      1.00000
     33       0.9958      1.00000
     34       1.0886      1.00000
     35       1.3062      1.00000
     36       1.3776      1.00000
     37       1.6719      1.00000
     38       1.8697      1.00000
     39       2.0445      1.00000
     40       2.1149      1.00000
     41       2.3267      1.00000
     42       2.4247      1.00000
     43       2.5761      1.00000
     44       2.6246      1.00000
     45       2.6830      1.00000
     46       2.8423      1.00000
     47       2.9341      1.00000
     48       3.0023      1.00000
     49       5.4188      0.00000
     50       5.4620      0.00000
     51       6.2258      0.00000
     52       6.3942      0.00000
     53       6.5094      0.00000
     54       6.7390      0.00000
     55       6.8145      0.00000
     56       6.8471      0.00000
     57       7.2545      0.00000
     58       7.5044      0.00000
     59       7.7137      0.00000
     60       7.8550      0.00000
     61       8.0317      0.00000
     62       8.2285      0.00000
     63       8.2682      0.00000
     64       8.4959      0.00000

 k-point    86 :       0.5000    0.2000    0.5000
  band No.  band energies     occupation 
      1     -32.3807      1.00000
      2     -32.3807      1.00000
      3     -32.3738      1.00000
      4     -32.3738      1.00000
      5     -13.9378      1.00000
      6     -13.9378      1.00000
      7     -13.8379      1.00000
      8     -13.8379      1.00000
      9     -13.7831      1.00000
     10     -13.7831      1.00000
     11     -13.7498      1.00000
     12     -13.7498      1.00000
     13     -13.7411      1.00000
     14     -13.7411      1.00000
     15     -13.7076      1.00000
     16     -13.7076      1.00000
     17      -7.0912      1.00000
     18      -7.0912      1.00000
     19      -6.4249      1.00000
     20      -6.4249      1.00000
     21      -6.0152      1.00000
     22      -6.0152      1.00000
     23      -5.8296      1.00000
     24      -5.8296      1.00000
     25      -1.2287      1.00000
     26      -1.2287      1.00000
     27      -0.9240      1.00000
     28      -0.9240      1.00000
     29       0.4424      1.00000
     30       0.4424      1.00000
     31       0.7898      1.00000
     32       0.7898      1.00000
     33       1.0432      1.00000
     34       1.0432      1.00000
     35       1.3116      1.00000
     36       1.3116      1.00000
     37       1.8762      1.00000
     38       1.8762      1.00000
     39       2.1283      1.00000
     40       2.1283      1.00000
     41       2.2887      1.00000
     42       2.2887      1.00000
     43       2.5762      1.00000
     44       2.5762      1.00000
     45       2.8329      1.00000
     46       2.8329      1.00000
     47       3.0040      1.00000
     48       3.0040      1.00000
     49       5.5345      0.00000
     50       5.5345      0.00000
     51       6.1773      0.00000
     52       6.1773      0.00000
     53       6.5059      0.00000
     54       6.5059      0.00000
     55       6.8316      0.00000
     56       6.8316      0.00000
     57       7.2491      0.00000
     58       7.2491      0.00000
     59       7.6046      0.00000
     60       7.6046      0.00000
     61       8.0318      0.00000
     62       8.0318      0.00000
     63       8.2728      0.00000
     64       8.2728      0.00000

 k-point    87 :      -0.0000    0.4000    0.5000
  band No.  band energies     occupation 
      1     -32.3795      1.00000
      2     -32.3795      1.00000
      3     -32.3751      1.00000
      4     -32.3751      1.00000
      5     -13.9017      1.00000
      6     -13.9017      1.00000
      7     -13.8615      1.00000
      8     -13.8615      1.00000
      9     -13.7730      1.00000
     10     -13.7730      1.00000
     11     -13.7605      1.00000
     12     -13.7605      1.00000
     13     -13.7489      1.00000
     14     -13.7489      1.00000
     15     -13.7118      1.00000
     16     -13.7118      1.00000
     17      -7.1421      1.00000
     18      -7.1421      1.00000
     19      -6.4349      1.00000
     20      -6.4349      1.00000
     21      -5.9124      1.00000
     22      -5.9124      1.00000
     23      -5.8576      1.00000
     24      -5.8576      1.00000
     25      -1.0363      1.00000
     26      -1.0363      1.00000
     27      -0.7333      1.00000
     28      -0.7333      1.00000
     29       0.1558      1.00000
     30       0.1558      1.00000
     31       0.7672      1.00000
     32       0.7672      1.00000
     33       0.9448      1.00000
     34       0.9448      1.00000
     35       1.2248      1.00000
     36       1.2248      1.00000
     37       1.7394      1.00000
     38       1.7394      1.00000
     39       1.9506      1.00000
     40       1.9506      1.00000
     41       2.2406      1.00000
     42       2.2406      1.00000
     43       2.4013      1.00000
     44       2.4013      1.00000
     45       2.7277      1.00000
     46       2.7277      1.00000
     47       2.9429      1.00000
     48       2.9429      1.00000
     49       5.7988      0.00000
     50       5.7988      0.00000
     51       6.4146      0.00000
     52       6.4146      0.00000
     53       7.0219      0.00000
     54       7.0219      0.00000
     55       7.5180      0.00000
     56       7.5180      0.00000
     57       7.9544      0.00000
     58       7.9544      0.00000
     59       8.0874      0.00000
     60       8.0874      0.00000
     61       8.3584      0.00000
     62       8.3584      0.00000
     63       8.4755      0.00000
     64       8.4769      0.00000

 k-point    88 :       0.1667    0.4000    0.5000
  band No.  band energies     occupation 
      1     -32.3795      1.00000
      2     -32.3795      1.00000
      3     -32.3751      1.00000
      4     -32.3751      1.00000
      5     -13.9016      1.00000
      6     -13.9014      1.00000
      7     -13.8614      1.00000
      8     -13.8613      1.00000
      9     -13.7734      1.00000
     10     -13.7733      1.00000
     11     -13.7608      1.00000
     12     -13.7608      1.00000
     13     -13.7490      1.00000
     14     -13.7489      1.00000
     15     -13.7118      1.00000
     16     -13.7118      1.00000
     17      -7.1346      1.00000
     18      -7.1226      1.00000
     19      -6.4535      1.00000
     20      -6.3945      1.00000
     21      -5.9556      1.00000
     22      -5.9187      1.00000
     23      -5.8869      1.00000
     24      -5.8426      1.00000
     25      -1.1024      1.00000
     26      -1.0561      1.00000
     27      -0.7829      1.00000
     28      -0.7212      1.00000
     29       0.2212      1.00000
     30       0.3674      1.00000
     31       0.7091      1.00000
     32       0.7494      1.00000
     33       0.8084      1.00000
     34       0.9297      1.00000
     35       1.2721      1.00000
     36       1.3636      1.00000
     37       1.7062      1.00000
     38       1.7934      1.00000
     39       1.9399      1.00000
     40       1.9798      1.00000
     41       2.1843      1.00000
     42       2.3565      1.00000
     43       2.4284      1.00000
     44       2.4705      1.00000
     45       2.6854      1.00000
     46       2.8147      1.00000
     47       2.8540      1.00000
     48       2.9401      1.00000
     49       5.7543      0.00000
     50       5.8337      0.00000
     51       6.2681      0.00000
     52       6.4992      0.00000
     53       6.8586      0.00000
     54       7.1110      0.00000
     55       7.1693      0.00000
     56       7.3879      0.00000
     57       7.5533      0.00000
     58       7.6168      0.00000
     59       8.0944      0.00000
     60       8.2066      0.00000
     61       8.2918      0.00000
     62       8.3810      0.00000
     63       8.5192      0.00000
     64       8.5643      0.00000

 k-point    89 :      -0.1667    0.4000    0.5000
  band No.  band energies     occupation 
      1     -32.3795      1.00000
      2     -32.3795      1.00000
      3     -32.3751      1.00000
      4     -32.3751      1.00000
      5     -13.9016      1.00000
      6     -13.9014      1.00000
      7     -13.8614      1.00000
      8     -13.8613      1.00000
      9     -13.7734      1.00000
     10     -13.7733      1.00000
     11     -13.7608      1.00000
     12     -13.7608      1.00000
     13     -13.7490      1.00000
     14     -13.7489      1.00000
     15     -13.7118      1.00000
     16     -13.7118      1.00000
     17      -7.1346      1.00000
     18      -7.1226      1.00000
     19      -6.4535      1.00000
     20      -6.3945      1.00000
     21      -5.9556      1.00000
     22      -5.9187      1.00000
     23      -5.8869      1.00000
     24      -5.8426      1.00000
     25      -1.1024      1.00000
     26      -1.0561      1.00000
     27      -0.7829      1.00000
     28      -0.7212      1.00000
     29       0.2212      1.00000
     30       0.3674      1.00000
     31       0.7091      1.00000
     32       0.7494      1.00000
     33       0.8084      1.00000
     34       0.9297      1.00000
     35       1.2721      1.00000
     36       1.3636      1.00000
     37       1.7062      1.00000
     38       1.7934      1.00000
     39       1.9399      1.00000
     40       1.9798      1.00000
     41       2.1843      1.00000
     42       2.3565      1.00000
     43       2.4284      1.00000
     44       2.4705      1.00000
     45       2.6854      1.00000
     46       2.8147      1.00000
     47       2.8540      1.00000
     48       2.9401      1.00000
     49       5.7543      0.00000
     50       5.8337      0.00000
     51       6.2681      0.00000
     52       6.4992      0.00000
     53       6.8586      0.00000
     54       7.1110      0.00000
     55       7.1693      0.00000
     56       7.3879      0.00000
     57       7.5533      0.00000
     58       7.6168      0.00000
     59       8.0944      0.00000
     60       8.2066      0.00000
     61       8.2918      0.00000
     62       8.3810      0.00000
     63       8.5205      0.00000
     64       8.5676      0.00000

 k-point    90 :       0.3333    0.4000    0.5000
  band No.  band energies     occupation 
      1     -32.3795      1.00000
      2     -32.3795      1.00000
      3     -32.3751      1.00000
      4     -32.3751      1.00000
      5     -13.9013      1.00000
      6     -13.9012      1.00000
      7     -13.8611      1.00000
      8     -13.8610      1.00000
      9     -13.7741      1.00000
     10     -13.7740      1.00000
     11     -13.7613      1.00000
     12     -13.7613      1.00000
     13     -13.7492      1.00000
     14     -13.7491      1.00000
     15     -13.7117      1.00000
     16     -13.7117      1.00000
     17      -7.1070      1.00000
     18      -7.0939      1.00000
     19      -6.4365      1.00000
     20      -6.3736      1.00000
     21      -5.9738      1.00000
     22      -5.9674      1.00000
     23      -5.9288      1.00000
     24      -5.8584      1.00000
     25      -1.1584      1.00000
     26      -1.1139      1.00000
     27      -0.8254      1.00000
     28      -0.7880      1.00000
     29       0.4452      1.00000
     30       0.5899      1.00000
     31       0.6581      1.00000
     32       0.7401      1.00000
     33       0.7719      1.00000
     34       0.8373      1.00000
     35       1.4355      1.00000
     36       1.4611      1.00000
     37       1.7232      1.00000
     38       1.8726      1.00000
     39       1.9259      1.00000
     40       1.9561      1.00000
     41       2.2899      1.00000
     42       2.3788      1.00000
     43       2.5051      1.00000
     44       2.5292      1.00000
     45       2.7063      1.00000
     46       2.7553      1.00000
     47       2.8220      1.00000
     48       2.8792      1.00000
     49       5.7779      0.00000
     50       5.8719      0.00000
     51       6.1741      0.00000
     52       6.4027      0.00000
     53       6.7986      0.00000
     54       6.8474      0.00000
     55       7.0011      0.00000
     56       7.1215      0.00000
     57       7.1964      0.00000
     58       7.3076      0.00000
     59       7.8239      0.00000
     60       7.9675      0.00000
     61       8.1444      0.00000
     62       8.3116      0.00000
     63       8.3661      0.00000
     64       8.4763      0.00000

 k-point    91 :      -0.3333    0.4000    0.5000
  band No.  band energies     occupation 
      1     -32.3795      1.00000
      2     -32.3795      1.00000
      3     -32.3751      1.00000
      4     -32.3751      1.00000
      5     -13.9013      1.00000
      6     -13.9012      1.00000
      7     -13.8611      1.00000
      8     -13.8610      1.00000
      9     -13.7741      1.00000
     10     -13.7740      1.00000
     11     -13.7613      1.00000
     12     -13.7613      1.00000
     13     -13.7492      1.00000
     14     -13.7491      1.00000
     15     -13.7117      1.00000
     16     -13.7117      1.00000
     17      -7.1070      1.00000
     18      -7.0939      1.00000
     19      -6.4365      1.00000
     20      -6.3736      1.00000
     21      -5.9738      1.00000
     22      -5.9674      1.00000
     23      -5.9288      1.00000
     24      -5.8584      1.00000
     25      -1.1584      1.00000
     26      -1.1139      1.00000
     27      -0.8254      1.00000
     28      -0.7880      1.00000
     29       0.4452      1.00000
     30       0.5899      1.00000
     31       0.6581      1.00000
     32       0.7401      1.00000
     33       0.7719      1.00000
     34       0.8373      1.00000
     35       1.4355      1.00000
     36       1.4611      1.00000
     37       1.7232      1.00000
     38       1.8726      1.00000
     39       1.9259      1.00000
     40       1.9561      1.00000
     41       2.2899      1.00000
     42       2.3788      1.00000
     43       2.5051      1.00000
     44       2.5292      1.00000
     45       2.7063      1.00000
     46       2.7553      1.00000
     47       2.8220      1.00000
     48       2.8792      1.00000
     49       5.7779      0.00000
     50       5.8719      0.00000
     51       6.1741      0.00000
     52       6.4027      0.00000
     53       6.7986      0.00000
     54       6.8474      0.00000
     55       7.0011      0.00000
     56       7.1215      0.00000
     57       7.1964      0.00000
     58       7.3076      0.00000
     59       7.8239      0.00000
     60       7.9675      0.00000
     61       8.1444      0.00000
     62       8.3116      0.00000
     63       8.3661      0.00000
     64       8.4762      0.00000

 k-point    92 :       0.5000    0.4000    0.5000
  band No.  band energies     occupation 
      1     -32.3795      1.00000
      2     -32.3795      1.00000
      3     -32.3751      1.00000
      4     -32.3750      1.00000
      5     -13.9011      1.00000
      6     -13.9011      1.00000
      7     -13.8609      1.00000
      8     -13.8609      1.00000
      9     -13.7744      1.00000
     10     -13.7744      1.00000
     11     -13.7616      1.00000
     12     -13.7616      1.00000
     13     -13.7492      1.00000
     14     -13.7492      1.00000
     15     -13.7117      1.00000
     16     -13.7117      1.00000
     17      -7.0858      1.00000
     18      -7.0858      1.00000
     19      -6.3976      1.00000
     20      -6.3976      1.00000
     21      -5.9855      1.00000
     22      -5.9855      1.00000
     23      -5.9085      1.00000
     24      -5.9085      1.00000
     25      -1.1543      1.00000
     26      -1.1543      1.00000
     27      -0.8384      1.00000
     28      -0.8384      1.00000
     29       0.5368      1.00000
     30       0.5368      1.00000
     31       0.6696      1.00000
     32       0.6696      1.00000
     33       0.9263      1.00000
     34       0.9263      1.00000
     35       1.4729      1.00000
     36       1.4729      1.00000
     37       1.8243      1.00000
     38       1.8243      1.00000
     39       1.9648      1.00000
     40       1.9648      1.00000
     41       2.3292      1.00000
     42       2.3292      1.00000
     43       2.5090      1.00000
     44       2.5090      1.00000
     45       2.7536      1.00000
     46       2.7536      1.00000
     47       2.8155      1.00000
     48       2.8155      1.00000
     49       5.8635      0.00000
     50       5.8635      0.00000
     51       6.3001      0.00000
     52       6.3001      0.00000
     53       6.6834      0.00000
     54       6.6834      0.00000
     55       6.8791      0.00000
     56       6.8791      0.00000
     57       7.2315      0.00000
     58       7.2315      0.00000
     59       7.7340      0.00000
     60       7.7340      0.00000
     61       8.0759      0.00000
     62       8.0759      0.00000
     63       8.4526      0.00000
     64       8.4529      0.00000

 spin component 2

 k-point     1 :       0.0000    0.0000    0.0000
  band No.  band energies     occupation 
      1     -32.3898      1.00000
      2     -32.3744      1.00000
      3     -32.3731      1.00000
      4     -32.3718      1.00000
      5     -13.9670      1.00000
      6     -13.8945      1.00000
      7     -13.8867      1.00000
      8     -13.8225      1.00000
      9     -13.8090      1.00000
     10     -13.8049      1.00000
     11     -13.7452      1.00000
     12     -13.7446      1.00000
     13     -13.7399      1.00000
     14     -13.7379      1.00000
     15     -13.6817      1.00000
     16     -13.6729      1.00000
     17      -7.6420      1.00000
     18      -6.7483      1.00000
     19      -6.5205      1.00000
     20      -6.0059      1.00000
     21      -5.9154      1.00000
     22      -5.9011      1.00000
     23      -5.8850      1.00000
     24      -5.8277      1.00000
     25      -2.0125      1.00000
     26      -1.1045      1.00000
     27      -1.1026      1.00000
     28      -0.3674      1.00000
     29       0.1853      1.00000
     30       0.3489      1.00000
     31       0.3526      1.00000
     32       0.6004      1.00000
     33       0.6008      1.00000
     34       1.2180      1.00000
     35       1.3691      1.00000
     36       1.6190      1.00000
     37       1.6824      1.00000
     38       1.8774      1.00000
     39       1.9200      1.00000
     40       2.0058      1.00000
     41       2.3583      1.00000
     42       2.3686      1.00000
     43       2.4726      1.00000
     44       2.5259      1.00000
     45       2.7806      1.00000
     46       3.3093      1.00000
     47       3.4577      1.00000
     48       3.4637      1.00000
     49       5.2954      0.00000
     50       6.3001      0.00000
     51       6.5376      0.00000
     52       6.8396      0.00000
     53       7.0013      0.00000
     54       7.1250      0.00000
     55       7.1578      0.00000
     56       7.4246      0.00000
     57       7.5436      0.00000
     58       7.6286      0.00000
     59       7.6594      0.00000
     60       7.6887      0.00000
     61       7.8115      0.00000
     62       7.8263      0.00000
     63       8.0887      0.00000
     64       8.2993      0.00000

 k-point     2 :       0.1667   -0.0000   -0.0000
  band No.  band energies     occupation 
      1     -32.3898      1.00000
      2     -32.3744      1.00000
      3     -32.3731      1.00000
      4     -32.3718      1.00000
      5     -13.9668      1.00000
      6     -13.8945      1.00000
      7     -13.8866      1.00000
      8     -13.8233      1.00000
      9     -13.8090      1.00000
     10     -13.8049      1.00000
     11     -13.7453      1.00000
     12     -13.7448      1.00000
     13     -13.7399      1.00000
     14     -13.7380      1.00000
     15     -13.6817      1.00000
     16     -13.6729      1.00000
     17      -7.5869      1.00000
     18      -6.7595      1.00000
     19      -6.5661      1.00000
     20      -6.0249      1.00000
     21      -5.9523      1.00000
     22      -5.9000      1.00000
     23      -5.8779      1.00000
     24      -5.8163      1.00000
     25      -1.9921      1.00000
     26      -1.1791      1.00000
     27      -0.9397      1.00000
     28      -0.3811      1.00000
     29       0.2105      1.00000
     30       0.2718      1.00000
     31       0.4723      1.00000
     32       0.4885      1.00000
     33       0.7775      1.00000
     34       1.1571      1.00000
     35       1.4035      1.00000
     36       1.4606      1.00000
     37       1.8269      1.00000
     38       1.9507      1.00000
     39       1.9609      1.00000
     40       2.0124      1.00000
     41       2.2988      1.00000
     42       2.4360      1.00000
     43       2.5719      1.00000
     44       2.6016      1.00000
     45       2.7702      1.00000
     46       2.9044      1.00000
     47       3.3643      1.00000
     48       3.3786      1.00000
     49       5.3145      0.00000
     50       6.3626      0.00000
     51       6.5006      0.00000
     52       6.7687      0.00000
     53       7.0093      0.00000
     54       7.0755      0.00000
     55       7.1639      0.00000
     56       7.2886      0.00000
     57       7.3312      0.00000
     58       7.5255      0.00000
     59       7.6484      0.00000
     60       7.6626      0.00000
     61       7.8372      0.00000
     62       7.8676      0.00000
     63       8.1142      0.00000
     64       8.2579      0.00000

 k-point     3 :       0.3333   -0.0000   -0.0000
  band No.  band energies     occupation 
      1     -32.3898      1.00000
      2     -32.3743      1.00000
      3     -32.3731      1.00000
      4     -32.3718      1.00000
      5     -13.9665      1.00000
      6     -13.8945      1.00000
      7     -13.8862      1.00000
      8     -13.8249      1.00000
      9     -13.8089      1.00000
     10     -13.8048      1.00000
     11     -13.7456      1.00000
     12     -13.7452      1.00000
     13     -13.7401      1.00000
     14     -13.7384      1.00000
     15     -13.6817      1.00000
     16     -13.6728      1.00000
     17      -7.4475      1.00000
     18      -6.7810      1.00000
     19      -6.6985      1.00000
     20      -6.0483      1.00000
     21      -6.0437      1.00000
     22      -5.8954      1.00000
     23      -5.8580      1.00000
     24      -5.7820      1.00000
     25      -1.9392      1.00000
     26      -1.3390      1.00000
     27      -0.5919      1.00000
     28      -0.4073      1.00000
     29       0.2535      1.00000
     30       0.3413      1.00000
     31       0.4652      1.00000
     32       0.5883      1.00000
     33       0.9586      1.00000
     34       1.0568      1.00000
     35       1.2755      1.00000
     36       1.6248      1.00000
     37       1.7407      1.00000
     38       1.9426      1.00000
     39       1.9702      1.00000
     40       1.9966      1.00000
     41       2.1530      1.00000
     42       2.4381      1.00000
     43       2.6803      1.00000
     44       2.7048      1.00000
     45       2.7553      1.00000
     46       2.8124      1.00000
     47       3.1448      1.00000
     48       3.1739      1.00000
     49       5.4069      0.00000
     50       6.2014      0.00000
     51       6.2887      0.00000
     52       6.5851      0.00000
     53       6.7391      0.00000
     54       6.8169      0.00000
     55       6.9781      0.00000
     56       7.0266      0.00000
     57       7.2668      0.00000
     58       7.3923      0.00000
     59       7.7947      0.00000
     60       7.8172      0.00000
     61       7.8379      0.00000
     62       8.1872      0.00000
     63       8.3657      0.00000
     64       8.4169      0.00000

 k-point     4 :       0.5000   -0.0000    0.0000
  band No.  band energies     occupation 
      1     -32.3898      1.00000
      2     -32.3743      1.00000
      3     -32.3731      1.00000
      4     -32.3718      1.00000
      5     -13.9664      1.00000
      6     -13.8945      1.00000
      7     -13.8861      1.00000
      8     -13.8257      1.00000
      9     -13.8088      1.00000
     10     -13.8048      1.00000
     11     -13.7457      1.00000
     12     -13.7454      1.00000
     13     -13.7401      1.00000
     14     -13.7385      1.00000
     15     -13.6817      1.00000
     16     -13.6728      1.00000
     17      -7.3473      1.00000
     18      -6.8019      1.00000
     19      -6.7914      1.00000
     20      -6.0816      1.00000
     21      -6.0569      1.00000
     22      -5.8922      1.00000
     23      -5.8536      1.00000
     24      -5.7627      1.00000
     25      -1.9017      1.00000
     26      -1.4276      1.00000
     27      -0.4256      1.00000
     28      -0.4234      1.00000
     29       0.2661      1.00000
     30       0.4826      1.00000
     31       0.5713      1.00000
     32       0.6332      1.00000
     33       1.0010      1.00000
     34       1.0346      1.00000
     35       1.2502      1.00000
     36       1.4339      1.00000
     37       1.6893      1.00000
     38       1.8008      1.00000
     39       1.9181      1.00000
     40       1.9250      1.00000
     41       2.2122      1.00000
     42       2.4320      1.00000
     43       2.8323      1.00000
     44       2.8406      1.00000
     45       2.8990      1.00000
     46       2.9095      1.00000
     47       2.9172      1.00000
     48       2.9721      1.00000
     49       5.5556      0.00000
     50       6.1401      0.00000
     51       6.2063      0.00000
     52       6.2466      0.00000
     53       6.5163      0.00000
     54       6.7349      0.00000
     55       6.8058      0.00000
     56       6.9739      0.00000
     57       7.1723      0.00000
     58       7.3115      0.00000
     59       7.6299      0.00000
     60       7.9443      0.00000
     61       8.1947      0.00000
     62       8.3260      0.00000
     63       8.4994      0.00000
     64       8.5507      0.00000

 k-point     5 :      -0.0000    0.2000   -0.0000
  band No.  band energies     occupation 
      1     -32.3887      1.00000
      2     -32.3773      1.00000
      3     -32.3716      1.00000
      4     -32.3716      1.00000
      5     -13.9585      1.00000
      6     -13.8822      1.00000
      7     -13.8670      1.00000
      8     -13.8519      1.00000
      9     -13.8157      1.00000
     10     -13.7727      1.00000
     11     -13.7575      1.00000
     12     -13.7568      1.00000
     13     -13.7364      1.00000
     14     -13.7337      1.00000
     15     -13.6902      1.00000
     16     -13.6864      1.00000
     17      -7.5872      1.00000
     18      -6.9338      1.00000
     19      -6.3717      1.00000
     20      -5.9888      1.00000
     21      -5.9506      1.00000
     22      -5.9129      1.00000
     23      -5.8703      1.00000
     24      -5.8355      1.00000
     25      -1.9353      1.00000
     26      -1.2163      1.00000
     27      -1.0225      1.00000
     28      -0.3237      1.00000
     29      -0.0444      1.00000
     30       0.3028      1.00000
     31       0.5737      1.00000
     32       0.6700      1.00000
     33       0.7256      1.00000
     34       1.2004      1.00000
     35       1.3776      1.00000
     36       1.6162      1.00000
     37       1.6659      1.00000
     38       1.8199      1.00000
     39       1.9225      1.00000
     40       2.0253      1.00000
     41       2.3016      1.00000
     42       2.3737      1.00000
     43       2.4415      1.00000
     44       2.4816      1.00000
     45       2.8122      1.00000
     46       3.1000      1.00000
     47       3.2094      1.00000
     48       3.3633      1.00000
     49       5.6863      0.00000
     50       6.3632      0.00000
     51       6.5683      0.00000
     52       6.7187      0.00000
     53       7.0069      0.00000
     54       7.1434      0.00000
     55       7.2927      0.00000
     56       7.3780      0.00000
     57       7.6103      0.00000
     58       7.7281      0.00000
     59       7.8216      0.00000
     60       7.9051      0.00000
     61       7.9930      0.00000
     62       8.0866      0.00000
     63       8.1155      0.00000
     64       8.3250      0.00000

 k-point     6 :       0.1667    0.2000   -0.0000
  band No.  band energies     occupation 
      1     -32.3887      1.00000
      2     -32.3773      1.00000
      3     -32.3716      1.00000
      4     -32.3716      1.00000
      5     -13.9584      1.00000
      6     -13.8822      1.00000
      7     -13.8669      1.00000
      8     -13.8518      1.00000
      9     -13.8164      1.00000
     10     -13.7729      1.00000
     11     -13.7576      1.00000
     12     -13.7568      1.00000
     13     -13.7366      1.00000
     14     -13.7338      1.00000
     15     -13.6901      1.00000
     16     -13.6863      1.00000
     17      -7.5359      1.00000
     18      -6.9334      1.00000
     19      -6.4193      1.00000
     20      -6.0159      1.00000
     21      -5.9627      1.00000
     22      -5.9128      1.00000
     23      -5.8876      1.00000
     24      -5.8243      1.00000
     25      -1.9148      1.00000
     26      -1.2685      1.00000
     27      -0.8703      1.00000
     28      -0.3282      1.00000
     29       0.0012      1.00000
     30       0.3247      1.00000
     31       0.4921      1.00000
     32       0.7076      1.00000
     33       0.8267      1.00000
     34       1.1486      1.00000
     35       1.3987      1.00000
     36       1.5447      1.00000
     37       1.7110      1.00000
     38       1.8354      1.00000
     39       1.9452      1.00000
     40       2.1069      1.00000
     41       2.2970      1.00000
     42       2.4072      1.00000
     43       2.4800      1.00000
     44       2.5591      1.00000
     45       2.7155      1.00000
     46       2.7844      1.00000
     47       3.1683      1.00000
     48       3.3117      1.00000
     49       5.6687      0.00000
     50       6.3819      0.00000
     51       6.5356      0.00000
     52       6.8279      0.00000
     53       6.9152      0.00000
     54       7.0473      0.00000
     55       7.3038      0.00000
     56       7.3139      0.00000
     57       7.4645      0.00000
     58       7.5814      0.00000
     59       7.7175      0.00000
     60       7.7637      0.00000
     61       7.9066      0.00000
     62       8.0091      0.00000
     63       8.1610      0.00000
     64       8.3647      0.00000

 k-point     7 :      -0.1667    0.2000   -0.0000
  band No.  band energies     occupation 
      1     -32.3887      1.00000
      2     -32.3773      1.00000
      3     -32.3716      1.00000
      4     -32.3716      1.00000
      5     -13.9584      1.00000
      6     -13.8822      1.00000
      7     -13.8669      1.00000
      8     -13.8518      1.00000
      9     -13.8164      1.00000
     10     -13.7729      1.00000
     11     -13.7576      1.00000
     12     -13.7568      1.00000
     13     -13.7366      1.00000
     14     -13.7338      1.00000
     15     -13.6901      1.00000
     16     -13.6863      1.00000
     17      -7.5359      1.00000
     18      -6.9334      1.00000
     19      -6.4193      1.00000
     20      -6.0159      1.00000
     21      -5.9627      1.00000
     22      -5.9128      1.00000
     23      -5.8876      1.00000
     24      -5.8243      1.00000
     25      -1.9148      1.00000
     26      -1.2685      1.00000
     27      -0.8703      1.00000
     28      -0.3282      1.00000
     29       0.0012      1.00000
     30       0.3247      1.00000
     31       0.4921      1.00000
     32       0.7076      1.00000
     33       0.8267      1.00000
     34       1.1486      1.00000
     35       1.3987      1.00000
     36       1.5447      1.00000
     37       1.7110      1.00000
     38       1.8354      1.00000
     39       1.9452      1.00000
     40       2.1069      1.00000
     41       2.2970      1.00000
     42       2.4072      1.00000
     43       2.4800      1.00000
     44       2.5591      1.00000
     45       2.7155      1.00000
     46       2.7844      1.00000
     47       3.1683      1.00000
     48       3.3117      1.00000
     49       5.6687      0.00000
     50       6.3819      0.00000
     51       6.5356      0.00000
     52       6.8279      0.00000
     53       6.9152      0.00000
     54       7.0473      0.00000
     55       7.3038      0.00000
     56       7.3139      0.00000
     57       7.4645      0.00000
     58       7.5814      0.00000
     59       7.7175      0.00000
     60       7.7637      0.00000
     61       7.9066      0.00000
     62       8.0091      0.00000
     63       8.1610      0.00000
     64       8.3718      0.00000

 k-point     8 :       0.3333    0.2000    0.0000
  band No.  band energies     occupation 
      1     -32.3887      1.00000
      2     -32.3773      1.00000
      3     -32.3716      1.00000
      4     -32.3716      1.00000
      5     -13.9581      1.00000
      6     -13.8821      1.00000
      7     -13.8668      1.00000
      8     -13.8517      1.00000
      9     -13.8178      1.00000
     10     -13.7732      1.00000
     11     -13.7580      1.00000
     12     -13.7568      1.00000
     13     -13.7369      1.00000
     14     -13.7341      1.00000
     15     -13.6901      1.00000
     16     -13.6863      1.00000
     17      -7.4079      1.00000
     18      -6.9413      1.00000
     19      -6.5397      1.00000
     20      -6.0715      1.00000
     21      -5.9804      1.00000
     22      -5.9596      1.00000
     23      -5.8782      1.00000
     24      -5.7914      1.00000
     25      -1.8631      1.00000
     26      -1.3827      1.00000
     27      -0.5470      1.00000
     28      -0.3452      1.00000
     29       0.1296      1.00000
     30       0.4183      1.00000
     31       0.4932      1.00000
     32       0.6764      1.00000
     33       0.9660      1.00000
     34       1.0917      1.00000
     35       1.3544      1.00000
     36       1.5302      1.00000
     37       1.7336      1.00000
     38       1.7766      1.00000
     39       2.0080      1.00000
     40       2.0804      1.00000
     41       2.1773      1.00000
     42       2.3820      1.00000
     43       2.4929      1.00000
     44       2.5937      1.00000
     45       2.7034      1.00000
     46       2.7788      1.00000
     47       2.9380      1.00000
     48       3.1763      1.00000
     49       5.6698      0.00000
     50       6.2405      0.00000
     51       6.4578      0.00000
     52       6.7160      0.00000
     53       6.8140      0.00000
     54       6.8652      0.00000
     55       7.0003      0.00000
     56       7.0701      0.00000
     57       7.3619      0.00000
     58       7.6041      0.00000
     59       7.7390      0.00000
     60       7.8757      0.00000
     61       7.9373      0.00000
     62       7.9952      0.00000
     63       8.3031      0.00000
     64       8.3835      0.00000

 k-point     9 :      -0.3333    0.2000   -0.0000
  band No.  band energies     occupation 
      1     -32.3887      1.00000
      2     -32.3773      1.00000
      3     -32.3716      1.00000
      4     -32.3716      1.00000
      5     -13.9581      1.00000
      6     -13.8821      1.00000
      7     -13.8668      1.00000
      8     -13.8517      1.00000
      9     -13.8178      1.00000
     10     -13.7732      1.00000
     11     -13.7580      1.00000
     12     -13.7568      1.00000
     13     -13.7369      1.00000
     14     -13.7341      1.00000
     15     -13.6901      1.00000
     16     -13.6863      1.00000
     17      -7.4079      1.00000
     18      -6.9413      1.00000
     19      -6.5397      1.00000
     20      -6.0715      1.00000
     21      -5.9804      1.00000
     22      -5.9596      1.00000
     23      -5.8782      1.00000
     24      -5.7914      1.00000
     25      -1.8631      1.00000
     26      -1.3827      1.00000
     27      -0.5470      1.00000
     28      -0.3452      1.00000
     29       0.1296      1.00000
     30       0.4183      1.00000
     31       0.4932      1.00000
     32       0.6764      1.00000
     33       0.9660      1.00000
     34       1.0917      1.00000
     35       1.3544      1.00000
     36       1.5302      1.00000
     37       1.7336      1.00000
     38       1.7766      1.00000
     39       2.0080      1.00000
     40       2.0804      1.00000
     41       2.1773      1.00000
     42       2.3820      1.00000
     43       2.4929      1.00000
     44       2.5937      1.00000
     45       2.7034      1.00000
     46       2.7788      1.00000
     47       2.9380      1.00000
     48       3.1763      1.00000
     49       5.6698      0.00000
     50       6.2405      0.00000
     51       6.4578      0.00000
     52       6.7160      0.00000
     53       6.8140      0.00000
     54       6.8652      0.00000
     55       7.0003      0.00000
     56       7.0701      0.00000
     57       7.3619      0.00000
     58       7.6041      0.00000
     59       7.7390      0.00000
     60       7.8757      0.00000
     61       7.9373      0.00000
     62       7.9952      0.00000
     63       8.3031      0.00000
     64       8.3835      0.00000

 k-point    10 :       0.5000    0.2000   -0.0000
  band No.  band energies     occupation 
      1     -32.3887      1.00000
      2     -32.3773      1.00000
      3     -32.3716      1.00000
      4     -32.3716      1.00000
      5     -13.9579      1.00000
      6     -13.8820      1.00000
      7     -13.8667      1.00000
      8     -13.8516      1.00000
      9     -13.8185      1.00000
     10     -13.7733      1.00000
     11     -13.7581      1.00000
     12     -13.7568      1.00000
     13     -13.7371      1.00000
     14     -13.7343      1.00000
     15     -13.6900      1.00000
     16     -13.6863      1.00000
     17      -7.3185      1.00000
     18      -6.9591      1.00000
     19      -6.6167      1.00000
     20      -6.0950      1.00000
     21      -5.9856      1.00000
     22      -5.9835      1.00000
     23      -5.8752      1.00000
     24      -5.7737      1.00000
     25      -1.8274      1.00000
     26      -1.4492      1.00000
     27      -0.3794      1.00000
     28      -0.3670      1.00000
     29       0.2255      1.00000
     30       0.5042      1.00000
     31       0.6289      1.00000
     32       0.6486      1.00000
     33       0.9229      1.00000
     34       1.1111      1.00000
     35       1.3573      1.00000
     36       1.4294      1.00000
     37       1.5072      1.00000
     38       1.7918      1.00000
     39       2.0231      1.00000
     40       2.0376      1.00000
     41       2.1353      1.00000
     42       2.3755      1.00000
     43       2.5746      1.00000
     44       2.6854      1.00000
     45       2.7345      1.00000
     46       2.7788      1.00000
     47       2.9459      1.00000
     48       2.9904      1.00000
     49       5.7344      0.00000
     50       6.2279      0.00000
     51       6.4132      0.00000
     52       6.4375      0.00000
     53       6.5599      0.00000
     54       6.8014      0.00000
     55       6.9177      0.00000
     56       6.9313      0.00000
     57       7.4086      0.00000
     58       7.5258      0.00000
     59       7.8148      0.00000
     60       7.9151      0.00000
     61       8.2454      0.00000
     62       8.2532      0.00000
     63       8.4205      0.00000
     64       8.4901      0.00000

 k-point    11 :      -0.0000    0.4000   -0.0000
  band No.  band energies     occupation 
      1     -32.3856      1.00000
      2     -32.3815      1.00000
      3     -32.3711      1.00000
      4     -32.3709      1.00000
      5     -13.9338      1.00000
      6     -13.8964      1.00000
      7     -13.8460      1.00000
      8     -13.8230      1.00000
      9     -13.7994      1.00000
     10     -13.7936      1.00000
     11     -13.7869      1.00000
     12     -13.7535      1.00000
     13     -13.7332      1.00000
     14     -13.7312      1.00000
     15     -13.7157      1.00000
     16     -13.6998      1.00000
     17      -7.4314      1.00000
     18      -7.1997      1.00000
     19      -6.1917      1.00000
     20      -6.0482      1.00000
     21      -5.9512      1.00000
     22      -5.9245      1.00000
     23      -5.8611      1.00000
     24      -5.8515      1.00000
     25      -1.7284      1.00000
     26      -1.4589      1.00000
     27      -0.7979      1.00000
     28      -0.4978      1.00000
     29      -0.0647      1.00000
     30       0.1331      1.00000
     31       0.7752      1.00000
     32       0.8021      1.00000
     33       1.0726      1.00000
     34       1.2616      1.00000
     35       1.4003      1.00000
     36       1.4603      1.00000
     37       1.5682      1.00000
     38       1.6735      1.00000
     39       1.9651      1.00000
     40       2.1598      1.00000
     41       2.2864      1.00000
     42       2.3075      1.00000
     43       2.3257      1.00000
     44       2.4750      1.00000
     45       2.5789      1.00000
     46       2.8832      1.00000
     47       2.9999      1.00000
     48       3.2070      1.00000
     49       6.4383      0.00000
     50       6.5124      0.00000
     51       6.5165      0.00000
     52       6.7011      0.00000
     53       6.8091      0.00000
     54       7.1353      0.00000
     55       7.3848      0.00000
     56       7.5563      0.00000
     57       7.6800      0.00000
     58       7.7809      0.00000
     59       7.8757      0.00000
     60       7.8789      0.00000
     61       7.9839      0.00000
     62       8.0480      0.00000
     63       8.3571      0.00000
     64       8.4980      0.00000

 k-point    12 :       0.1667    0.4000    0.0000
  band No.  band energies     occupation 
      1     -32.3856      1.00000
      2     -32.3815      1.00000
      3     -32.3711      1.00000
      4     -32.3709      1.00000
      5     -13.9337      1.00000
      6     -13.8963      1.00000
      7     -13.8460      1.00000
      8     -13.8232      1.00000
      9     -13.7994      1.00000
     10     -13.7939      1.00000
     11     -13.7873      1.00000
     12     -13.7535      1.00000
     13     -13.7334      1.00000
     14     -13.7313      1.00000
     15     -13.7156      1.00000
     16     -13.6998      1.00000
     17      -7.3913      1.00000
     18      -7.1776      1.00000
     19      -6.2349      1.00000
     20      -6.0767      1.00000
     21      -5.9759      1.00000
     22      -5.9281      1.00000
     23      -5.8765      1.00000
     24      -5.8443      1.00000
     25      -1.7150      1.00000
     26      -1.4713      1.00000
     27      -0.6840      1.00000
     28      -0.4454      1.00000
     29      -0.0087      1.00000
     30       0.1739      1.00000
     31       0.7203      1.00000
     32       0.8958      1.00000
     33       1.0334      1.00000
     34       1.2817      1.00000
     35       1.3271      1.00000
     36       1.4623      1.00000
     37       1.5668      1.00000
     38       1.6886      1.00000
     39       1.9444      1.00000
     40       2.1403      1.00000
     41       2.1584      1.00000
     42       2.3549      1.00000
     43       2.3673      1.00000
     44       2.4786      1.00000
     45       2.5901      1.00000
     46       2.8930      1.00000
     47       2.9375      1.00000
     48       3.0822      1.00000
     49       6.3327      0.00000
     50       6.4583      0.00000
     51       6.6081      0.00000
     52       6.6805      0.00000
     53       6.7900      0.00000
     54       7.0361      0.00000
     55       7.2388      0.00000
     56       7.4251      0.00000
     57       7.5996      0.00000
     58       7.6903      0.00000
     59       7.8033      0.00000
     60       7.9921      0.00000
     61       8.1141      0.00000
     62       8.2043      0.00000
     63       8.3032      0.00000
     64       8.4276      0.00000

 k-point    13 :      -0.1667    0.4000    0.0000
  band No.  band energies     occupation 
      1     -32.3856      1.00000
      2     -32.3815      1.00000
      3     -32.3711      1.00000
      4     -32.3709      1.00000
      5     -13.9337      1.00000
      6     -13.8963      1.00000
      7     -13.8460      1.00000
      8     -13.8232      1.00000
      9     -13.7994      1.00000
     10     -13.7939      1.00000
     11     -13.7873      1.00000
     12     -13.7535      1.00000
     13     -13.7334      1.00000
     14     -13.7313      1.00000
     15     -13.7156      1.00000
     16     -13.6998      1.00000
     17      -7.3913      1.00000
     18      -7.1776      1.00000
     19      -6.2349      1.00000
     20      -6.0767      1.00000
     21      -5.9759      1.00000
     22      -5.9281      1.00000
     23      -5.8765      1.00000
     24      -5.8443      1.00000
     25      -1.7150      1.00000
     26      -1.4713      1.00000
     27      -0.6840      1.00000
     28      -0.4454      1.00000
     29      -0.0087      1.00000
     30       0.1739      1.00000
     31       0.7203      1.00000
     32       0.8958      1.00000
     33       1.0334      1.00000
     34       1.2817      1.00000
     35       1.3271      1.00000
     36       1.4623      1.00000
     37       1.5668      1.00000
     38       1.6886      1.00000
     39       1.9444      1.00000
     40       2.1403      1.00000
     41       2.1584      1.00000
     42       2.3549      1.00000
     43       2.3673      1.00000
     44       2.4786      1.00000
     45       2.5901      1.00000
     46       2.8930      1.00000
     47       2.9375      1.00000
     48       3.0822      1.00000
     49       6.3327      0.00000
     50       6.4583      0.00000
     51       6.6081      0.00000
     52       6.6805      0.00000
     53       6.7900      0.00000
     54       7.0361      0.00000
     55       7.2388      0.00000
     56       7.4251      0.00000
     57       7.5996      0.00000
     58       7.6903      0.00000
     59       7.8033      0.00000
     60       7.9921      0.00000
     61       8.1141      0.00000
     62       8.2043      0.00000
     63       8.3032      0.00000
     64       8.4275      0.00000

 k-point    14 :       0.3333    0.4000    0.0000
  band No.  band energies     occupation 
      1     -32.3856      1.00000
      2     -32.3815      1.00000
      3     -32.3711      1.00000
      4     -32.3709      1.00000
      5     -13.9334      1.00000
      6     -13.8960      1.00000
      7     -13.8459      1.00000
      8     -13.8237      1.00000
      9     -13.7995      1.00000
     10     -13.7946      1.00000
     11     -13.7880      1.00000
     12     -13.7535      1.00000
     13     -13.7336      1.00000
     14     -13.7316      1.00000
     15     -13.7156      1.00000
     16     -13.6998      1.00000
     17      -7.2962      1.00000
     18      -7.1317      1.00000
     19      -6.3408      1.00000
     20      -6.1435      1.00000
     21      -6.0227      1.00000
     22      -5.9466      1.00000
     23      -5.8877      1.00000
     24      -5.8257      1.00000
     25      -1.6832      1.00000
     26      -1.5012      1.00000
     27      -0.4443      1.00000
     28      -0.3434      1.00000
     29       0.1365      1.00000
     30       0.2907      1.00000
     31       0.7252      1.00000
     32       0.9072      1.00000
     33       1.0581      1.00000
     34       1.1290      1.00000
     35       1.3013      1.00000
     36       1.4500      1.00000
     37       1.4957      1.00000
     38       1.7291      1.00000
     39       1.9039      1.00000
     40       2.0261      1.00000
     41       2.1708      1.00000
     42       2.2995      1.00000
     43       2.4340      1.00000
     44       2.5564      1.00000
     45       2.6229      1.00000
     46       2.7255      1.00000
     47       2.7913      1.00000
     48       2.9639      1.00000
     49       6.1388      0.00000
     50       6.3497      0.00000
     51       6.6148      0.00000
     52       6.6992      0.00000
     53       6.7701      0.00000
     54       6.9613      0.00000
     55       7.1235      0.00000
     56       7.2487      0.00000
     57       7.4632      0.00000
     58       7.6455      0.00000
     59       7.8920      0.00000
     60       8.0101      0.00000
     61       8.1117      0.00000
     62       8.1860      0.00000
     63       8.4463      0.00000
     64       8.5025      0.00000

 k-point    15 :      -0.3333    0.4000    0.0000
  band No.  band energies     occupation 
      1     -32.3856      1.00000
      2     -32.3815      1.00000
      3     -32.3711      1.00000
      4     -32.3709      1.00000
      5     -13.9334      1.00000
      6     -13.8960      1.00000
      7     -13.8459      1.00000
      8     -13.8237      1.00000
      9     -13.7995      1.00000
     10     -13.7946      1.00000
     11     -13.7880      1.00000
     12     -13.7535      1.00000
     13     -13.7336      1.00000
     14     -13.7316      1.00000
     15     -13.7156      1.00000
     16     -13.6998      1.00000
     17      -7.2962      1.00000
     18      -7.1317      1.00000
     19      -6.3408      1.00000
     20      -6.1435      1.00000
     21      -6.0227      1.00000
     22      -5.9466      1.00000
     23      -5.8877      1.00000
     24      -5.8257      1.00000
     25      -1.6832      1.00000
     26      -1.5012      1.00000
     27      -0.4443      1.00000
     28      -0.3434      1.00000
     29       0.1365      1.00000
     30       0.2907      1.00000
     31       0.7252      1.00000
     32       0.9072      1.00000
     33       1.0581      1.00000
     34       1.1290      1.00000
     35       1.3013      1.00000
     36       1.4500      1.00000
     37       1.4957      1.00000
     38       1.7291      1.00000
     39       1.9039      1.00000
     40       2.0261      1.00000
     41       2.1708      1.00000
     42       2.2995      1.00000
     43       2.4340      1.00000
     44       2.5564      1.00000
     45       2.6229      1.00000
     46       2.7255      1.00000
     47       2.7913      1.00000
     48       2.9639      1.00000
     49       6.1388      0.00000
     50       6.3497      0.00000
     51       6.6148      0.00000
     52       6.6992      0.00000
     53       6.7701      0.00000
     54       6.9613      0.00000
     55       7.1235      0.00000
     56       7.2487      0.00000
     57       7.4632      0.00000
     58       7.6455      0.00000
     59       7.8920      0.00000
     60       8.0101      0.00000
     61       8.1117      0.00000
     62       8.1860      0.00000
     63       8.4464      0.00000
     64       8.5048      0.00000

 k-point    16 :       0.5000    0.4000    0.0000
  band No.  band energies     occupation 
      1     -32.3856      1.00000
      2     -32.3815      1.00000
      3     -32.3711      1.00000
      4     -32.3709      1.00000
      5     -13.9333      1.00000
      6     -13.8959      1.00000
      7     -13.8459      1.00000
      8     -13.8239      1.00000
      9     -13.7996      1.00000
     10     -13.7949      1.00000
     11     -13.7884      1.00000
     12     -13.7535      1.00000
     13     -13.7338      1.00000
     14     -13.7317      1.00000
     15     -13.7155      1.00000
     16     -13.6997      1.00000
     17      -7.2356      1.00000
     18      -7.1099      1.00000
     19      -6.4067      1.00000
     20      -6.1796      1.00000
     21      -6.0459      1.00000
     22      -5.9542      1.00000
     23      -5.8904      1.00000
     24      -5.8159      1.00000
     25      -1.6627      1.00000
     26      -1.5208      1.00000
     27      -0.3144      1.00000
     28      -0.3012      1.00000
     29       0.2385      1.00000
     30       0.3853      1.00000
     31       0.7856      1.00000
     32       0.8427      1.00000
     33       0.9906      1.00000
     34       1.1628      1.00000
     35       1.2442      1.00000
     36       1.3408      1.00000
     37       1.4927      1.00000
     38       1.7411      1.00000
     39       1.8986      1.00000
     40       2.0941      1.00000
     41       2.1692      1.00000
     42       2.2154      1.00000
     43       2.3687      1.00000
     44       2.5886      1.00000
     45       2.6527      1.00000
     46       2.6965      1.00000
     47       2.7273      1.00000
     48       2.8991      1.00000
     49       6.0433      0.00000
     50       6.2452      0.00000
     51       6.6169      0.00000
     52       6.7030      0.00000
     53       6.7890      0.00000
     54       6.9924      0.00000
     55       7.0262      0.00000
     56       7.1678      0.00000
     57       7.5356      0.00000
     58       7.7820      0.00000
     59       7.8859      0.00000
     60       7.9306      0.00000
     61       8.1768      0.00000
     62       8.2299      0.00000
     63       8.3064      0.00000
     64       8.3734      0.00000

 k-point    17 :      -0.0000   -0.0000    0.1667
  band No.  band energies     occupation 
      1     -32.3886      1.00000
      2     -32.3748      1.00000
      3     -32.3732      1.00000
      4     -32.3725      1.00000
      5     -13.9501      1.00000
      6     -13.9145      1.00000
      7     -13.9084      1.00000
      8     -13.8211      1.00000
      9     -13.7851      1.00000
     10     -13.7826      1.00000
     11     -13.7456      1.00000
     12     -13.7442      1.00000
     13     -13.7425      1.00000
     14     -13.7369      1.00000
     15     -13.6996      1.00000
     16     -13.6769      1.00000
     17      -7.5876      1.00000
     18      -6.8050      1.00000
     19      -6.4833      1.00000
     20      -6.0467      1.00000
     21      -5.9405      1.00000
     22      -5.9251      1.00000
     23      -5.8752      1.00000
     24      -5.8383      1.00000
     25      -1.8844      1.00000
     26      -1.0801      1.00000
     27      -1.0401      1.00000
     28      -0.4804      1.00000
     29       0.0819      1.00000
     30       0.1537      1.00000
     31       0.5073      1.00000
     32       0.7585      1.00000
     33       0.8435      1.00000
     34       1.1663      1.00000
     35       1.4197      1.00000
     36       1.5288      1.00000
     37       1.7460      1.00000
     38       1.8954      1.00000
     39       1.9862      1.00000
     40       2.0263      1.00000
     41       2.3347      1.00000
     42       2.3380      1.00000
     43       2.5217      1.00000
     44       2.5253      1.00000
     45       2.6904      1.00000
     46       3.0453      1.00000
     47       3.2588      1.00000
     48       3.3614      1.00000
     49       5.3727      0.00000
     50       6.1702      0.00000
     51       6.2888      0.00000
     52       6.4351      0.00000
     53       6.7857      0.00000
     54       7.1790      0.00000
     55       7.3662      0.00000
     56       7.6302      0.00000
     57       7.6838      0.00000
     58       7.7406      0.00000
     59       7.7456      0.00000
     60       7.9025      0.00000
     61       7.9097      0.00000
     62       7.9989      0.00000
     63       8.3494      0.00000
     64       8.3944      0.00000

 k-point    18 :       0.1667   -0.0000    0.1667
  band No.  band energies     occupation 
      1     -32.3886      1.00000
      2     -32.3748      1.00000
      3     -32.3732      1.00000
      4     -32.3725      1.00000
      5     -13.9500      1.00000
      6     -13.9146      1.00000
      7     -13.9083      1.00000
      8     -13.8217      1.00000
      9     -13.7851      1.00000
     10     -13.7825      1.00000
     11     -13.7457      1.00000
     12     -13.7444      1.00000
     13     -13.7427      1.00000
     14     -13.7369      1.00000
     15     -13.6996      1.00000
     16     -13.6769      1.00000
     17      -7.5293      1.00000
     18      -6.7922      1.00000
     19      -6.5314      1.00000
     20      -6.0191      1.00000
     21      -5.9610      1.00000
     22      -5.9566      1.00000
     23      -5.9085      1.00000
     24      -5.8644      1.00000
     25      -1.8251      1.00000
     26      -1.0672      1.00000
     27      -0.9460      1.00000
     28      -0.4944      1.00000
     29       0.2260      1.00000
     30       0.2421      1.00000
     31       0.5658      1.00000
     32       0.7291      1.00000
     33       0.7354      1.00000
     34       1.0806      1.00000
     35       1.5567      1.00000
     36       1.6124      1.00000
     37       1.6416      1.00000
     38       1.9089      1.00000
     39       1.9199      1.00000
     40       2.0659      1.00000
     41       2.2700      1.00000
     42       2.3041      1.00000
     43       2.5125      1.00000
     44       2.5611      1.00000
     45       2.6640      1.00000
     46       2.7025      1.00000
     47       3.1963      1.00000
     48       3.3717      1.00000
     49       5.3783      0.00000
     50       6.2168      0.00000
     51       6.3180      0.00000
     52       6.5956      0.00000
     53       6.8314      0.00000
     54       6.8988      0.00000
     55       7.2465      0.00000
     56       7.5132      0.00000
     57       7.5919      0.00000
     58       7.7227      0.00000
     59       7.7248      0.00000
     60       7.8044      0.00000
     61       7.9115      0.00000
     62       8.1246      0.00000
     63       8.2256      0.00000
     64       8.3055      0.00000

 k-point    19 :       0.3333    0.0000    0.1667
  band No.  band energies     occupation 
      1     -32.3886      1.00000
      2     -32.3748      1.00000
      3     -32.3732      1.00000
      4     -32.3725      1.00000
      5     -13.9497      1.00000
      6     -13.9144      1.00000
      7     -13.9079      1.00000
      8     -13.8233      1.00000
      9     -13.7851      1.00000
     10     -13.7825      1.00000
     11     -13.7460      1.00000
     12     -13.7448      1.00000
     13     -13.7432      1.00000
     14     -13.7369      1.00000
     15     -13.6995      1.00000
     16     -13.6769      1.00000
     17      -7.3964      1.00000
     18      -6.8085      1.00000
     19      -6.6706      1.00000
     20      -6.0770      1.00000
     21      -6.0124      1.00000
     22      -5.9194      1.00000
     23      -5.8905      1.00000
     24      -5.8454      1.00000
     25      -1.7908      1.00000
     26      -1.2318      1.00000
     27      -0.6832      1.00000
     28      -0.5089      1.00000
     29       0.3019      1.00000
     30       0.3515      1.00000
     31       0.5991      1.00000
     32       0.7722      1.00000
     33       0.7811      1.00000
     34       1.0625      1.00000
     35       1.3651      1.00000
     36       1.7057      1.00000
     37       1.7516      1.00000
     38       1.7953      1.00000
     39       1.9626      1.00000
     40       2.0139      1.00000
     41       2.1870      1.00000
     42       2.4300      1.00000
     43       2.5569      1.00000
     44       2.6012      1.00000
     45       2.6813      1.00000
     46       2.7890      1.00000
     47       2.9450      1.00000
     48       3.2127      1.00000
     49       5.4506      0.00000
     50       6.1085      0.00000
     51       6.2312      0.00000
     52       6.5712      0.00000
     53       6.7248      0.00000
     54       6.8523      0.00000
     55       6.9281      0.00000
     56       7.1483      0.00000
     57       7.3906      0.00000
     58       7.4959      0.00000
     59       7.5682      0.00000
     60       7.7194      0.00000
     61       7.9807      0.00000
     62       8.0860      0.00000
     63       8.1656      0.00000
     64       8.3121      0.00000

 k-point    20 :       0.5000   -0.0000    0.1667
  band No.  band energies     occupation 
      1     -32.3886      1.00000
      2     -32.3748      1.00000
      3     -32.3732      1.00000
      4     -32.3725      1.00000
      5     -13.9496      1.00000
      6     -13.9142      1.00000
      7     -13.9077      1.00000
      8     -13.8242      1.00000
      9     -13.7850      1.00000
     10     -13.7825      1.00000
     11     -13.7462      1.00000
     12     -13.7449      1.00000
     13     -13.7435      1.00000
     14     -13.7370      1.00000
     15     -13.6994      1.00000
     16     -13.6769      1.00000
     17      -7.3160      1.00000
     18      -6.8356      1.00000
     19      -6.7532      1.00000
     20      -6.1174      1.00000
     21      -6.0881      1.00000
     22      -5.8664      1.00000
     23      -5.8411      1.00000
     24      -5.7988      1.00000
     25      -1.8212      1.00000
     26      -1.3467      1.00000
     27      -0.5882      1.00000
     28      -0.5266      1.00000
     29       0.3351      1.00000
     30       0.4453      1.00000
     31       0.4662      1.00000
     32       0.8217      1.00000
     33       0.9288      1.00000
     34       1.1421      1.00000
     35       1.2753      1.00000
     36       1.4072      1.00000
     37       1.7849      1.00000
     38       1.8187      1.00000
     39       2.0003      1.00000
     40       2.0257      1.00000
     41       2.2913      1.00000
     42       2.4715      1.00000
     43       2.7060      1.00000
     44       2.7432      1.00000
     45       2.8223      1.00000
     46       2.8293      1.00000
     47       2.9557      1.00000
     48       2.9945      1.00000
     49       5.6313      0.00000
     50       5.9383      0.00000
     51       6.0294      0.00000
     52       6.2923      0.00000
     53       6.5526      0.00000
     54       6.5860      0.00000
     55       6.8405      0.00000
     56       7.0846      0.00000
     57       7.2911      0.00000
     58       7.3756      0.00000
     59       7.5057      0.00000
     60       7.7050      0.00000
     61       7.8924      0.00000
     62       8.2432      0.00000
     63       8.3019      0.00000
     64       8.4901      0.00000

 k-point    21 :      -0.3333    0.0000    0.1667
  band No.  band energies     occupation 
      1     -32.3886      1.00000
      2     -32.3748      1.00000
      3     -32.3732      1.00000
      4     -32.3725      1.00000
      5     -13.9497      1.00000
      6     -13.9141      1.00000
      7     -13.9079      1.00000
      8     -13.8235      1.00000
      9     -13.7850      1.00000
     10     -13.7826      1.00000
     11     -13.7460      1.00000
     12     -13.7447      1.00000
     13     -13.7432      1.00000
     14     -13.7369      1.00000
     15     -13.6995      1.00000
     16     -13.6769      1.00000
     17      -7.4160      1.00000
     18      -6.8466      1.00000
     19      -6.6488      1.00000
     20      -6.1263      1.00000
     21      -6.0702      1.00000
     22      -5.8488      1.00000
     23      -5.8267      1.00000
     24      -5.7759      1.00000
     25      -1.8944      1.00000
     26      -1.3034      1.00000
     27      -0.6845      1.00000
     28      -0.5308      1.00000
     29       0.1189      1.00000
     30       0.2215      1.00000
     31       0.4896      1.00000
     32       0.8053      1.00000
     33       0.9775      1.00000
     34       1.2121      1.00000
     35       1.2331      1.00000
     36       1.6319      1.00000
     37       1.8635      1.00000
     38       1.8847      1.00000
     39       2.0647      1.00000
     40       2.0682      1.00000
     41       2.2865      1.00000
     42       2.4440      1.00000
     43       2.7089      1.00000
     44       2.7634      1.00000
     45       2.8390      1.00000
     46       2.8641      1.00000
     47       2.9585      1.00000
     48       3.0919      1.00000
     49       5.5131      0.00000
     50       5.8271      0.00000
     51       5.9478      0.00000
     52       6.4967      0.00000
     53       6.6233      0.00000
     54       6.9882      0.00000
     55       6.9927      0.00000
     56       7.1791      0.00000
     57       7.2197      0.00000
     58       7.3986      0.00000
     59       7.4772      0.00000
     60       7.5800      0.00000
     61       7.7740      0.00000
     62       7.9938      0.00000
     63       8.3711      0.00000
     64       8.4647      0.00000

 k-point    22 :      -0.1667    0.0000    0.1667
  band No.  band energies     occupation 
      1     -32.3886      1.00000
      2     -32.3748      1.00000
      3     -32.3732      1.00000
      4     -32.3725      1.00000
      5     -13.9500      1.00000
      6     -13.9143      1.00000
      7     -13.9082      1.00000
      8     -13.8220      1.00000
      9     -13.7850      1.00000
     10     -13.7826      1.00000
     11     -13.7457      1.00000
     12     -13.7444      1.00000
     13     -13.7427      1.00000
     14     -13.7369      1.00000
     15     -13.6995      1.00000
     16     -13.6769      1.00000
     17      -7.5422      1.00000
     18      -6.8321      1.00000
     19      -6.5317      1.00000
     20      -6.1007      1.00000
     21      -5.9599      1.00000
     22      -5.8817      1.00000
     23      -5.8576      1.00000
     24      -5.7963      1.00000
     25      -1.9210      1.00000
     26      -1.1632      1.00000
     27      -0.9411      1.00000
     28      -0.4830      1.00000
     29      -0.0445      1.00000
     30       0.1414      1.00000
     31       0.5188      1.00000
     32       0.7969      1.00000
     33       0.9710      1.00000
     34       1.1998      1.00000
     35       1.2573      1.00000
     36       1.5367      1.00000
     37       1.8533      1.00000
     38       1.9040      1.00000
     39       2.0248      1.00000
     40       2.1891      1.00000
     41       2.3191      1.00000
     42       2.5755      1.00000
     43       2.6355      1.00000
     44       2.6467      1.00000
     45       2.7391      1.00000
     46       2.8077      1.00000
     47       3.1817      1.00000
     48       3.1892      1.00000
     49       5.4023      0.00000
     50       6.0312      0.00000
     51       6.0477      0.00000
     52       6.6132      0.00000
     53       6.9471      0.00000
     54       7.0769      0.00000
     55       7.2451      0.00000
     56       7.3016      0.00000
     57       7.3571      0.00000
     58       7.5701      0.00000
     59       7.6343      0.00000
     60       7.8115      0.00000
     61       7.8351      0.00000
     62       8.0453      0.00000
     63       8.2831      0.00000
     64       8.3666      0.00000

 k-point    23 :      -0.0000    0.2000    0.1667
  band No.  band energies     occupation 
      1     -32.3876      1.00000
      2     -32.3771      1.00000
      3     -32.3727      1.00000
      4     -32.3718      1.00000
      5     -13.9437      1.00000
      6     -13.9107      1.00000
      7     -13.8860      1.00000
      8     -13.8202      1.00000
      9     -13.8077      1.00000
     10     -13.7647      1.00000
     11     -13.7542      1.00000
     12     -13.7518      1.00000
     13     -13.7409      1.00000
     14     -13.7350      1.00000
     15     -13.7113      1.00000
     16     -13.6833      1.00000
     17      -7.5351      1.00000
     18      -6.9376      1.00000
     19      -6.3984      1.00000
     20      -6.0410      1.00000
     21      -5.9851      1.00000
     22      -5.8962      1.00000
     23      -5.8722      1.00000
     24      -5.8432      1.00000
     25      -1.8070      1.00000
     26      -1.1469      1.00000
     27      -0.9903      1.00000
     28      -0.4024      1.00000
     29      -0.0802      1.00000
     30       0.3371      1.00000
     31       0.5213      1.00000
     32       0.5646      1.00000
     33       1.0279      1.00000
     34       1.2443      1.00000
     35       1.2864      1.00000
     36       1.6625      1.00000
     37       1.7164      1.00000
     38       1.7868      1.00000
     39       1.9346      1.00000
     40       2.0611      1.00000
     41       2.2846      1.00000
     42       2.3716      1.00000
     43       2.4218      1.00000
     44       2.5241      1.00000
     45       2.7445      1.00000
     46       2.8056      1.00000
     47       3.1022      1.00000
     48       3.3380      1.00000
     49       5.7492      0.00000
     50       6.0242      0.00000
     51       6.4164      0.00000
     52       6.5828      0.00000
     53       6.8277      0.00000
     54       7.1968      0.00000
     55       7.4392      0.00000
     56       7.5785      0.00000
     57       7.6434      0.00000
     58       7.6898      0.00000
     59       7.8142      0.00000
     60       7.9659      0.00000
     61       8.1799      0.00000
     62       8.2487      0.00000
     63       8.2734      0.00000
     64       8.4103      0.00000

 k-point    24 :       0.0000    0.2000   -0.1667
  band No.  band energies     occupation 
      1     -32.3876      1.00000
      2     -32.3771      1.00000
      3     -32.3727      1.00000
      4     -32.3718      1.00000
      5     -13.9437      1.00000
      6     -13.9107      1.00000
      7     -13.8860      1.00000
      8     -13.8202      1.00000
      9     -13.8077      1.00000
     10     -13.7647      1.00000
     11     -13.7542      1.00000
     12     -13.7518      1.00000
     13     -13.7409      1.00000
     14     -13.7350      1.00000
     15     -13.7113      1.00000
     16     -13.6833      1.00000
     17      -7.5351      1.00000
     18      -6.9376      1.00000
     19      -6.3984      1.00000
     20      -6.0410      1.00000
     21      -5.9851      1.00000
     22      -5.8962      1.00000
     23      -5.8722      1.00000
     24      -5.8432      1.00000
     25      -1.8070      1.00000
     26      -1.1469      1.00000
     27      -0.9903      1.00000
     28      -0.4024      1.00000
     29      -0.0802      1.00000
     30       0.3371      1.00000
     31       0.5213      1.00000
     32       0.5646      1.00000
     33       1.0279      1.00000
     34       1.2443      1.00000
     35       1.2864      1.00000
     36       1.6625      1.00000
     37       1.7164      1.00000
     38       1.7868      1.00000
     39       1.9346      1.00000
     40       2.0611      1.00000
     41       2.2846      1.00000
     42       2.3716      1.00000
     43       2.4218      1.00000
     44       2.5241      1.00000
     45       2.7445      1.00000
     46       2.8056      1.00000
     47       3.1022      1.00000
     48       3.3380      1.00000
     49       5.7492      0.00000
     50       6.0242      0.00000
     51       6.4164      0.00000
     52       6.5828      0.00000
     53       6.8277      0.00000
     54       7.1968      0.00000
     55       7.4392      0.00000
     56       7.5785      0.00000
     57       7.6434      0.00000
     58       7.6898      0.00000
     59       7.8142      0.00000
     60       7.9659      0.00000
     61       8.1799      0.00000
     62       8.2488      0.00000
     63       8.2734      0.00000
     64       8.4440      0.00000

 k-point    25 :       0.1667    0.2000    0.1667
  band No.  band energies     occupation 
      1     -32.3876      1.00000
      2     -32.3771      1.00000
      3     -32.3727      1.00000
      4     -32.3718      1.00000
      5     -13.9436      1.00000
      6     -13.9106      1.00000
      7     -13.8860      1.00000
      8     -13.8204      1.00000
      9     -13.8082      1.00000
     10     -13.7649      1.00000
     11     -13.7543      1.00000
     12     -13.7518      1.00000
     13     -13.7411      1.00000
     14     -13.7352      1.00000
     15     -13.7113      1.00000
     16     -13.6832      1.00000
     17      -7.4795      1.00000
     18      -6.9204      1.00000
     19      -6.4384      1.00000
     20      -6.0621      1.00000
     21      -5.9911      1.00000
     22      -5.9280      1.00000
     23      -5.8827      1.00000
     24      -5.8671      1.00000
     25      -1.7553      1.00000
     26      -1.1696      1.00000
     27      -0.8634      1.00000
     28      -0.3993      1.00000
     29       0.0591      1.00000
     30       0.4111      1.00000
     31       0.5292      1.00000
     32       0.5975      1.00000
     33       0.9072      1.00000
     34       1.1753      1.00000
     35       1.4311      1.00000
     36       1.6560      1.00000
     37       1.6826      1.00000
     38       1.7280      1.00000
     39       2.0064      1.00000
     40       2.0840      1.00000
     41       2.2205      1.00000
     42       2.3880      1.00000
     43       2.3988      1.00000
     44       2.4956      1.00000
     45       2.5955      1.00000
     46       2.7372      1.00000
     47       3.0474      1.00000
     48       3.1590      1.00000
     49       5.7525      0.00000
     50       6.0420      0.00000
     51       6.4803      0.00000
     52       6.5647      0.00000
     53       6.8103      0.00000
     54       6.9409      0.00000
     55       7.3069      0.00000
     56       7.5744      0.00000
     57       7.6678      0.00000
     58       7.7049      0.00000
     59       7.7831      0.00000
     60       8.0201      0.00000
     61       8.1594      0.00000
     62       8.1738      0.00000
     63       8.3194      0.00000
     64       8.4229      0.00000

 k-point    26 :      -0.1667    0.2000   -0.1667
  band No.  band energies     occupation 
      1     -32.3876      1.00000
      2     -32.3771      1.00000
      3     -32.3727      1.00000
      4     -32.3718      1.00000
      5     -13.9436      1.00000
      6     -13.9106      1.00000
      7     -13.8860      1.00000
      8     -13.8204      1.00000
      9     -13.8082      1.00000
     10     -13.7649      1.00000
     11     -13.7543      1.00000
     12     -13.7518      1.00000
     13     -13.7411      1.00000
     14     -13.7352      1.00000
     15     -13.7113      1.00000
     16     -13.6832      1.00000
     17      -7.4795      1.00000
     18      -6.9204      1.00000
     19      -6.4384      1.00000
     20      -6.0621      1.00000
     21      -5.9911      1.00000
     22      -5.9280      1.00000
     23      -5.8827      1.00000
     24      -5.8671      1.00000
     25      -1.7553      1.00000
     26      -1.1696      1.00000
     27      -0.8634      1.00000
     28      -0.3993      1.00000
     29       0.0591      1.00000
     30       0.4111      1.00000
     31       0.5292      1.00000
     32       0.5975      1.00000
     33       0.9072      1.00000
     34       1.1753      1.00000
     35       1.4311      1.00000
     36       1.6560      1.00000
     37       1.6826      1.00000
     38       1.7280      1.00000
     39       2.0064      1.00000
     40       2.0840      1.00000
     41       2.2205      1.00000
     42       2.3880      1.00000
     43       2.3988      1.00000
     44       2.4956      1.00000
     45       2.5955      1.00000
     46       2.7372      1.00000
     47       3.0474      1.00000
     48       3.1590      1.00000
     49       5.7525      0.00000
     50       6.0420      0.00000
     51       6.4803      0.00000
     52       6.5647      0.00000
     53       6.8103      0.00000
     54       6.9409      0.00000
     55       7.3069      0.00000
     56       7.5744      0.00000
     57       7.6678      0.00000
     58       7.7049      0.00000
     59       7.7831      0.00000
     60       8.0201      0.00000
     61       8.1594      0.00000
     62       8.1738      0.00000
     63       8.3189      0.00000
     64       8.4050      0.00000

 k-point    27 :       0.3333    0.2000    0.1667
  band No.  band energies     occupation 
      1     -32.3876      1.00000
      2     -32.3771      1.00000
      3     -32.3727      1.00000
      4     -32.3718      1.00000
      5     -13.9433      1.00000
      6     -13.9103      1.00000
      7     -13.8858      1.00000
      8     -13.8212      1.00000
      9     -13.8087      1.00000
     10     -13.7653      1.00000
     11     -13.7545      1.00000
     12     -13.7518      1.00000
     13     -13.7414      1.00000
     14     -13.7355      1.00000
     15     -13.7112      1.00000
     16     -13.6832      1.00000
     17      -7.3578      1.00000
     18      -6.9284      1.00000
     19      -6.5521      1.00000
     20      -6.0956      1.00000
     21      -6.0108      1.00000
     22      -5.9780      1.00000
     23      -5.8635      1.00000
     24      -5.8467      1.00000
     25      -1.7233      1.00000
     26      -1.2912      1.00000
     27      -0.6200      1.00000
     28      -0.4225      1.00000
     29       0.2240      1.00000
     30       0.4199      1.00000
     31       0.5750      1.00000
     32       0.7506      1.00000
     33       0.8634      1.00000
     34       1.1256      1.00000
     35       1.4558      1.00000
     36       1.5860      1.00000
     37       1.6539      1.00000
     38       1.7638      1.00000
     39       1.9357      1.00000
     40       2.0925      1.00000
     41       2.2027      1.00000
     42       2.2912      1.00000
     43       2.4871      1.00000
     44       2.5484      1.00000
     45       2.6518      1.00000
     46       2.7660      1.00000
     47       2.8952      1.00000
     48       3.0233      1.00000
     49       5.7471      0.00000
     50       6.0316      0.00000
     51       6.3308      0.00000
     52       6.5770      0.00000
     53       6.6165      0.00000
     54       7.0074      0.00000
     55       7.0708      0.00000
     56       7.1088      0.00000
     57       7.3893      0.00000
     58       7.6733      0.00000
     59       7.7593      0.00000
     60       7.8630      0.00000
     61       7.9751      0.00000
     62       8.0666      0.00000
     63       8.2554      0.00000
     64       8.5036      0.00000

 k-point    28 :      -0.3333    0.2000   -0.1667
  band No.  band energies     occupation 
      1     -32.3876      1.00000
      2     -32.3771      1.00000
      3     -32.3727      1.00000
      4     -32.3718      1.00000
      5     -13.9433      1.00000
      6     -13.9103      1.00000
      7     -13.8858      1.00000
      8     -13.8212      1.00000
      9     -13.8087      1.00000
     10     -13.7653      1.00000
     11     -13.7545      1.00000
     12     -13.7518      1.00000
     13     -13.7414      1.00000
     14     -13.7355      1.00000
     15     -13.7112      1.00000
     16     -13.6832      1.00000
     17      -7.3578      1.00000
     18      -6.9284      1.00000
     19      -6.5521      1.00000
     20      -6.0956      1.00000
     21      -6.0108      1.00000
     22      -5.9780      1.00000
     23      -5.8635      1.00000
     24      -5.8467      1.00000
     25      -1.7233      1.00000
     26      -1.2912      1.00000
     27      -0.6200      1.00000
     28      -0.4225      1.00000
     29       0.2240      1.00000
     30       0.4199      1.00000
     31       0.5750      1.00000
     32       0.7506      1.00000
     33       0.8634      1.00000
     34       1.1256      1.00000
     35       1.4558      1.00000
     36       1.5860      1.00000
     37       1.6539      1.00000
     38       1.7638      1.00000
     39       1.9357      1.00000
     40       2.0925      1.00000
     41       2.2027      1.00000
     42       2.2912      1.00000
     43       2.4871      1.00000
     44       2.5484      1.00000
     45       2.6518      1.00000
     46       2.7660      1.00000
     47       2.8952      1.00000
     48       3.0233      1.00000
     49       5.7471      0.00000
     50       6.0316      0.00000
     51       6.3308      0.00000
     52       6.5770      0.00000
     53       6.6165      0.00000
     54       7.0074      0.00000
     55       7.0708      0.00000
     56       7.1088      0.00000
     57       7.3893      0.00000
     58       7.6733      0.00000
     59       7.7593      0.00000
     60       7.8630      0.00000
     61       7.9751      0.00000
     62       8.0666      0.00000
     63       8.2554      0.00000
     64       8.5056      0.00000

 k-point    29 :       0.5000    0.2000    0.1667
  band No.  band energies     occupation 
      1     -32.3876      1.00000
      2     -32.3771      1.00000
      3     -32.3727      1.00000
      4     -32.3718      1.00000
      5     -13.9432      1.00000
      6     -13.9101      1.00000
      7     -13.8856      1.00000
      8     -13.8219      1.00000
      9     -13.8089      1.00000
     10     -13.7655      1.00000
     11     -13.7546      1.00000
     12     -13.7519      1.00000
     13     -13.7416      1.00000
     14     -13.7356      1.00000
     15     -13.7111      1.00000
     16     -13.6832      1.00000
     17      -7.2889      1.00000
     18      -6.9558      1.00000
     19      -6.6113      1.00000
     20      -6.1251      1.00000
     21      -6.0674      1.00000
     22      -5.9394      1.00000
     23      -5.8452      1.00000
     24      -5.8032      1.00000
     25      -1.7477      1.00000
     26      -1.3741      1.00000
     27      -0.5274      1.00000
     28      -0.4704      1.00000
     29       0.2959      1.00000
     30       0.4916      1.00000
     31       0.5370      1.00000
     32       0.7170      1.00000
     33       1.0096      1.00000
     34       1.1532      1.00000
     35       1.3678      1.00000
     36       1.3860      1.00000
     37       1.6825      1.00000
     38       1.7411      1.00000
     39       1.9006      1.00000
     40       2.1900      1.00000
     41       2.2152      1.00000
     42       2.4000      1.00000
     43       2.5673      1.00000
     44       2.6484      1.00000
     45       2.7246      1.00000
     46       2.7845      1.00000
     47       2.8668      1.00000
     48       3.0185      1.00000
     49       5.7978      0.00000
     50       6.0099      0.00000
     51       6.1532      0.00000
     52       6.5283      0.00000
     53       6.5573      0.00000
     54       6.7048      0.00000
     55       6.8035      0.00000
     56       7.0387      0.00000
     57       7.3531      0.00000
     58       7.5705      0.00000
     59       7.6667      0.00000
     60       7.8601      0.00000
     61       8.0628      0.00000
     62       8.0908      0.00000
     63       8.2207      0.00000
     64       8.3771      0.00000

 k-point    30 :       0.5000    0.2000   -0.1667
  band No.  band energies     occupation 
      1     -32.3876      1.00000
      2     -32.3771      1.00000
      3     -32.3727      1.00000
      4     -32.3718      1.00000
      5     -13.9432      1.00000
      6     -13.9101      1.00000
      7     -13.8856      1.00000
      8     -13.8219      1.00000
      9     -13.8089      1.00000
     10     -13.7655      1.00000
     11     -13.7546      1.00000
     12     -13.7519      1.00000
     13     -13.7416      1.00000
     14     -13.7356      1.00000
     15     -13.7111      1.00000
     16     -13.6832      1.00000
     17      -7.2889      1.00000
     18      -6.9558      1.00000
     19      -6.6113      1.00000
     20      -6.1251      1.00000
     21      -6.0674      1.00000
     22      -5.9394      1.00000
     23      -5.8452      1.00000
     24      -5.8032      1.00000
     25      -1.7477      1.00000
     26      -1.3741      1.00000
     27      -0.5274      1.00000
     28      -0.4704      1.00000
     29       0.2959      1.00000
     30       0.4916      1.00000
     31       0.5370      1.00000
     32       0.7170      1.00000
     33       1.0096      1.00000
     34       1.1532      1.00000
     35       1.3678      1.00000
     36       1.3860      1.00000
     37       1.6825      1.00000
     38       1.7411      1.00000
     39       1.9006      1.00000
     40       2.1900      1.00000
     41       2.2152      1.00000
     42       2.4000      1.00000
     43       2.5673      1.00000
     44       2.6484      1.00000
     45       2.7246      1.00000
     46       2.7845      1.00000
     47       2.8668      1.00000
     48       3.0185      1.00000
     49       5.7978      0.00000
     50       6.0099      0.00000
     51       6.1532      0.00000
     52       6.5283      0.00000
     53       6.5573      0.00000
     54       6.7048      0.00000
     55       6.8035      0.00000
     56       7.0387      0.00000
     57       7.3531      0.00000
     58       7.5705      0.00000
     59       7.6667      0.00000
     60       7.8601      0.00000
     61       8.0628      0.00000
     62       8.0908      0.00000
     63       8.2207      0.00000
     64       8.3771      0.00000

 k-point    31 :      -0.3333    0.2000    0.1667
  band No.  band energies     occupation 
      1     -32.3876      1.00000
      2     -32.3771      1.00000
      3     -32.3727      1.00000
      4     -32.3718      1.00000
      5     -13.9433      1.00000
      6     -13.9102      1.00000
      7     -13.8856      1.00000
      8     -13.8216      1.00000
      9     -13.8085      1.00000
     10     -13.7654      1.00000
     11     -13.7545      1.00000
     12     -13.7519      1.00000
     13     -13.7414      1.00000
     14     -13.7355      1.00000
     15     -13.7112      1.00000
     16     -13.6832      1.00000
     17      -7.3798      1.00000
     18      -6.9593      1.00000
     19      -6.5322      1.00000
     20      -6.1219      1.00000
     21      -6.0506      1.00000
     22      -5.8986      1.00000
     23      -5.8514      1.00000
     24      -5.7850      1.00000
     25      -1.8129      1.00000
     26      -1.3342      1.00000
     27      -0.6299      1.00000
     28      -0.4961      1.00000
     29       0.0876      1.00000
     30       0.3277      1.00000
     31       0.5328      1.00000
     32       0.7277      1.00000
     33       1.0311      1.00000
     34       1.2037      1.00000
     35       1.3160      1.00000
     36       1.6502      1.00000
     37       1.7089      1.00000
     38       1.7478      1.00000
     39       1.8945      1.00000
     40       2.1855      1.00000
     41       2.2544      1.00000
     42       2.5159      1.00000
     43       2.5257      1.00000
     44       2.6655      1.00000
     45       2.7469      1.00000
     46       2.8371      1.00000
     47       2.8534      1.00000
     48       3.2045      1.00000
     49       5.7065      0.00000
     50       5.8850      0.00000
     51       6.1833      0.00000
     52       6.6895      0.00000
     53       6.7924      0.00000
     54       6.8275      0.00000
     55       6.9534      0.00000
     56       7.1183      0.00000
     57       7.3052      0.00000
     58       7.4961      0.00000
     59       7.5978      0.00000
     60       7.6881      0.00000
     61       7.9525      0.00000
     62       8.0293      0.00000
     63       8.3217      0.00000
     64       8.4178      0.00000

 k-point    32 :       0.3333    0.2000   -0.1667
  band No.  band energies     occupation 
      1     -32.3876      1.00000
      2     -32.3771      1.00000
      3     -32.3727      1.00000
      4     -32.3718      1.00000
      5     -13.9433      1.00000
      6     -13.9102      1.00000
      7     -13.8856      1.00000
      8     -13.8216      1.00000
      9     -13.8085      1.00000
     10     -13.7654      1.00000
     11     -13.7545      1.00000
     12     -13.7519      1.00000
     13     -13.7414      1.00000
     14     -13.7355      1.00000
     15     -13.7112      1.00000
     16     -13.6832      1.00000
     17      -7.3798      1.00000
     18      -6.9593      1.00000
     19      -6.5322      1.00000
     20      -6.1219      1.00000
     21      -6.0506      1.00000
     22      -5.8986      1.00000
     23      -5.8514      1.00000
     24      -5.7850      1.00000
     25      -1.8129      1.00000
     26      -1.3342      1.00000
     27      -0.6299      1.00000
     28      -0.4961      1.00000
     29       0.0876      1.00000
     30       0.3277      1.00000
     31       0.5328      1.00000
     32       0.7277      1.00000
     33       1.0311      1.00000
     34       1.2037      1.00000
     35       1.3160      1.00000
     36       1.6502      1.00000
     37       1.7089      1.00000
     38       1.7478      1.00000
     39       1.8945      1.00000
     40       2.1855      1.00000
     41       2.2544      1.00000
     42       2.5159      1.00000
     43       2.5257      1.00000
     44       2.6655      1.00000
     45       2.7469      1.00000
     46       2.8371      1.00000
     47       2.8534      1.00000
     48       3.2045      1.00000
     49       5.7065      0.00000
     50       5.8850      0.00000
     51       6.1833      0.00000
     52       6.6895      0.00000
     53       6.7924      0.00000
     54       6.8275      0.00000
     55       6.9534      0.00000
     56       7.1183      0.00000
     57       7.3052      0.00000
     58       7.4961      0.00000
     59       7.5978      0.00000
     60       7.6881      0.00000
     61       7.9525      0.00000
     62       8.0293      0.00000
     63       8.3217      0.00000
     64       8.4157      0.00000

 k-point    33 :      -0.1667    0.2000    0.1667
  band No.  band energies     occupation 
      1     -32.3876      1.00000
      2     -32.3771      1.00000
      3     -32.3727      1.00000
      4     -32.3718      1.00000
      5     -13.9436      1.00000
      6     -13.9105      1.00000
      7     -13.8858      1.00000
      8     -13.8208      1.00000
      9     -13.8079      1.00000
     10     -13.7649      1.00000
     11     -13.7543      1.00000
     12     -13.7518      1.00000
     13     -13.7411      1.00000
     14     -13.7352      1.00000
     15     -13.7113      1.00000
     16     -13.6833      1.00000
     17      -7.4947      1.00000
     18      -6.9545      1.00000
     19      -6.4388      1.00000
     20      -6.0789      1.00000
     21      -5.9709      1.00000
     22      -5.9105      1.00000
     23      -5.8592      1.00000
     24      -5.8079      1.00000
     25      -1.8381      1.00000
     26      -1.2283      1.00000
     27      -0.8725      1.00000
     28      -0.4422      1.00000
     29      -0.1014      1.00000
     30       0.2627      1.00000
     31       0.5245      1.00000
     32       0.6983      1.00000
     33       1.0558      1.00000
     34       1.1963      1.00000
     35       1.2990      1.00000
     36       1.6299      1.00000
     37       1.7328      1.00000
     38       1.8209      1.00000
     39       1.9274      1.00000
     40       2.1741      1.00000
     41       2.4128      1.00000
     42       2.4348      1.00000
     43       2.4570      1.00000
     44       2.5228      1.00000
     45       2.6905      1.00000
     46       2.8256      1.00000
     47       3.0971      1.00000
     48       3.3191      1.00000
     49       5.7022      0.00000
     50       5.9385      0.00000
     51       6.3586      0.00000
     52       6.6163      0.00000
     53       6.8764      0.00000
     54       7.1429      0.00000
     55       7.2416      0.00000
     56       7.4064      0.00000
     57       7.4582      0.00000
     58       7.6024      0.00000
     59       7.7153      0.00000
     60       7.7760      0.00000
     61       7.9542      0.00000
     62       7.9832      0.00000
     63       8.3484      0.00000
     64       8.3991      0.00000

 k-point    34 :       0.1667    0.2000   -0.1667
  band No.  band energies     occupation 
      1     -32.3876      1.00000
      2     -32.3771      1.00000
      3     -32.3727      1.00000
      4     -32.3718      1.00000
      5     -13.9436      1.00000
      6     -13.9105      1.00000
      7     -13.8858      1.00000
      8     -13.8208      1.00000
      9     -13.8079      1.00000
     10     -13.7649      1.00000
     11     -13.7543      1.00000
     12     -13.7518      1.00000
     13     -13.7411      1.00000
     14     -13.7352      1.00000
     15     -13.7113      1.00000
     16     -13.6833      1.00000
     17      -7.4947      1.00000
     18      -6.9545      1.00000
     19      -6.4388      1.00000
     20      -6.0789      1.00000
     21      -5.9709      1.00000
     22      -5.9105      1.00000
     23      -5.8592      1.00000
     24      -5.8079      1.00000
     25      -1.8381      1.00000
     26      -1.2283      1.00000
     27      -0.8725      1.00000
     28      -0.4422      1.00000
     29      -0.1014      1.00000
     30       0.2627      1.00000
     31       0.5245      1.00000
     32       0.6983      1.00000
     33       1.0558      1.00000
     34       1.1963      1.00000
     35       1.2990      1.00000
     36       1.6299      1.00000
     37       1.7328      1.00000
     38       1.8209      1.00000
     39       1.9274      1.00000
     40       2.1741      1.00000
     41       2.4128      1.00000
     42       2.4348      1.00000
     43       2.4570      1.00000
     44       2.5228      1.00000
     45       2.6905      1.00000
     46       2.8256      1.00000
     47       3.0971      1.00000
     48       3.3191      1.00000
     49       5.7022      0.00000
     50       5.9385      0.00000
     51       6.3586      0.00000
     52       6.6163      0.00000
     53       6.8764      0.00000
     54       7.1429      0.00000
     55       7.2416      0.00000
     56       7.4064      0.00000
     57       7.4582      0.00000
     58       7.6024      0.00000
     59       7.7153      0.00000
     60       7.7760      0.00000
     61       7.9542      0.00000
     62       7.9832      0.00000
     63       8.3480      0.00000
     64       8.4000      0.00000

 k-point    35 :      -0.0000    0.4000    0.1667
  band No.  band energies     occupation 
      1     -32.3847      1.00000
      2     -32.3809      1.00000
      3     -32.3720      1.00000
      4     -32.3715      1.00000
      5     -13.9258      1.00000
      6     -13.9080      1.00000
      7     -13.8378      1.00000
      8     -13.8210      1.00000
      9     -13.7974      1.00000
     10     -13.7911      1.00000
     11     -13.7840      1.00000
     12     -13.7662      1.00000
     13     -13.7380      1.00000
     14     -13.7344      1.00000
     15     -13.7130      1.00000
     16     -13.6962      1.00000
     17      -7.3869      1.00000
     18      -7.1708      1.00000
     19      -6.2645      1.00000
     20      -6.1336      1.00000
     21      -5.9488      1.00000
     22      -5.9057      1.00000
     23      -5.8596      1.00000
     24      -5.8506      1.00000
     25      -1.6045      1.00000
     26      -1.3549      1.00000
     27      -0.7746      1.00000
     28      -0.5015      1.00000
     29      -0.0603      1.00000
     30       0.2142      1.00000
     31       0.6245      1.00000
     32       0.6896      1.00000
     33       1.1415      1.00000
     34       1.2061      1.00000
     35       1.4753      1.00000
     36       1.5155      1.00000
     37       1.5685      1.00000
     38       1.7238      1.00000
     39       1.8504      1.00000
     40       2.1360      1.00000
     41       2.1729      1.00000
     42       2.2957      1.00000
     43       2.3877      1.00000
     44       2.4708      1.00000
     45       2.6216      1.00000
     46       2.9183      1.00000
     47       2.9496      1.00000
     48       3.0908      1.00000
     49       5.9932      0.00000
     50       6.2101      0.00000
     51       6.5938      0.00000
     52       6.8422      0.00000
     53       7.0143      0.00000
     54       7.2228      0.00000
     55       7.3222      0.00000
     56       7.5692      0.00000
     57       7.6842      0.00000
     58       7.7332      0.00000
     59       7.7809      0.00000
     60       7.9264      0.00000
     61       8.1864      0.00000
     62       8.2113      0.00000
     63       8.3555      0.00000
     64       8.4606      0.00000

 k-point    36 :       0.0000    0.4000   -0.1667
  band No.  band energies     occupation 
      1     -32.3847      1.00000
      2     -32.3809      1.00000
      3     -32.3720      1.00000
      4     -32.3715      1.00000
      5     -13.9258      1.00000
      6     -13.9080      1.00000
      7     -13.8378      1.00000
      8     -13.8210      1.00000
      9     -13.7974      1.00000
     10     -13.7911      1.00000
     11     -13.7840      1.00000
     12     -13.7662      1.00000
     13     -13.7380      1.00000
     14     -13.7344      1.00000
     15     -13.7130      1.00000
     16     -13.6962      1.00000
     17      -7.3869      1.00000
     18      -7.1708      1.00000
     19      -6.2645      1.00000
     20      -6.1336      1.00000
     21      -5.9488      1.00000
     22      -5.9057      1.00000
     23      -5.8596      1.00000
     24      -5.8506      1.00000
     25      -1.6045      1.00000
     26      -1.3549      1.00000
     27      -0.7746      1.00000
     28      -0.5015      1.00000
     29      -0.0603      1.00000
     30       0.2142      1.00000
     31       0.6245      1.00000
     32       0.6896      1.00000
     33       1.1415      1.00000
     34       1.2061      1.00000
     35       1.4753      1.00000
     36       1.5155      1.00000
     37       1.5685      1.00000
     38       1.7238      1.00000
     39       1.8504      1.00000
     40       2.1360      1.00000
     41       2.1729      1.00000
     42       2.2957      1.00000
     43       2.3877      1.00000
     44       2.4708      1.00000
     45       2.6216      1.00000
     46       2.9183      1.00000
     47       2.9496      1.00000
     48       3.0908      1.00000
     49       5.9932      0.00000
     50       6.2101      0.00000
     51       6.5938      0.00000
     52       6.8422      0.00000
     53       7.0143      0.00000
     54       7.2228      0.00000
     55       7.3222      0.00000
     56       7.5692      0.00000
     57       7.6842      0.00000
     58       7.7332      0.00000
     59       7.7809      0.00000
     60       7.9264      0.00000
     61       8.1864      0.00000
     62       8.2113      0.00000
     63       8.3555      0.00000
     64       8.4603      0.00000

 k-point    37 :       0.1667    0.4000    0.1667
  band No.  band energies     occupation 
      1     -32.3847      1.00000
      2     -32.3809      1.00000
      3     -32.3720      1.00000
      4     -32.3715      1.00000
      5     -13.9257      1.00000
      6     -13.9079      1.00000
      7     -13.8379      1.00000
      8     -13.8209      1.00000
      9     -13.7981      1.00000
     10     -13.7911      1.00000
     11     -13.7841      1.00000
     12     -13.7662      1.00000
     13     -13.7382      1.00000
     14     -13.7346      1.00000
     15     -13.7130      1.00000
     16     -13.6962      1.00000
     17      -7.3396      1.00000
     18      -7.1375      1.00000
     19      -6.3011      1.00000
     20      -6.1731      1.00000
     21      -5.9600      1.00000
     22      -5.9394      1.00000
     23      -5.8691      1.00000
     24      -5.8608      1.00000
     25      -1.5753      1.00000
     26      -1.3576      1.00000
     27      -0.6579      1.00000
     28      -0.4179      1.00000
     29       0.0085      1.00000
     30       0.2328      1.00000
     31       0.6441      1.00000
     32       0.7756      1.00000
     33       1.0895      1.00000
     34       1.2070      1.00000
     35       1.3904      1.00000
     36       1.4887      1.00000
     37       1.6330      1.00000
     38       1.8050      1.00000
     39       1.8730      1.00000
     40       2.0649      1.00000
     41       2.2353      1.00000
     42       2.3213      1.00000
     43       2.3683      1.00000
     44       2.4401      1.00000
     45       2.5051      1.00000
     46       2.7155      1.00000
     47       2.8427      1.00000
     48       2.9315      1.00000
     49       5.9918      0.00000
     50       6.1970      0.00000
     51       6.4909      0.00000
     52       6.7154      0.00000
     53       6.8564      0.00000
     54       7.0711      0.00000
     55       7.1745      0.00000
     56       7.5100      0.00000
     57       7.6797      0.00000
     58       7.8527      0.00000
     59       8.0399      0.00000
     60       8.0823      0.00000
     61       8.2275      0.00000
     62       8.4544      0.00000
     63       8.5185      0.00000
     64       8.5648      0.00000

 k-point    38 :      -0.1667    0.4000   -0.1667
  band No.  band energies     occupation 
      1     -32.3847      1.00000
      2     -32.3809      1.00000
      3     -32.3720      1.00000
      4     -32.3715      1.00000
      5     -13.9257      1.00000
      6     -13.9079      1.00000
      7     -13.8379      1.00000
      8     -13.8209      1.00000
      9     -13.7981      1.00000
     10     -13.7911      1.00000
     11     -13.7841      1.00000
     12     -13.7662      1.00000
     13     -13.7382      1.00000
     14     -13.7346      1.00000
     15     -13.7130      1.00000
     16     -13.6962      1.00000
     17      -7.3396      1.00000
     18      -7.1375      1.00000
     19      -6.3011      1.00000
     20      -6.1731      1.00000
     21      -5.9600      1.00000
     22      -5.9394      1.00000
     23      -5.8691      1.00000
     24      -5.8608      1.00000
     25      -1.5753      1.00000
     26      -1.3576      1.00000
     27      -0.6579      1.00000
     28      -0.4179      1.00000
     29       0.0085      1.00000
     30       0.2328      1.00000
     31       0.6441      1.00000
     32       0.7756      1.00000
     33       1.0895      1.00000
     34       1.2070      1.00000
     35       1.3904      1.00000
     36       1.4887      1.00000
     37       1.6330      1.00000
     38       1.8050      1.00000
     39       1.8730      1.00000
     40       2.0649      1.00000
     41       2.2353      1.00000
     42       2.3213      1.00000
     43       2.3683      1.00000
     44       2.4401      1.00000
     45       2.5051      1.00000
     46       2.7155      1.00000
     47       2.8427      1.00000
     48       2.9315      1.00000
     49       5.9918      0.00000
     50       6.1970      0.00000
     51       6.4909      0.00000
     52       6.7154      0.00000
     53       6.8564      0.00000
     54       7.0711      0.00000
     55       7.1745      0.00000
     56       7.5100      0.00000
     57       7.6797      0.00000
     58       7.8527      0.00000
     59       8.0399      0.00000
     60       8.0823      0.00000
     61       8.2275      0.00000
     62       8.4544      0.00000
     63       8.5185      0.00000
     64       8.5649      0.00000

 k-point    39 :       0.3333    0.4000    0.1667
  band No.  band energies     occupation 
      1     -32.3847      1.00000
      2     -32.3809      1.00000
      3     -32.3720      1.00000
      4     -32.3715      1.00000
      5     -13.9255      1.00000
      6     -13.9076      1.00000
      7     -13.8380      1.00000
      8     -13.8209      1.00000
      9     -13.7991      1.00000
     10     -13.7914      1.00000
     11     -13.7844      1.00000
     12     -13.7664      1.00000
     13     -13.7385      1.00000
     14     -13.7349      1.00000
     15     -13.7130      1.00000
     16     -13.6962      1.00000
     17      -7.2506      1.00000
     18      -7.0974      1.00000
     19      -6.3797      1.00000
     20      -6.2080      1.00000
     21      -6.0161      1.00000
     22      -5.9948      1.00000
     23      -5.8545      1.00000
     24      -5.8522      1.00000
     25      -1.5662      1.00000
     26      -1.4088      1.00000
     27      -0.4873      1.00000
     28      -0.3697      1.00000
     29       0.2000      1.00000
     30       0.3547      1.00000
     31       0.6637      1.00000
     32       0.9158      1.00000
     33       1.0467      1.00000
     34       1.1110      1.00000
     35       1.3324      1.00000
     36       1.4085      1.00000
     37       1.6300      1.00000
     38       1.7653      1.00000
     39       1.9074      1.00000
     40       1.9828      1.00000
     41       2.1923      1.00000
     42       2.2595      1.00000
     43       2.3470      1.00000
     44       2.4823      1.00000
     45       2.5602      1.00000
     46       2.6382      1.00000
     47       2.8478      1.00000
     48       2.8967      1.00000
     49       6.0151      0.00000
     50       6.2075      0.00000
     51       6.2235      0.00000
     52       6.4183      0.00000
     53       6.7913      0.00000
     54       6.9871      0.00000
     55       7.0836      0.00000
     56       7.2426      0.00000
     57       7.6441      0.00000
     58       7.8069      0.00000
     59       8.0402      0.00000
     60       8.1611      0.00000
     61       8.2888      0.00000
     62       8.3967      0.00000
     63       8.5198      0.00000
     64       8.5550      0.00000

 k-point    40 :      -0.3333    0.4000   -0.1667
  band No.  band energies     occupation 
      1     -32.3847      1.00000
      2     -32.3809      1.00000
      3     -32.3720      1.00000
      4     -32.3715      1.00000
      5     -13.9255      1.00000
      6     -13.9076      1.00000
      7     -13.8380      1.00000
      8     -13.8209      1.00000
      9     -13.7991      1.00000
     10     -13.7914      1.00000
     11     -13.7844      1.00000
     12     -13.7664      1.00000
     13     -13.7385      1.00000
     14     -13.7349      1.00000
     15     -13.7130      1.00000
     16     -13.6962      1.00000
     17      -7.2506      1.00000
     18      -7.0974      1.00000
     19      -6.3797      1.00000
     20      -6.2080      1.00000
     21      -6.0161      1.00000
     22      -5.9948      1.00000
     23      -5.8545      1.00000
     24      -5.8522      1.00000
     25      -1.5662      1.00000
     26      -1.4088      1.00000
     27      -0.4873      1.00000
     28      -0.3697      1.00000
     29       0.2000      1.00000
     30       0.3547      1.00000
     31       0.6637      1.00000
     32       0.9158      1.00000
     33       1.0467      1.00000
     34       1.1110      1.00000
     35       1.3324      1.00000
     36       1.4085      1.00000
     37       1.6300      1.00000
     38       1.7653      1.00000
     39       1.9074      1.00000
     40       1.9828      1.00000
     41       2.1923      1.00000
     42       2.2595      1.00000
     43       2.3470      1.00000
     44       2.4823      1.00000
     45       2.5602      1.00000
     46       2.6382      1.00000
     47       2.8478      1.00000
     48       2.8967      1.00000
     49       6.0151      0.00000
     50       6.2075      0.00000
     51       6.2235      0.00000
     52       6.4183      0.00000
     53       6.7913      0.00000
     54       6.9871      0.00000
     55       7.0836      0.00000
     56       7.2426      0.00000
     57       7.6441      0.00000
     58       7.8069      0.00000
     59       8.0402      0.00000
     60       8.1611      0.00000
     61       8.2888      0.00000
     62       8.3967      0.00000
     63       8.5198      0.00000
     64       8.5546      0.00000

 k-point    41 :       0.5000    0.4000    0.1667
  band No.  band energies     occupation 
      1     -32.3847      1.00000
      2     -32.3809      1.00000
      3     -32.3720      1.00000
      4     -32.3715      1.00000
      5     -13.9253      1.00000
      6     -13.9075      1.00000
      7     -13.8379      1.00000
      8     -13.8209      1.00000
      9     -13.7993      1.00000
     10     -13.7917      1.00000
     11     -13.7847      1.00000
     12     -13.7665      1.00000
     13     -13.7387      1.00000
     14     -13.7350      1.00000
     15     -13.7129      1.00000
     16     -13.6962      1.00000
     17      -7.2114      1.00000
     18      -7.0948      1.00000
     19      -6.4068      1.00000
     20      -6.1968      1.00000
     21      -6.0717      1.00000
     22      -6.0103      1.00000
     23      -5.8500      1.00000
     24      -5.8254      1.00000
     25      -1.5866      1.00000
     26      -1.4489      1.00000
     27      -0.4314      1.00000
     28      -0.4007      1.00000
     29       0.3018      1.00000
     30       0.4292      1.00000
     31       0.7278      1.00000
     32       0.8105      1.00000
     33       1.0456      1.00000
     34       1.1093      1.00000
     35       1.3203      1.00000
     36       1.3673      1.00000
     37       1.5807      1.00000
     38       1.6567      1.00000
     39       1.9677      1.00000
     40       2.0896      1.00000
     41       2.1228      1.00000
     42       2.2311      1.00000
     43       2.3464      1.00000
     44       2.5376      1.00000
     45       2.6287      1.00000
     46       2.6761      1.00000
     47       2.8993      1.00000
     48       3.0324      1.00000
     49       6.0328      0.00000
     50       6.1403      0.00000
     51       6.2849      0.00000
     52       6.3967      0.00000
     53       6.7699      0.00000
     54       6.9675      0.00000
     55       6.9856      0.00000
     56       7.1639      0.00000
     57       7.4046      0.00000
     58       7.5225      0.00000
     59       7.9453      0.00000
     60       8.0629      0.00000
     61       8.1829      0.00000
     62       8.2948      0.00000
     63       8.3547      0.00000
     64       8.4990      0.00000

 k-point    42 :       0.5000    0.4000   -0.1667
  band No.  band energies     occupation 
      1     -32.3847      1.00000
      2     -32.3809      1.00000
      3     -32.3720      1.00000
      4     -32.3715      1.00000
      5     -13.9253      1.00000
      6     -13.9075      1.00000
      7     -13.8379      1.00000
      8     -13.8209      1.00000
      9     -13.7993      1.00000
     10     -13.7917      1.00000
     11     -13.7847      1.00000
     12     -13.7665      1.00000
     13     -13.7387      1.00000
     14     -13.7350      1.00000
     15     -13.7129      1.00000
     16     -13.6962      1.00000
     17      -7.2114      1.00000
     18      -7.0948      1.00000
     19      -6.4068      1.00000
     20      -6.1968      1.00000
     21      -6.0717      1.00000
     22      -6.0103      1.00000
     23      -5.8500      1.00000
     24      -5.8254      1.00000
     25      -1.5866      1.00000
     26      -1.4489      1.00000
     27      -0.4314      1.00000
     28      -0.4007      1.00000
     29       0.3018      1.00000
     30       0.4292      1.00000
     31       0.7278      1.00000
     32       0.8105      1.00000
     33       1.0456      1.00000
     34       1.1093      1.00000
     35       1.3203      1.00000
     36       1.3673      1.00000
     37       1.5807      1.00000
     38       1.6567      1.00000
     39       1.9677      1.00000
     40       2.0896      1.00000
     41       2.1228      1.00000
     42       2.2311      1.00000
     43       2.3464      1.00000
     44       2.5376      1.00000
     45       2.6287      1.00000
     46       2.6761      1.00000
     47       2.8993      1.00000
     48       3.0324      1.00000
     49       6.0328      0.00000
     50       6.1403      0.00000
     51       6.2849      0.00000
     52       6.3967      0.00000
     53       6.7699      0.00000
     54       6.9675      0.00000
     55       6.9856      0.00000
     56       7.1639      0.00000
     57       7.4046      0.00000
     58       7.5225      0.00000
     59       7.9453      0.00000
     60       8.0629      0.00000
     61       8.1829      0.00000
     62       8.2948      0.00000
     63       8.3547      0.00000
     64       8.4990      0.00000

 k-point    43 :      -0.3333    0.4000    0.1667
  band No.  band energies     occupation 
      1     -32.3847      1.00000
      2     -32.3809      1.00000
      3     -32.3720      1.00000
      4     -32.3715      1.00000
      5     -13.9254      1.00000
      6     -13.9076      1.00000
      7     -13.8377      1.00000
      8     -13.8210      1.00000
      9     -13.7986      1.00000
     10     -13.7916      1.00000
     11     -13.7846      1.00000
     12     -13.7665      1.00000
     13     -13.7386      1.00000
     14     -13.7349      1.00000
     15     -13.7129      1.00000
     16     -13.6962      1.00000
     17      -7.2779      1.00000
     18      -7.1282      1.00000
     19      -6.3420      1.00000
     20      -6.1533      1.00000
     21      -6.0595      1.00000
     22      -5.9729      1.00000
     23      -5.8602      1.00000
     24      -5.8158      1.00000
     25      -1.6225      1.00000
     26      -1.4377      1.00000
     27      -0.5337      1.00000
     28      -0.4798      1.00000
     29       0.1680      1.00000
     30       0.3758      1.00000
     31       0.5999      1.00000
     32       0.8539      1.00000
     33       1.0287      1.00000
     34       1.1923      1.00000
     35       1.3603      1.00000
     36       1.4066      1.00000
     37       1.5616      1.00000
     38       1.6376      1.00000
     39       1.9249      1.00000
     40       2.0491      1.00000
     41       2.1156      1.00000
     42       2.2522      1.00000
     43       2.5183      1.00000
     44       2.6158      1.00000
     45       2.7272      1.00000
     46       2.7870      1.00000
     47       2.9509      1.00000
     48       3.1654      1.00000
     49       6.0508      0.00000
     50       6.1546      0.00000
     51       6.4904      0.00000
     52       6.5158      0.00000
     53       6.7369      0.00000
     54       6.8896      0.00000
     55       6.9723      0.00000
     56       7.1443      0.00000
     57       7.4997      0.00000
     58       7.5796      0.00000
     59       7.9136      0.00000
     60       8.0016      0.00000
     61       8.0235      0.00000
     62       8.2813      0.00000
     63       8.3251      0.00000
     64       8.3654      0.00000

 k-point    44 :       0.3333    0.4000   -0.1667
  band No.  band energies     occupation 
      1     -32.3847      1.00000
      2     -32.3809      1.00000
      3     -32.3720      1.00000
      4     -32.3715      1.00000
      5     -13.9254      1.00000
      6     -13.9076      1.00000
      7     -13.8377      1.00000
      8     -13.8210      1.00000
      9     -13.7986      1.00000
     10     -13.7916      1.00000
     11     -13.7846      1.00000
     12     -13.7665      1.00000
     13     -13.7386      1.00000
     14     -13.7349      1.00000
     15     -13.7129      1.00000
     16     -13.6962      1.00000
     17      -7.2779      1.00000
     18      -7.1282      1.00000
     19      -6.3420      1.00000
     20      -6.1533      1.00000
     21      -6.0595      1.00000
     22      -5.9729      1.00000
     23      -5.8602      1.00000
     24      -5.8158      1.00000
     25      -1.6225      1.00000
     26      -1.4377      1.00000
     27      -0.5337      1.00000
     28      -0.4798      1.00000
     29       0.1680      1.00000
     30       0.3758      1.00000
     31       0.5999      1.00000
     32       0.8539      1.00000
     33       1.0287      1.00000
     34       1.1923      1.00000
     35       1.3603      1.00000
     36       1.4066      1.00000
     37       1.5616      1.00000
     38       1.6376      1.00000
     39       1.9249      1.00000
     40       2.0491      1.00000
     41       2.1156      1.00000
     42       2.2522      1.00000
     43       2.5183      1.00000
     44       2.6158      1.00000
     45       2.7272      1.00000
     46       2.7870      1.00000
     47       2.9509      1.00000
     48       3.1654      1.00000
     49       6.0508      0.00000
     50       6.1546      0.00000
     51       6.4904      0.00000
     52       6.5158      0.00000
     53       6.7369      0.00000
     54       6.8896      0.00000
     55       6.9723      0.00000
     56       7.1443      0.00000
     57       7.4997      0.00000
     58       7.5796      0.00000
     59       7.9136      0.00000
     60       8.0016      0.00000
     61       8.0235      0.00000
     62       8.2813      0.00000
     63       8.3251      0.00000
     64       8.3652      0.00000

 k-point    45 :      -0.1667    0.4000    0.1667
  band No.  band energies     occupation 
      1     -32.3847      1.00000
      2     -32.3809      1.00000
      3     -32.3720      1.00000
      4     -32.3715      1.00000
      5     -13.9257      1.00000
      6     -13.9078      1.00000
      7     -13.8376      1.00000
      8     -13.8210      1.00000
      9     -13.7977      1.00000
     10     -13.7913      1.00000
     11     -13.7842      1.00000
     12     -13.7663      1.00000
     13     -13.7382      1.00000
     14     -13.7346      1.00000
     15     -13.7130      1.00000
     16     -13.6962      1.00000
     17      -7.3607      1.00000
     18      -7.1657      1.00000
     19      -6.2828      1.00000
     20      -6.1258      1.00000
     21      -5.9856      1.00000
     22      -5.9149      1.00000
     23      -5.8695      1.00000
     24      -5.8308      1.00000
     25      -1.6304      1.00000
     26      -1.3960      1.00000
     27      -0.7109      1.00000
     28      -0.5297      1.00000
     29       0.0119      1.00000
     30       0.2816      1.00000
     31       0.5628      1.00000
     32       0.7689      1.00000
     33       1.1092      1.00000
     34       1.2055      1.00000
     35       1.4274      1.00000
     36       1.5146      1.00000
     37       1.5922      1.00000
     38       1.6051      1.00000
     39       1.8782      1.00000
     40       2.0461      1.00000
     41       2.1162      1.00000
     42       2.2726      1.00000
     43       2.4475      1.00000
     44       2.5699      1.00000
     45       2.7748      1.00000
     46       2.9834      1.00000
     47       3.0224      1.00000
     48       3.1914      1.00000
     49       5.9725      0.00000
     50       6.2571      0.00000
     51       6.4214      0.00000
     52       6.7693      0.00000
     53       6.8870      0.00000
     54       7.0772      0.00000
     55       7.1634      0.00000
     56       7.4342      0.00000
     57       7.6391      0.00000
     58       7.6682      0.00000
     59       7.8907      0.00000
     60       7.9328      0.00000
     61       8.0129      0.00000
     62       8.2434      0.00000
     63       8.2529      0.00000
     64       8.3260      0.00000

 k-point    46 :       0.1667    0.4000   -0.1667
  band No.  band energies     occupation 
      1     -32.3847      1.00000
      2     -32.3809      1.00000
      3     -32.3720      1.00000
      4     -32.3715      1.00000
      5     -13.9257      1.00000
      6     -13.9078      1.00000
      7     -13.8376      1.00000
      8     -13.8210      1.00000
      9     -13.7977      1.00000
     10     -13.7913      1.00000
     11     -13.7842      1.00000
     12     -13.7663      1.00000
     13     -13.7382      1.00000
     14     -13.7346      1.00000
     15     -13.7130      1.00000
     16     -13.6962      1.00000
     17      -7.3607      1.00000
     18      -7.1657      1.00000
     19      -6.2828      1.00000
     20      -6.1258      1.00000
     21      -5.9856      1.00000
     22      -5.9149      1.00000
     23      -5.8695      1.00000
     24      -5.8308      1.00000
     25      -1.6304      1.00000
     26      -1.3960      1.00000
     27      -0.7109      1.00000
     28      -0.5297      1.00000
     29       0.0119      1.00000
     30       0.2816      1.00000
     31       0.5628      1.00000
     32       0.7689      1.00000
     33       1.1092      1.00000
     34       1.2055      1.00000
     35       1.4274      1.00000
     36       1.5146      1.00000
     37       1.5922      1.00000
     38       1.6051      1.00000
     39       1.8782      1.00000
     40       2.0461      1.00000
     41       2.1162      1.00000
     42       2.2726      1.00000
     43       2.4475      1.00000
     44       2.5699      1.00000
     45       2.7748      1.00000
     46       2.9834      1.00000
     47       3.0224      1.00000
     48       3.1914      1.00000
     49       5.9725      0.00000
     50       6.2571      0.00000
     51       6.4214      0.00000
     52       6.7693      0.00000
     53       6.8870      0.00000
     54       7.0772      0.00000
     55       7.1634      0.00000
     56       7.4342      0.00000
     57       7.6391      0.00000
     58       7.6682      0.00000
     59       7.8907      0.00000
     60       7.9328      0.00000
     61       8.0129      0.00000
     62       8.2439      0.00000
     63       8.2527      0.00000
     64       8.3267      0.00000

 k-point    47 :      -0.0000    0.0000    0.3333
  band No.  band energies     occupation 
      1     -32.3855      1.00000
      2     -32.3772      1.00000
      3     -32.3732      1.00000
      4     -32.3732      1.00000
      5     -13.9423      1.00000
      6     -13.9414      1.00000
      7     -13.8987      1.00000
      8     -13.8064      1.00000
      9     -13.7739      1.00000
     10     -13.7640      1.00000
     11     -13.7487      1.00000
     12     -13.7440      1.00000
     13     -13.7436      1.00000
     14     -13.7358      1.00000
     15     -13.7217      1.00000
     16     -13.6881      1.00000
     17      -7.4339      1.00000
     18      -6.9748      1.00000
     19      -6.3791      1.00000
     20      -6.1134      1.00000
     21      -6.0023      1.00000
     22      -5.9873      1.00000
     23      -5.8660      1.00000
     24      -5.8523      1.00000
     25      -1.5707      1.00000
     26      -1.0797      1.00000
     27      -0.9343      1.00000
     28      -0.6698      1.00000
     29      -0.0434      1.00000
     30       0.2543      1.00000
     31       0.4044      1.00000
     32       1.1078      1.00000
     33       1.1887      1.00000
     34       1.2244      1.00000
     35       1.3363      1.00000
     36       1.5577      1.00000
     37       1.7583      1.00000
     38       1.7779      1.00000
     39       1.8703      1.00000
     40       2.2166      1.00000
     41       2.2836      1.00000
     42       2.3217      1.00000
     43       2.3924      1.00000
     44       2.5532      1.00000
     45       2.5844      1.00000
     46       2.7842      1.00000
     47       3.0410      1.00000
     48       3.1437      1.00000
     49       5.4296      0.00000
     50       5.4429      0.00000
     51       5.7492      0.00000
     52       6.4385      0.00000
     53       6.8968      0.00000
     54       7.1524      0.00000
     55       7.3908      0.00000
     56       7.6789      0.00000
     57       7.7387      0.00000
     58       7.8404      0.00000
     59       7.9056      0.00000
     60       8.1939      0.00000
     61       8.2419      0.00000
     62       8.3371      0.00000
     63       8.4239      0.00000
     64       8.4880      0.00000

 k-point    48 :       0.1667   -0.0000    0.3333
  band No.  band energies     occupation 
      1     -32.3855      1.00000
      2     -32.3772      1.00000
      3     -32.3732      1.00000
      4     -32.3732      1.00000
      5     -13.9423      1.00000
      6     -13.9413      1.00000
      7     -13.8985      1.00000
      8     -13.8071      1.00000
      9     -13.7739      1.00000
     10     -13.7643      1.00000
     11     -13.7488      1.00000
     12     -13.7442      1.00000
     13     -13.7439      1.00000
     14     -13.7358      1.00000
     15     -13.7217      1.00000
     16     -13.6881      1.00000
     17      -7.3836      1.00000
     18      -6.9543      1.00000
     19      -6.4391      1.00000
     20      -6.1189      1.00000
     21      -5.9958      1.00000
     22      -5.9893      1.00000
     23      -5.9007      1.00000
     24      -5.8734      1.00000
     25      -1.5137      1.00000
     26      -1.0239      1.00000
     27      -0.9324      1.00000
     28      -0.7384      1.00000
     29       0.1622      1.00000
     30       0.3103      1.00000
     31       0.4636      1.00000
     32       1.0192      1.00000
     33       1.0603      1.00000
     34       1.2378      1.00000
     35       1.4206      1.00000
     36       1.5039      1.00000
     37       1.6674      1.00000
     38       1.8127      1.00000
     39       2.0419      1.00000
     40       2.1320      1.00000
     41       2.1584      1.00000
     42       2.1939      1.00000
     43       2.3434      1.00000
     44       2.5476      1.00000
     45       2.6411      1.00000
     46       2.7451      1.00000
     47       3.0674      1.00000
     48       3.2323      1.00000
     49       5.4633      0.00000
     50       5.4657      0.00000
     51       5.7207      0.00000
     52       6.5530      0.00000
     53       6.9078      0.00000
     54       6.9507      0.00000
     55       7.1987      0.00000
     56       7.4444      0.00000
     57       7.5018      0.00000
     58       7.8220      0.00000
     59       7.8436      0.00000
     60       7.9018      0.00000
     61       8.1602      0.00000
     62       8.2766      0.00000
     63       8.4390      0.00000
     64       8.6081      0.00000

 k-point    49 :       0.3333    0.0000    0.3333
  band No.  band energies     occupation 
      1     -32.3855      1.00000
      2     -32.3772      1.00000
      3     -32.3732      1.00000
      4     -32.3732      1.00000
      5     -13.9420      1.00000
      6     -13.9410      1.00000
      7     -13.8981      1.00000
      8     -13.8084      1.00000
      9     -13.7738      1.00000
     10     -13.7648      1.00000
     11     -13.7488      1.00000
     12     -13.7446      1.00000
     13     -13.7443      1.00000
     14     -13.7357      1.00000
     15     -13.7217      1.00000
     16     -13.6881      1.00000
     17      -7.2789      1.00000
     18      -6.9416      1.00000
     19      -6.5692      1.00000
     20      -6.2064      1.00000
     21      -6.0130      1.00000
     22      -5.9432      1.00000
     23      -5.8714      1.00000
     24      -5.8638      1.00000
     25      -1.5175      1.00000
     26      -1.0772      1.00000
     27      -0.9441      1.00000
     28      -0.7497      1.00000
     29       0.3391      1.00000
     30       0.4425      1.00000
     31       0.5761      1.00000
     32       0.8500      1.00000
     33       1.0070      1.00000
     34       1.2588      1.00000
     35       1.3198      1.00000
     36       1.4670      1.00000
     37       1.5535      1.00000
     38       1.9728      1.00000
     39       2.0581      1.00000
     40       2.1015      1.00000
     41       2.2702      1.00000
     42       2.2868      1.00000
     43       2.5868      1.00000
     44       2.6386      1.00000
     45       2.6730      1.00000
     46       2.7441      1.00000
     47       2.9434      1.00000
     48       3.1683      1.00000
     49       5.5331      0.00000
     50       5.5612      0.00000
     51       5.6950      0.00000
     52       6.5194      0.00000
     53       6.7200      0.00000
     54       6.8853      0.00000
     55       6.9405      0.00000
     56       7.0265      0.00000
     57       7.2938      0.00000
     58       7.3579      0.00000
     59       7.5938      0.00000
     60       7.8705      0.00000
     61       8.0132      0.00000
     62       8.1160      0.00000
     63       8.1749      0.00000
     64       8.3762      0.00000

 k-point    50 :       0.5000   -0.0000    0.3333
  band No.  band energies     occupation 
      1     -32.3855      1.00000
      2     -32.3772      1.00000
      3     -32.3732      1.00000
      4     -32.3732      1.00000
      5     -13.9417      1.00000
      6     -13.9409      1.00000
      7     -13.8979      1.00000
      8     -13.8092      1.00000
      9     -13.7738      1.00000
     10     -13.7651      1.00000
     11     -13.7489      1.00000
     12     -13.7447      1.00000
     13     -13.7445      1.00000
     14     -13.7356      1.00000
     15     -13.7217      1.00000
     16     -13.6881      1.00000
     17      -7.2265      1.00000
     18      -6.9502      1.00000
     19      -6.6205      1.00000
     20      -6.2611      1.00000
     21      -6.0790      1.00000
     22      -5.9132      1.00000
     23      -5.8208      1.00000
     24      -5.8024      1.00000
     25      -1.5914      1.00000
     26      -1.1724      1.00000
     27      -0.9091      1.00000
     28      -0.7638      1.00000
     29       0.3837      1.00000
     30       0.4062      1.00000
     31       0.6678      1.00000
     32       0.8030      1.00000
     33       1.0043      1.00000
     34       1.2099      1.00000
     35       1.3157      1.00000
     36       1.3588      1.00000
     37       1.7716      1.00000
     38       1.9461      1.00000
     39       1.9803      1.00000
     40       2.2279      1.00000
     41       2.3674      1.00000
     42       2.4238      1.00000
     43       2.6148      1.00000
     44       2.7204      1.00000
     45       2.7630      1.00000
     46       2.7994      1.00000
     47       3.0443      1.00000
     48       3.0536      1.00000
     49       5.5892      0.00000
     50       5.6029      0.00000
     51       5.8256      0.00000
     52       6.1452      0.00000
     53       6.4128      0.00000
     54       6.6604      0.00000
     55       6.7718      0.00000
     56       6.8557      0.00000
     57       7.0601      0.00000
     58       7.4421      0.00000
     59       7.5983      0.00000
     60       7.6953      0.00000
     61       8.0768      0.00000
     62       8.1291      0.00000
     63       8.2507      0.00000
     64       8.3335      0.00000

 k-point    51 :      -0.3333    0.0000    0.3333
  band No.  band energies     occupation 
      1     -32.3855      1.00000
      2     -32.3772      1.00000
      3     -32.3732      1.00000
      4     -32.3732      1.00000
      5     -13.9418      1.00000
      6     -13.9410      1.00000
      7     -13.8980      1.00000
      8     -13.8085      1.00000
      9     -13.7738      1.00000
     10     -13.7649      1.00000
     11     -13.7489      1.00000
     12     -13.7445      1.00000
     13     -13.7443      1.00000
     14     -13.7357      1.00000
     15     -13.7217      1.00000
     16     -13.6881      1.00000
     17      -7.3029      1.00000
     18      -6.9705      1.00000
     19      -6.5332      1.00000
     20      -6.2617      1.00000
     21      -6.0609      1.00000
     22      -5.8891      1.00000
     23      -5.8257      1.00000
     24      -5.7850      1.00000
     25      -1.6538      1.00000
     26      -1.1597      1.00000
     27      -0.8876      1.00000
     28      -0.7825      1.00000
     29       0.1097      1.00000
     30       0.2860      1.00000
     31       0.6301      1.00000
     32       0.8794      1.00000
     33       1.0272      1.00000
     34       1.3257      1.00000
     35       1.3286      1.00000
     36       1.5233      1.00000
     37       1.8173      1.00000
     38       1.8556      1.00000
     39       1.9516      1.00000
     40       2.2718      1.00000
     41       2.4028      1.00000
     42       2.4824      1.00000
     43       2.6892      1.00000
     44       2.7403      1.00000
     45       2.7500      1.00000
     46       2.7924      1.00000
     47       2.9994      1.00000
     48       3.0444      1.00000
     49       5.4547      0.00000
     50       5.4919      0.00000
     51       5.8756      0.00000
     52       6.3666      0.00000
     53       6.4678      0.00000
     54       6.7450      0.00000
     55       6.7557      0.00000
     56       6.8889      0.00000
     57       6.9416      0.00000
     58       7.4426      0.00000
     59       7.6393      0.00000
     60       7.7668      0.00000
     61       8.1713      0.00000
     62       8.1794      0.00000
     63       8.2266      0.00000
     64       8.3697      0.00000

 k-point    52 :      -0.1667    0.0000    0.3333
  band No.  band energies     occupation 
      1     -32.3855      1.00000
      2     -32.3772      1.00000
      3     -32.3732      1.00000
      4     -32.3732      1.00000
      5     -13.9421      1.00000
      6     -13.9413      1.00000
      7     -13.8984      1.00000
      8     -13.8072      1.00000
      9     -13.7739      1.00000
     10     -13.7643      1.00000
     11     -13.7488      1.00000
     12     -13.7441      1.00000
     13     -13.7439      1.00000
     14     -13.7358      1.00000
     15     -13.7217      1.00000
     16     -13.6881      1.00000
     17      -7.4001      1.00000
     18      -6.9825      1.00000
     19      -6.4314      1.00000
     20      -6.2065      1.00000
     21      -5.9534      1.00000
     22      -5.9215      1.00000
     23      -5.8981      1.00000
     24      -5.8039      1.00000
     25      -1.6386      1.00000
     26      -1.0623      1.00000
     27      -1.0099      1.00000
     28      -0.6491      1.00000
     29      -0.1455      1.00000
     30       0.2538      1.00000
     31       0.4991      1.00000
     32       1.0717      1.00000
     33       1.0833      1.00000
     34       1.2881      1.00000
     35       1.3139      1.00000
     36       1.5576      1.00000
     37       1.8062      1.00000
     38       1.8077      1.00000
     39       2.0243      1.00000
     40       2.2502      1.00000
     41       2.3597      1.00000
     42       2.3811      1.00000
     43       2.6206      1.00000
     44       2.6454      1.00000
     45       2.7565      1.00000
     46       2.7784      1.00000
     47       2.9510      1.00000
     48       2.9732      1.00000
     49       5.4311      0.00000
     50       5.4539      0.00000
     51       5.7678      0.00000
     52       6.4634      0.00000
     53       6.7625      0.00000
     54       6.7985      0.00000
     55       7.2195      0.00000
     56       7.3260      0.00000
     57       7.4401      0.00000
     58       7.6804      0.00000
     59       7.7167      0.00000
     60       7.9938      0.00000
     61       8.2079      0.00000
     62       8.2410      0.00000
     63       8.4052      0.00000
     64       8.4392      0.00000

 k-point    53 :      -0.0000    0.2000    0.3333
  band No.  band energies     occupation 
      1     -32.3847      1.00000
      2     -32.3775      1.00000
      3     -32.3744      1.00000
      4     -32.3727      1.00000
      5     -13.9374      1.00000
      6     -13.9185      1.00000
      7     -13.8973      1.00000
      8     -13.8019      1.00000
      9     -13.7829      1.00000
     10     -13.7669      1.00000
     11     -13.7594      1.00000
     12     -13.7514      1.00000
     13     -13.7444      1.00000
     14     -13.7386      1.00000
     15     -13.7196      1.00000
     16     -13.6925      1.00000
     17      -7.3895      1.00000
     18      -7.0061      1.00000
     19      -6.4150      1.00000
     20      -6.1710      1.00000
     21      -5.9957      1.00000
     22      -5.9273      1.00000
     23      -5.8628      1.00000
     24      -5.8528      1.00000
     25      -1.4925      1.00000
     26      -1.0608      1.00000
     27      -0.9147      1.00000
     28      -0.5864      1.00000
     29      -0.0563      1.00000
     30       0.3096      1.00000
     31       0.4218      1.00000
     32       0.8521      1.00000
     33       1.0755      1.00000
     34       1.2970      1.00000
     35       1.3948      1.00000
     36       1.5397      1.00000
     37       1.7692      1.00000
     38       1.8139      1.00000
     39       1.8470      1.00000
     40       2.1081      1.00000
     41       2.2101      1.00000
     42       2.2645      1.00000
     43       2.3724      1.00000
     44       2.4997      1.00000
     45       2.6805      1.00000
     46       2.7284      1.00000
     47       2.8617      1.00000
     48       3.2423      1.00000
     49       5.3886      0.00000
     50       5.8248      0.00000
     51       6.0443      0.00000
     52       6.5352      0.00000
     53       6.8512      0.00000
     54       7.1439      0.00000
     55       7.3900      0.00000
     56       7.6514      0.00000
     57       7.7156      0.00000
     58       7.8146      0.00000
     59       7.9360      0.00000
     60       8.1634      0.00000
     61       8.2588      0.00000
     62       8.3383      0.00000
     63       8.4206      0.00000
     64       8.5500      0.00000

 k-point    54 :       0.0000    0.2000   -0.3333
  band No.  band energies     occupation 
      1     -32.3847      1.00000
      2     -32.3775      1.00000
      3     -32.3744      1.00000
      4     -32.3727      1.00000
      5     -13.9374      1.00000
      6     -13.9185      1.00000
      7     -13.8973      1.00000
      8     -13.8019      1.00000
      9     -13.7829      1.00000
     10     -13.7669      1.00000
     11     -13.7594      1.00000
     12     -13.7514      1.00000
     13     -13.7444      1.00000
     14     -13.7386      1.00000
     15     -13.7196      1.00000
     16     -13.6925      1.00000
     17      -7.3895      1.00000
     18      -7.0061      1.00000
     19      -6.4150      1.00000
     20      -6.1710      1.00000
     21      -5.9958      1.00000
     22      -5.9273      1.00000
     23      -5.8628      1.00000
     24      -5.8528      1.00000
     25      -1.4925      1.00000
     26      -1.0608      1.00000
     27      -0.9147      1.00000
     28      -0.5864      1.00000
     29      -0.0563      1.00000
     30       0.3096      1.00000
     31       0.4218      1.00000
     32       0.8521      1.00000
     33       1.0755      1.00000
     34       1.2970      1.00000
     35       1.3948      1.00000
     36       1.5397      1.00000
     37       1.7692      1.00000
     38       1.8139      1.00000
     39       1.8470      1.00000
     40       2.1081      1.00000
     41       2.2101      1.00000
     42       2.2645      1.00000
     43       2.3724      1.00000
     44       2.4997      1.00000
     45       2.6805      1.00000
     46       2.7284      1.00000
     47       2.8617      1.00000
     48       3.2423      1.00000
     49       5.3886      0.00000
     50       5.8248      0.00000
     51       6.0443      0.00000
     52       6.5352      0.00000
     53       6.8512      0.00000
     54       7.1439      0.00000
     55       7.3900      0.00000
     56       7.6514      0.00000
     57       7.7156      0.00000
     58       7.8146      0.00000
     59       7.9360      0.00000
     60       8.1634      0.00000
     61       8.2588      0.00000
     62       8.3383      0.00000
     63       8.4206      0.00000
     64       8.5515      0.00000

 k-point    55 :       0.1667    0.2000    0.3333
  band No.  band energies     occupation 
      1     -32.3847      1.00000
      2     -32.3775      1.00000
      3     -32.3744      1.00000
      4     -32.3727      1.00000
      5     -13.9373      1.00000
      6     -13.9185      1.00000
      7     -13.8971      1.00000
      8     -13.8025      1.00000
      9     -13.7828      1.00000
     10     -13.7670      1.00000
     11     -13.7596      1.00000
     12     -13.7517      1.00000
     13     -13.7444      1.00000
     14     -13.7387      1.00000
     15     -13.7196      1.00000
     16     -13.6925      1.00000
     17      -7.3413      1.00000
     18      -6.9858      1.00000
     19      -6.4456      1.00000
     20      -6.1947      1.00000
     21      -6.0066      1.00000
     22      -5.9440      1.00000
     23      -5.8948      1.00000
     24      -5.8521      1.00000
     25      -1.4526      1.00000
     26      -1.0718      1.00000
     27      -0.8746      1.00000
     28      -0.6101      1.00000
     29       0.1653      1.00000
     30       0.3280      1.00000
     31       0.4779      1.00000
     32       0.8453      1.00000
     33       1.0721      1.00000
     34       1.2416      1.00000
     35       1.3441      1.00000
     36       1.4633      1.00000
     37       1.6952      1.00000
     38       1.8396      1.00000
     39       1.9570      1.00000
     40       2.0988      1.00000
     41       2.1358      1.00000
     42       2.2579      1.00000
     43       2.3596      1.00000
     44       2.5505      1.00000
     45       2.6397      1.00000
     46       2.7020      1.00000
     47       2.8775      1.00000
     48       3.1429      1.00000
     49       5.4005      0.00000
     50       5.8120      0.00000
     51       6.0217      0.00000
     52       6.6873      0.00000
     53       6.7537      0.00000
     54       6.9199      0.00000
     55       7.1094      0.00000
     56       7.4228      0.00000
     57       7.6381      0.00000
     58       7.7384      0.00000
     59       7.9586      0.00000
     60       8.1599      0.00000
     61       8.2179      0.00000
     62       8.4742      0.00000
     63       8.5067      0.00000
     64       8.5390      0.00000

 k-point    56 :      -0.1667    0.2000   -0.3333
  band No.  band energies     occupation 
      1     -32.3847      1.00000
      2     -32.3775      1.00000
      3     -32.3744      1.00000
      4     -32.3727      1.00000
      5     -13.9373      1.00000
      6     -13.9185      1.00000
      7     -13.8971      1.00000
      8     -13.8025      1.00000
      9     -13.7828      1.00000
     10     -13.7670      1.00000
     11     -13.7596      1.00000
     12     -13.7517      1.00000
     13     -13.7444      1.00000
     14     -13.7387      1.00000
     15     -13.7196      1.00000
     16     -13.6925      1.00000
     17      -7.3413      1.00000
     18      -6.9858      1.00000
     19      -6.4456      1.00000
     20      -6.1947      1.00000
     21      -6.0066      1.00000
     22      -5.9440      1.00000
     23      -5.8948      1.00000
     24      -5.8521      1.00000
     25      -1.4526      1.00000
     26      -1.0718      1.00000
     27      -0.8746      1.00000
     28      -0.6101      1.00000
     29       0.1653      1.00000
     30       0.3280      1.00000
     31       0.4779      1.00000
     32       0.8453      1.00000
     33       1.0721      1.00000
     34       1.2416      1.00000
     35       1.3441      1.00000
     36       1.4633      1.00000
     37       1.6952      1.00000
     38       1.8396      1.00000
     39       1.9570      1.00000
     40       2.0988      1.00000
     41       2.1358      1.00000
     42       2.2579      1.00000
     43       2.3596      1.00000
     44       2.5505      1.00000
     45       2.6397      1.00000
     46       2.7020      1.00000
     47       2.8775      1.00000
     48       3.1429      1.00000
     49       5.4005      0.00000
     50       5.8120      0.00000
     51       6.0217      0.00000
     52       6.6873      0.00000
     53       6.7537      0.00000
     54       6.9199      0.00000
     55       7.1094      0.00000
     56       7.4228      0.00000
     57       7.6381      0.00000
     58       7.7384      0.00000
     59       7.9586      0.00000
     60       8.1599      0.00000
     61       8.2179      0.00000
     62       8.4742      0.00000
     63       8.5066      0.00000
     64       8.5390      0.00000

 k-point    57 :       0.3333    0.2000    0.3333
  band No.  band energies     occupation 
      1     -32.3847      1.00000
      2     -32.3775      1.00000
      3     -32.3744      1.00000
      4     -32.3727      1.00000
      5     -13.9370      1.00000
      6     -13.9182      1.00000
      7     -13.8968      1.00000
      8     -13.8037      1.00000
      9     -13.7828      1.00000
     10     -13.7672      1.00000
     11     -13.7600      1.00000
     12     -13.7523      1.00000
     13     -13.7444      1.00000
     14     -13.7389      1.00000
     15     -13.7196      1.00000
     16     -13.6925      1.00000
     17      -7.2479      1.00000
     18      -6.9771      1.00000
     19      -6.5305      1.00000
     20      -6.2280      1.00000
     21      -6.0161      1.00000
     22      -5.9705      1.00000
     23      -5.9142      1.00000
     24      -5.8174      1.00000
     25      -1.4615      1.00000
     26      -1.1680      1.00000
     27      -0.7957      1.00000
     28      -0.6776      1.00000
     29       0.3655      1.00000
     30       0.4835      1.00000
     31       0.5416      1.00000
     32       0.8540      1.00000
     33       0.9251      1.00000
     34       1.2336      1.00000
     35       1.3131      1.00000
     36       1.3999      1.00000
     37       1.6666      1.00000
     38       1.8921      1.00000
     39       1.9775      1.00000
     40       2.1128      1.00000
     41       2.2204      1.00000
     42       2.2982      1.00000
     43       2.5510      1.00000
     44       2.5800      1.00000
     45       2.6884      1.00000
     46       2.7394      1.00000
     47       2.8147      1.00000
     48       3.0332      1.00000
     49       5.4906      0.00000
     50       5.7835      0.00000
     51       5.9690      0.00000
     52       6.6264      0.00000
     53       6.7334      0.00000
     54       6.8274      0.00000
     55       6.9762      0.00000
     56       7.0542      0.00000
     57       7.1707      0.00000
     58       7.4660      0.00000
     59       7.7194      0.00000
     60       7.7606      0.00000
     61       8.1357      0.00000
     62       8.3757      0.00000
     63       8.4383      0.00000
     64       8.5079      0.00000

 k-point    58 :      -0.3333    0.2000   -0.3333
  band No.  band energies     occupation 
      1     -32.3847      1.00000
      2     -32.3775      1.00000
      3     -32.3744      1.00000
      4     -32.3727      1.00000
      5     -13.9370      1.00000
      6     -13.9182      1.00000
      7     -13.8968      1.00000
      8     -13.8037      1.00000
      9     -13.7828      1.00000
     10     -13.7672      1.00000
     11     -13.7600      1.00000
     12     -13.7523      1.00000
     13     -13.7444      1.00000
     14     -13.7389      1.00000
     15     -13.7196      1.00000
     16     -13.6925      1.00000
     17      -7.2479      1.00000
     18      -6.9771      1.00000
     19      -6.5305      1.00000
     20      -6.2280      1.00000
     21      -6.0161      1.00000
     22      -5.9705      1.00000
     23      -5.9142      1.00000
     24      -5.8174      1.00000
     25      -1.4615      1.00000
     26      -1.1680      1.00000
     27      -0.7957      1.00000
     28      -0.6776      1.00000
     29       0.3655      1.00000
     30       0.4835      1.00000
     31       0.5416      1.00000
     32       0.8540      1.00000
     33       0.9251      1.00000
     34       1.2336      1.00000
     35       1.3131      1.00000
     36       1.3999      1.00000
     37       1.6665      1.00000
     38       1.8921      1.00000
     39       1.9775      1.00000
     40       2.1128      1.00000
     41       2.2204      1.00000
     42       2.2982      1.00000
     43       2.5510      1.00000
     44       2.5800      1.00000
     45       2.6884      1.00000
     46       2.7394      1.00000
     47       2.8147      1.00000
     48       3.0332      1.00000
     49       5.4906      0.00000
     50       5.7835      0.00000
     51       5.9690      0.00000
     52       6.6264      0.00000
     53       6.7334      0.00000
     54       6.8274      0.00000
     55       6.9762      0.00000
     56       7.0542      0.00000
     57       7.1707      0.00000
     58       7.4660      0.00000
     59       7.7194      0.00000
     60       7.7606      0.00000
     61       8.1357      0.00000
     62       8.3757      0.00000
     63       8.4383      0.00000
     64       8.5081      0.00000

 k-point    59 :       0.5000    0.2000    0.3333
  band No.  band energies     occupation 
      1     -32.3847      1.00000
      2     -32.3775      1.00000
      3     -32.3744      1.00000
      4     -32.3727      1.00000
      5     -13.9369      1.00000
      6     -13.9180      1.00000
      7     -13.8965      1.00000
      8     -13.8044      1.00000
      9     -13.7828      1.00000
     10     -13.7672      1.00000
     11     -13.7602      1.00000
     12     -13.7526      1.00000
     13     -13.7445      1.00000
     14     -13.7390      1.00000
     15     -13.7196      1.00000
     16     -13.6925      1.00000
     17      -7.2060      1.00000
     18      -6.9904      1.00000
     19      -6.5561      1.00000
     20      -6.2611      1.00000
     21      -6.0810      1.00000
     22      -5.9074      1.00000
     23      -5.8811      1.00000
     24      -5.8104      1.00000
     25      -1.5218      1.00000
     26      -1.2149      1.00000
     27      -0.8034      1.00000
     28      -0.7162      1.00000
     29       0.3968      1.00000
     30       0.4423      1.00000
     31       0.6733      1.00000
     32       0.7716      1.00000
     33       0.9944      1.00000
     34       1.1553      1.00000
     35       1.2961      1.00000
     36       1.3999      1.00000
     37       1.7962      1.00000
     38       1.9086      1.00000
     39       1.9814      1.00000
     40       2.1766      1.00000
     41       2.2305      1.00000
     42       2.3191      1.00000
     43       2.5514      1.00000
     44       2.7475      1.00000
     45       2.7585      1.00000
     46       2.8030      1.00000
     47       2.8610      1.00000
     48       3.0175      1.00000
     49       5.6182      0.00000
     50       5.7479      0.00000
     51       6.0495      0.00000
     52       6.2945      0.00000
     53       6.5968      0.00000
     54       6.7296      0.00000
     55       6.8221      0.00000
     56       6.8580      0.00000
     57       7.0579      0.00000
     58       7.4516      0.00000
     59       7.5714      0.00000
     60       7.7611      0.00000
     61       7.8690      0.00000
     62       8.2239      0.00000
     63       8.2640      0.00000
     64       8.4787      0.00000

 k-point    60 :       0.5000    0.2000   -0.3333
  band No.  band energies     occupation 
      1     -32.3847      1.00000
      2     -32.3775      1.00000
      3     -32.3744      1.00000
      4     -32.3727      1.00000
      5     -13.9369      1.00000
      6     -13.9180      1.00000
      7     -13.8965      1.00000
      8     -13.8044      1.00000
      9     -13.7828      1.00000
     10     -13.7672      1.00000
     11     -13.7602      1.00000
     12     -13.7526      1.00000
     13     -13.7445      1.00000
     14     -13.7390      1.00000
     15     -13.7196      1.00000
     16     -13.6925      1.00000
     17      -7.2060      1.00000
     18      -6.9904      1.00000
     19      -6.5561      1.00000
     20      -6.2611      1.00000
     21      -6.0810      1.00000
     22      -5.9074      1.00000
     23      -5.8811      1.00000
     24      -5.8104      1.00000
     25      -1.5218      1.00000
     26      -1.2149      1.00000
     27      -0.8034      1.00000
     28      -0.7162      1.00000
     29       0.3968      1.00000
     30       0.4423      1.00000
     31       0.6733      1.00000
     32       0.7716      1.00000
     33       0.9944      1.00000
     34       1.1553      1.00000
     35       1.2961      1.00000
     36       1.3999      1.00000
     37       1.7962      1.00000
     38       1.9086      1.00000
     39       1.9814      1.00000
     40       2.1766      1.00000
     41       2.2305      1.00000
     42       2.3191      1.00000
     43       2.5514      1.00000
     44       2.7475      1.00000
     45       2.7585      1.00000
     46       2.8030      1.00000
     47       2.8610      1.00000
     48       3.0175      1.00000
     49       5.6182      0.00000
     50       5.7479      0.00000
     51       6.0495      0.00000
     52       6.2945      0.00000
     53       6.5968      0.00000
     54       6.7296      0.00000
     55       6.8221      0.00000
     56       6.8580      0.00000
     57       7.0579      0.00000
     58       7.4516      0.00000
     59       7.5714      0.00000
     60       7.7611      0.00000
     61       7.8690      0.00000
     62       8.2239      0.00000
     63       8.2640      0.00000
     64       8.4825      0.00000

 k-point    61 :      -0.3333    0.2000    0.3333
  band No.  band energies     occupation 
      1     -32.3847      1.00000
      2     -32.3775      1.00000
      3     -32.3744      1.00000
      4     -32.3727      1.00000
      5     -13.9370      1.00000
      6     -13.9181      1.00000
      7     -13.8967      1.00000
      8     -13.8038      1.00000
      9     -13.7829      1.00000
     10     -13.7671      1.00000
     11     -13.7600      1.00000
     12     -13.7523      1.00000
     13     -13.7445      1.00000
     14     -13.7389      1.00000
     15     -13.7196      1.00000
     16     -13.6925      1.00000
     17      -7.2754      1.00000
     18      -7.0071      1.00000
     19      -6.4984      1.00000
     20      -6.2448      1.00000
     21      -6.0614      1.00000
     22      -5.8959      1.00000
     23      -5.8518      1.00000
     24      -5.8152      1.00000
     25      -1.5723      1.00000
     26      -1.1754      1.00000
     27      -0.8233      1.00000
     28      -0.7376      1.00000
     29       0.1489      1.00000
     30       0.3309      1.00000
     31       0.6569      1.00000
     32       0.8373      1.00000
     33       0.9951      1.00000
     34       1.2742      1.00000
     35       1.2939      1.00000
     36       1.5068      1.00000
     37       1.7585      1.00000
     38       1.8326      1.00000
     39       1.9178      1.00000
     40       2.1399      1.00000
     41       2.2851      1.00000
     42       2.5249      1.00000
     43       2.5975      1.00000
     44       2.6745      1.00000
     45       2.8237      1.00000
     46       2.8426      1.00000
     47       2.9229      1.00000
     48       3.0016      1.00000
     49       5.4915      0.00000
     50       5.7371      0.00000
     51       6.0670      0.00000
     52       6.4936      0.00000
     53       6.5954      0.00000
     54       6.7384      0.00000
     55       6.8709      0.00000
     56       6.9667      0.00000
     57       7.0669      0.00000
     58       7.4181      0.00000
     59       7.6111      0.00000
     60       7.7810      0.00000
     61       8.1239      0.00000
     62       8.2065      0.00000
     63       8.2558      0.00000
     64       8.3684      0.00000

 k-point    62 :       0.3333    0.2000   -0.3333
  band No.  band energies     occupation 
      1     -32.3847      1.00000
      2     -32.3775      1.00000
      3     -32.3744      1.00000
      4     -32.3727      1.00000
      5     -13.9370      1.00000
      6     -13.9181      1.00000
      7     -13.8967      1.00000
      8     -13.8038      1.00000
      9     -13.7829      1.00000
     10     -13.7671      1.00000
     11     -13.7600      1.00000
     12     -13.7523      1.00000
     13     -13.7445      1.00000
     14     -13.7389      1.00000
     15     -13.7196      1.00000
     16     -13.6925      1.00000
     17      -7.2754      1.00000
     18      -7.0071      1.00000
     19      -6.4984      1.00000
     20      -6.2448      1.00000
     21      -6.0614      1.00000
     22      -5.8959      1.00000
     23      -5.8518      1.00000
     24      -5.8152      1.00000
     25      -1.5723      1.00000
     26      -1.1754      1.00000
     27      -0.8233      1.00000
     28      -0.7376      1.00000
     29       0.1489      1.00000
     30       0.3309      1.00000
     31       0.6569      1.00000
     32       0.8373      1.00000
     33       0.9951      1.00000
     34       1.2742      1.00000
     35       1.2939      1.00000
     36       1.5068      1.00000
     37       1.7585      1.00000
     38       1.8326      1.00000
     39       1.9178      1.00000
     40       2.1399      1.00000
     41       2.2851      1.00000
     42       2.5249      1.00000
     43       2.5975      1.00000
     44       2.6745      1.00000
     45       2.8237      1.00000
     46       2.8426      1.00000
     47       2.9229      1.00000
     48       3.0016      1.00000
     49       5.4915      0.00000
     50       5.7371      0.00000
     51       6.0670      0.00000
     52       6.4936      0.00000
     53       6.5954      0.00000
     54       6.7384      0.00000
     55       6.8709      0.00000
     56       6.9667      0.00000
     57       7.0669      0.00000
     58       7.4181      0.00000
     59       7.6111      0.00000
     60       7.7810      0.00000
     61       8.1239      0.00000
     62       8.2065      0.00000
     63       8.2558      0.00000
     64       8.3685      0.00000

 k-point    63 :      -0.1667    0.2000    0.3333
  band No.  band energies     occupation 
      1     -32.3847      1.00000
      2     -32.3775      1.00000
      3     -32.3744      1.00000
      4     -32.3727      1.00000
      5     -13.9372      1.00000
      6     -13.9183      1.00000
      7     -13.8971      1.00000
      8     -13.8025      1.00000
      9     -13.7829      1.00000
     10     -13.7669      1.00000
     11     -13.7596      1.00000
     12     -13.7517      1.00000
     13     -13.7444      1.00000
     14     -13.7387      1.00000
     15     -13.7196      1.00000
     16     -13.6925      1.00000
     17      -7.3615      1.00000
     18      -7.0155      1.00000
     19      -6.4468      1.00000
     20      -6.1856      1.00000
     21      -5.9931      1.00000
     22      -5.9258      1.00000
     23      -5.8693      1.00000
     24      -5.8159      1.00000
     25      -1.5540      1.00000
     26      -1.0975      1.00000
     27      -0.9094      1.00000
     28      -0.6313      1.00000
     29      -0.0996      1.00000
     30       0.3099      1.00000
     31       0.5331      1.00000
     32       0.8513      1.00000
     33       1.0601      1.00000
     34       1.2735      1.00000
     35       1.3416      1.00000
     36       1.6145      1.00000
     37       1.7483      1.00000
     38       1.7957      1.00000
     39       1.8765      1.00000
     40       2.0801      1.00000
     41       2.2965      1.00000
     42       2.4465      1.00000
     43       2.4826      1.00000
     44       2.5755      1.00000
     45       2.7589      1.00000
     46       2.8215      1.00000
     47       2.9344      1.00000
     48       3.0986      1.00000
     49       5.4123      0.00000
     50       5.7975      0.00000
     51       6.0243      0.00000
     52       6.5635      0.00000
     53       6.7957      0.00000
     54       6.9272      0.00000
     55       7.1082      0.00000
     56       7.3871      0.00000
     57       7.5456      0.00000
     58       7.6549      0.00000
     59       7.7734      0.00000
     60       8.0165      0.00000
     61       8.0955      0.00000
     62       8.2263      0.00000
     63       8.3071      0.00000
     64       8.4050      0.00000

 k-point    64 :       0.1667    0.2000   -0.3333
  band No.  band energies     occupation 
      1     -32.3847      1.00000
      2     -32.3775      1.00000
      3     -32.3744      1.00000
      4     -32.3727      1.00000
      5     -13.9372      1.00000
      6     -13.9183      1.00000
      7     -13.8971      1.00000
      8     -13.8025      1.00000
      9     -13.7829      1.00000
     10     -13.7669      1.00000
     11     -13.7596      1.00000
     12     -13.7517      1.00000
     13     -13.7444      1.00000
     14     -13.7387      1.00000
     15     -13.7196      1.00000
     16     -13.6925      1.00000
     17      -7.3615      1.00000
     18      -7.0155      1.00000
     19      -6.4468      1.00000
     20      -6.1856      1.00000
     21      -5.9931      1.00000
     22      -5.9258      1.00000
     23      -5.8693      1.00000
     24      -5.8159      1.00000
     25      -1.5540      1.00000
     26      -1.0975      1.00000
     27      -0.9094      1.00000
     28      -0.6313      1.00000
     29      -0.0996      1.00000
     30       0.3099      1.00000
     31       0.5331      1.00000
     32       0.8513      1.00000
     33       1.0601      1.00000
     34       1.2735      1.00000
     35       1.3416      1.00000
     36       1.6145      1.00000
     37       1.7483      1.00000
     38       1.7957      1.00000
     39       1.8765      1.00000
     40       2.0801      1.00000
     41       2.2965      1.00000
     42       2.4465      1.00000
     43       2.4826      1.00000
     44       2.5755      1.00000
     45       2.7589      1.00000
     46       2.8215      1.00000
     47       2.9344      1.00000
     48       3.0986      1.00000
     49       5.4123      0.00000
     50       5.7975      0.00000
     51       6.0243      0.00000
     52       6.5635      0.00000
     53       6.7957      0.00000
     54       6.9272      0.00000
     55       7.1082      0.00000
     56       7.3871      0.00000
     57       7.5456      0.00000
     58       7.6549      0.00000
     59       7.7734      0.00000
     60       8.0165      0.00000
     61       8.0955      0.00000
     62       8.2263      0.00000
     63       8.3071      0.00000
     64       8.4048      0.00000

 k-point    65 :      -0.0000    0.4000    0.3333
  band No.  band energies     occupation 
      1     -32.3823      1.00000
      2     -32.3794      1.00000
      3     -32.3742      1.00000
      4     -32.3732      1.00000
      5     -13.9157      1.00000
      6     -13.8995      1.00000
      7     -13.8713      1.00000
      8     -13.8177      1.00000
      9     -13.7891      1.00000
     10     -13.7786      1.00000
     11     -13.7729      1.00000
     12     -13.7662      1.00000
     13     -13.7491      1.00000
     14     -13.7427      1.00000
     15     -13.7104      1.00000
     16     -13.7010      1.00000
     17      -7.2693      1.00000
     18      -7.1168      1.00000
     19      -6.4046      1.00000
     20      -6.3021      1.00000
     21      -5.9324      1.00000
     22      -5.9011      1.00000
     23      -5.8573      1.00000
     24      -5.8541      1.00000
     25      -1.3051      1.00000
     26      -1.1282      1.00000
     27      -0.7514      1.00000
     28      -0.5733      1.00000
     29       0.0186      1.00000
     30       0.2660      1.00000
     31       0.5686      1.00000
     32       0.6883      1.00000
     33       0.9477      1.00000
     34       1.0999      1.00000
     35       1.4255      1.00000
     36       1.5316      1.00000
     37       1.6234      1.00000
     38       1.7837      1.00000
     39       1.8554      1.00000
     40       1.9065      1.00000
     41       2.1860      1.00000
     42       2.2279      1.00000
     43       2.4057      1.00000
     44       2.5791      1.00000
     45       2.6269      1.00000
     46       2.7865      1.00000
     47       2.8443      1.00000
     48       3.0825      1.00000
     49       5.6273      0.00000
     50       6.1117      0.00000
     51       6.3843      0.00000
     52       6.7825      0.00000
     53       6.8988      0.00000
     54       7.1633      0.00000
     55       7.4278      0.00000
     56       7.6051      0.00000
     57       7.7580      0.00000
     58       7.8222      0.00000
     59       7.9317      0.00000
     60       8.0375      0.00000
     61       8.1774      0.00000
     62       8.3212      0.00000
     63       8.3814      0.00000
     64       8.5336      0.00000

 k-point    66 :       0.0000    0.4000   -0.3333
  band No.  band energies     occupation 
      1     -32.3823      1.00000
      2     -32.3794      1.00000
      3     -32.3742      1.00000
      4     -32.3732      1.00000
      5     -13.9157      1.00000
      6     -13.8995      1.00000
      7     -13.8713      1.00000
      8     -13.8177      1.00000
      9     -13.7891      1.00000
     10     -13.7786      1.00000
     11     -13.7729      1.00000
     12     -13.7662      1.00000
     13     -13.7491      1.00000
     14     -13.7427      1.00000
     15     -13.7104      1.00000
     16     -13.7010      1.00000
     17      -7.2693      1.00000
     18      -7.1168      1.00000
     19      -6.4046      1.00000
     20      -6.3021      1.00000
     21      -5.9324      1.00000
     22      -5.9011      1.00000
     23      -5.8573      1.00000
     24      -5.8541      1.00000
     25      -1.3051      1.00000
     26      -1.1282      1.00000
     27      -0.7514      1.00000
     28      -0.5733      1.00000
     29       0.0186      1.00000
     30       0.2660      1.00000
     31       0.5686      1.00000
     32       0.6883      1.00000
     33       0.9477      1.00000
     34       1.0999      1.00000
     35       1.4255      1.00000
     36       1.5316      1.00000
     37       1.6234      1.00000
     38       1.7837      1.00000
     39       1.8554      1.00000
     40       1.9065      1.00000
     41       2.1860      1.00000
     42       2.2279      1.00000
     43       2.4057      1.00000
     44       2.5791      1.00000
     45       2.6269      1.00000
     46       2.7865      1.00000
     47       2.8443      1.00000
     48       3.0825      1.00000
     49       5.6273      0.00000
     50       6.1117      0.00000
     51       6.3843      0.00000
     52       6.7825      0.00000
     53       6.8988      0.00000
     54       7.1633      0.00000
     55       7.4278      0.00000
     56       7.6051      0.00000
     57       7.7580      0.00000
     58       7.8222      0.00000
     59       7.9317      0.00000
     60       8.0375      0.00000
     61       8.1774      0.00000
     62       8.3212      0.00000
     63       8.3814      0.00000
     64       8.5324      0.00000

 k-point    67 :       0.1667    0.4000    0.3333
  band No.  band energies     occupation 
      1     -32.3823      1.00000
      2     -32.3794      1.00000
      3     -32.3742      1.00000
      4     -32.3732      1.00000
      5     -13.9156      1.00000
      6     -13.8993      1.00000
      7     -13.8713      1.00000
      8     -13.8178      1.00000
      9     -13.7893      1.00000
     10     -13.7787      1.00000
     11     -13.7730      1.00000
     12     -13.7664      1.00000
     13     -13.7493      1.00000
     14     -13.7429      1.00000
     15     -13.7104      1.00000
     16     -13.7010      1.00000
     17      -7.2283      1.00000
     18      -7.0881      1.00000
     19      -6.4176      1.00000
     20      -6.3240      1.00000
     21      -5.9683      1.00000
     22      -5.9441      1.00000
     23      -5.8695      1.00000
     24      -5.8411      1.00000
     25      -1.3046      1.00000
     26      -1.1602      1.00000
     27      -0.6901      1.00000
     28      -0.5319      1.00000
     29       0.1731      1.00000
     30       0.2906      1.00000
     31       0.6318      1.00000
     32       0.7323      1.00000
     33       0.9448      1.00000
     34       1.0201      1.00000
     35       1.3720      1.00000
     36       1.5000      1.00000
     37       1.6868      1.00000
     38       1.8094      1.00000
     39       1.8897      1.00000
     40       1.9102      1.00000
     41       2.2449      1.00000
     42       2.2957      1.00000
     43       2.3600      1.00000
     44       2.5036      1.00000
     45       2.5793      1.00000
     46       2.6546      1.00000
     47       2.8128      1.00000
     48       2.9382      1.00000
     49       5.6107      0.00000
     50       6.0943      0.00000
     51       6.2517      0.00000
     52       6.5615      0.00000
     53       6.9443      0.00000
     54       7.0055      0.00000
     55       7.2090      0.00000
     56       7.4816      0.00000
     57       7.5283      0.00000
     58       7.7667      0.00000
     59       8.2410      0.00000
     60       8.3080      0.00000
     61       8.4111      0.00000
     62       8.4294      0.00000
     63       8.5317      0.00000
     64       8.7252      0.00000

 k-point    68 :      -0.1667    0.4000   -0.3333
  band No.  band energies     occupation 
      1     -32.3823      1.00000
      2     -32.3794      1.00000
      3     -32.3742      1.00000
      4     -32.3732      1.00000
      5     -13.9156      1.00000
      6     -13.8993      1.00000
      7     -13.8713      1.00000
      8     -13.8178      1.00000
      9     -13.7893      1.00000
     10     -13.7787      1.00000
     11     -13.7730      1.00000
     12     -13.7664      1.00000
     13     -13.7493      1.00000
     14     -13.7429      1.00000
     15     -13.7104      1.00000
     16     -13.7010      1.00000
     17      -7.2283      1.00000
     18      -7.0881      1.00000
     19      -6.4176      1.00000
     20      -6.3240      1.00000
     21      -5.9683      1.00000
     22      -5.9441      1.00000
     23      -5.8695      1.00000
     24      -5.8411      1.00000
     25      -1.3046      1.00000
     26      -1.1602      1.00000
     27      -0.6901      1.00000
     28      -0.5319      1.00000
     29       0.1731      1.00000
     30       0.2906      1.00000
     31       0.6318      1.00000
     32       0.7323      1.00000
     33       0.9448      1.00000
     34       1.0201      1.00000
     35       1.3720      1.00000
     36       1.5000      1.00000
     37       1.6868      1.00000
     38       1.8094      1.00000
     39       1.8897      1.00000
     40       1.9102      1.00000
     41       2.2449      1.00000
     42       2.2957      1.00000
     43       2.3600      1.00000
     44       2.5036      1.00000
     45       2.5793      1.00000
     46       2.6546      1.00000
     47       2.8128      1.00000
     48       2.9382      1.00000
     49       5.6107      0.00000
     50       6.0943      0.00000
     51       6.2517      0.00000
     52       6.5615      0.00000
     53       6.9443      0.00000
     54       7.0055      0.00000
     55       7.2090      0.00000
     56       7.4816      0.00000
     57       7.5283      0.00000
     58       7.7667      0.00000
     59       8.2410      0.00000
     60       8.3080      0.00000
     61       8.4111      0.00000
     62       8.4294      0.00000
     63       8.5317      0.00000
     64       8.7258      0.00000

 k-point    69 :       0.3333    0.4000    0.3333
  band No.  band energies     occupation 
      1     -32.3823      1.00000
      2     -32.3794      1.00000
      3     -32.3742      1.00000
      4     -32.3732      1.00000
      5     -13.9153      1.00000
      6     -13.8990      1.00000
      7     -13.8711      1.00000
      8     -13.8177      1.00000
      9     -13.7901      1.00000
     10     -13.7789      1.00000
     11     -13.7733      1.00000
     12     -13.7668      1.00000
     13     -13.7497      1.00000
     14     -13.7433      1.00000
     15     -13.7104      1.00000
     16     -13.7010      1.00000
     17      -7.1661      1.00000
     18      -7.0636      1.00000
     19      -6.4340      1.00000
     20      -6.3148      1.00000
     21      -6.0204      1.00000
     22      -6.0114      1.00000
     23      -5.8827      1.00000
     24      -5.8314      1.00000
     25      -1.3393      1.00000
     26      -1.2389      1.00000
     27      -0.6468      1.00000
     28      -0.5745      1.00000
     29       0.4085      1.00000
     30       0.4968      1.00000
     31       0.6644      1.00000
     32       0.7241      1.00000
     33       0.9512      1.00000
     34       0.9678      1.00000
     35       1.2669      1.00000
     36       1.4903      1.00000
     37       1.7726      1.00000
     38       1.8613      1.00000
     39       1.9122      1.00000
     40       1.9626      1.00000
     41       2.2226      1.00000
     42       2.2881      1.00000
     43       2.3565      1.00000
     44       2.4624      1.00000
     45       2.5936      1.00000
     46       2.6628      1.00000
     47       2.8521      1.00000
     48       2.9325      1.00000
     49       5.6724      0.00000
     50       6.0622      0.00000
     51       6.1393      0.00000
     52       6.2850      0.00000
     53       6.8397      0.00000
     54       6.9703      0.00000
     55       7.0284      0.00000
     56       7.1400      0.00000
     57       7.3016      0.00000
     58       7.5097      0.00000
     59       7.9691      0.00000
     60       8.1868      0.00000
     61       8.3726      0.00000
     62       8.4466      0.00000
     63       8.5941      0.00000
     64       8.7224      0.00000

 k-point    70 :      -0.3333    0.4000   -0.3333
  band No.  band energies     occupation 
      1     -32.3823      1.00000
      2     -32.3794      1.00000
      3     -32.3742      1.00000
      4     -32.3732      1.00000
      5     -13.9153      1.00000
      6     -13.8990      1.00000
      7     -13.8711      1.00000
      8     -13.8177      1.00000
      9     -13.7901      1.00000
     10     -13.7789      1.00000
     11     -13.7733      1.00000
     12     -13.7668      1.00000
     13     -13.7497      1.00000
     14     -13.7433      1.00000
     15     -13.7104      1.00000
     16     -13.7010      1.00000
     17      -7.1661      1.00000
     18      -7.0636      1.00000
     19      -6.4340      1.00000
     20      -6.3148      1.00000
     21      -6.0204      1.00000
     22      -6.0114      1.00000
     23      -5.8827      1.00000
     24      -5.8314      1.00000
     25      -1.3393      1.00000
     26      -1.2389      1.00000
     27      -0.6468      1.00000
     28      -0.5745      1.00000
     29       0.4085      1.00000
     30       0.4968      1.00000
     31       0.6644      1.00000
     32       0.7241      1.00000
     33       0.9512      1.00000
     34       0.9678      1.00000
     35       1.2669      1.00000
     36       1.4903      1.00000
     37       1.7726      1.00000
     38       1.8613      1.00000
     39       1.9122      1.00000
     40       1.9626      1.00000
     41       2.2226      1.00000
     42       2.2881      1.00000
     43       2.3565      1.00000
     44       2.4624      1.00000
     45       2.5936      1.00000
     46       2.6628      1.00000
     47       2.8521      1.00000
     48       2.9325      1.00000
     49       5.6724      0.00000
     50       6.0622      0.00000
     51       6.1393      0.00000
     52       6.2850      0.00000
     53       6.8397      0.00000
     54       6.9703      0.00000
     55       7.0284      0.00000
     56       7.1400      0.00000
     57       7.3016      0.00000
     58       7.5097      0.00000
     59       7.9691      0.00000
     60       8.1868      0.00000
     61       8.3726      0.00000
     62       8.4466      0.00000
     63       8.5941      0.00000
     64       8.7218      0.00000

 k-point    71 :       0.5000    0.4000    0.3333
  band No.  band energies     occupation 
      1     -32.3823      1.00000
      2     -32.3794      1.00000
      3     -32.3742      1.00000
      4     -32.3732      1.00000
      5     -13.9152      1.00000
      6     -13.8989      1.00000
      7     -13.8709      1.00000
      8     -13.8175      1.00000
      9     -13.7907      1.00000
     10     -13.7790      1.00000
     11     -13.7736      1.00000
     12     -13.7670      1.00000
     13     -13.7500      1.00000
     14     -13.7435      1.00000
     15     -13.7104      1.00000
     16     -13.7010      1.00000
     17      -7.1493      1.00000
     18      -7.0702      1.00000
     19      -6.4188      1.00000
     20      -6.2985      1.00000
     21      -6.0643      1.00000
     22      -5.9900      1.00000
     23      -5.8849      1.00000
     24      -5.8496      1.00000
     25      -1.3762      1.00000
     26      -1.2711      1.00000
     27      -0.6697      1.00000
     28      -0.6392      1.00000
     29       0.4299      1.00000
     30       0.5229      1.00000
     31       0.6331      1.00000
     32       0.8288      1.00000
     33       0.8798      1.00000
     34       1.0759      1.00000
     35       1.2645      1.00000
     36       1.5344      1.00000
     37       1.7508      1.00000
     38       1.8379      1.00000
     39       1.9607      1.00000
     40       2.0060      1.00000
     41       2.1662      1.00000
     42       2.2741      1.00000
     43       2.3452      1.00000
     44       2.5437      1.00000
     45       2.6877      1.00000
     46       2.7220      1.00000
     47       2.9353      1.00000
     48       3.0153      1.00000
     49       5.8314      0.00000
     50       5.9905      0.00000
     51       6.2420      0.00000
     52       6.3091      0.00000
     53       6.6537      0.00000
     54       6.7385      0.00000
     55       6.8900      0.00000
     56       7.0585      0.00000
     57       7.1745      0.00000
     58       7.3572      0.00000
     59       7.7670      0.00000
     60       7.9615      0.00000
     61       8.1575      0.00000
     62       8.3500      0.00000
     63       8.4438      0.00000
     64       8.5088      0.00000

 k-point    72 :       0.5000    0.4000   -0.3333
  band No.  band energies     occupation 
      1     -32.3823      1.00000
      2     -32.3794      1.00000
      3     -32.3742      1.00000
      4     -32.3732      1.00000
      5     -13.9152      1.00000
      6     -13.8989      1.00000
      7     -13.8709      1.00000
      8     -13.8175      1.00000
      9     -13.7907      1.00000
     10     -13.7790      1.00000
     11     -13.7736      1.00000
     12     -13.7670      1.00000
     13     -13.7500      1.00000
     14     -13.7435      1.00000
     15     -13.7104      1.00000
     16     -13.7010      1.00000
     17      -7.1493      1.00000
     18      -7.0702      1.00000
     19      -6.4188      1.00000
     20      -6.2985      1.00000
     21      -6.0643      1.00000
     22      -5.9900      1.00000
     23      -5.8849      1.00000
     24      -5.8496      1.00000
     25      -1.3762      1.00000
     26      -1.2711      1.00000
     27      -0.6697      1.00000
     28      -0.6392      1.00000
     29       0.4299      1.00000
     30       0.5229      1.00000
     31       0.6331      1.00000
     32       0.8288      1.00000
     33       0.8798      1.00000
     34       1.0759      1.00000
     35       1.2645      1.00000
     36       1.5344      1.00000
     37       1.7508      1.00000
     38       1.8379      1.00000
     39       1.9607      1.00000
     40       2.0060      1.00000
     41       2.1662      1.00000
     42       2.2741      1.00000
     43       2.3452      1.00000
     44       2.5437      1.00000
     45       2.6877      1.00000
     46       2.7220      1.00000
     47       2.9353      1.00000
     48       3.0153      1.00000
     49       5.8314      0.00000
     50       5.9905      0.00000
     51       6.2420      0.00000
     52       6.3091      0.00000
     53       6.6537      0.00000
     54       6.7385      0.00000
     55       6.8900      0.00000
     56       7.0585      0.00000
     57       7.1745      0.00000
     58       7.3572      0.00000
     59       7.7670      0.00000
     60       7.9615      0.00000
     61       8.1575      0.00000
     62       8.3500      0.00000
     63       8.4436      0.00000
     64       8.5052      0.00000

 k-point    73 :      -0.3333    0.4000    0.3333
  band No.  band energies     occupation 
      1     -32.3823      1.00000
      2     -32.3794      1.00000
      3     -32.3742      1.00000
      4     -32.3732      1.00000
      5     -13.9153      1.00000
      6     -13.8990      1.00000
      7     -13.8709      1.00000
      8     -13.8173      1.00000
      9     -13.7904      1.00000
     10     -13.7788      1.00000
     11     -13.7735      1.00000
     12     -13.7668      1.00000
     13     -13.7498      1.00000
     14     -13.7433      1.00000
     15     -13.7104      1.00000
     16     -13.7010      1.00000
     17      -7.2000      1.00000
     18      -7.0980      1.00000
     19      -6.3979      1.00000
     20      -6.2776      1.00000
     21      -6.0270      1.00000
     22      -5.9235      1.00000
     23      -5.8916      1.00000
     24      -5.8677      1.00000
     25      -1.3894      1.00000
     26      -1.2370      1.00000
     27      -0.7140      1.00000
     28      -0.6805      1.00000
     29       0.2890      1.00000
     30       0.4858      1.00000
     31       0.5381      1.00000
     32       0.7779      1.00000
     33       0.9482      1.00000
     34       1.0774      1.00000
     35       1.2708      1.00000
     36       1.5116      1.00000
     37       1.7582      1.00000
     38       1.8220      1.00000
     39       1.8732      1.00000
     40       1.9602      1.00000
     41       2.1732      1.00000
     42       2.2390      1.00000
     43       2.5601      1.00000
     44       2.6411      1.00000
     45       2.7432      1.00000
     46       2.8148      1.00000
     47       3.0122      1.00000
     48       3.0571      1.00000
     49       5.7916      0.00000
     50       6.1065      0.00000
     51       6.2880      0.00000
     52       6.4190      0.00000
     53       6.6668      0.00000
     54       6.7426      0.00000
     55       6.9756      0.00000
     56       7.0753      0.00000
     57       7.3069      0.00000
     58       7.4222      0.00000
     59       7.8401      0.00000
     60       7.9611      0.00000
     61       8.0482      0.00000
     62       8.1905      0.00000
     63       8.2528      0.00000
     64       8.3262      0.00000

 k-point    74 :       0.3333    0.4000   -0.3333
  band No.  band energies     occupation 
      1     -32.3823      1.00000
      2     -32.3794      1.00000
      3     -32.3742      1.00000
      4     -32.3732      1.00000
      5     -13.9153      1.00000
      6     -13.8990      1.00000
      7     -13.8709      1.00000
      8     -13.8173      1.00000
      9     -13.7904      1.00000
     10     -13.7788      1.00000
     11     -13.7735      1.00000
     12     -13.7668      1.00000
     13     -13.7498      1.00000
     14     -13.7433      1.00000
     15     -13.7104      1.00000
     16     -13.7010      1.00000
     17      -7.2000      1.00000
     18      -7.0980      1.00000
     19      -6.3979      1.00000
     20      -6.2776      1.00000
     21      -6.0270      1.00000
     22      -5.9235      1.00000
     23      -5.8916      1.00000
     24      -5.8677      1.00000
     25      -1.3894      1.00000
     26      -1.2370      1.00000
     27      -0.7140      1.00000
     28      -0.6805      1.00000
     29       0.2890      1.00000
     30       0.4858      1.00000
     31       0.5381      1.00000
     32       0.7779      1.00000
     33       0.9482      1.00000
     34       1.0774      1.00000
     35       1.2708      1.00000
     36       1.5116      1.00000
     37       1.7582      1.00000
     38       1.8220      1.00000
     39       1.8732      1.00000
     40       1.9602      1.00000
     41       2.1732      1.00000
     42       2.2390      1.00000
     43       2.5601      1.00000
     44       2.6411      1.00000
     45       2.7432      1.00000
     46       2.8148      1.00000
     47       3.0122      1.00000
     48       3.0571      1.00000
     49       5.7916      0.00000
     50       6.1065      0.00000
     51       6.2880      0.00000
     52       6.4190      0.00000
     53       6.6668      0.00000
     54       6.7426      0.00000
     55       6.9756      0.00000
     56       7.0753      0.00000
     57       7.3069      0.00000
     58       7.4222      0.00000
     59       7.8401      0.00000
     60       7.9611      0.00000
     61       8.0482      0.00000
     62       8.1905      0.00000
     63       8.2527      0.00000
     64       8.3263      0.00000

 k-point    75 :      -0.1667    0.4000    0.3333
  band No.  band energies     occupation 
      1     -32.3823      1.00000
      2     -32.3794      1.00000
      3     -32.3742      1.00000
      4     -32.3732      1.00000
      5     -13.9156      1.00000
      6     -13.8993      1.00000
      7     -13.8711      1.00000
      8     -13.8175      1.00000
      9     -13.7896      1.00000
     10     -13.7786      1.00000
     11     -13.7731      1.00000
     12     -13.7664      1.00000
     13     -13.7493      1.00000
     14     -13.7429      1.00000
     15     -13.7104      1.00000
     16     -13.7010      1.00000
     17      -7.2567      1.00000
     18      -7.1210      1.00000
     19      -6.3989      1.00000
     20      -6.2739      1.00000
     21      -5.9584      1.00000
     22      -5.8916      1.00000
     23      -5.8859      1.00000
     24      -5.8527      1.00000
     25      -1.3553      1.00000
     26      -1.1743      1.00000
     27      -0.7542      1.00000
     28      -0.6504      1.00000
     29       0.0936      1.00000
     30       0.4287      1.00000
     31       0.4975      1.00000
     32       0.6596      1.00000
     33       0.9933      1.00000
     34       1.0718      1.00000
     35       1.3512      1.00000
     36       1.4940      1.00000
     37       1.7116      1.00000
     38       1.8058      1.00000
     39       1.8391      1.00000
     40       1.9161      1.00000
     41       2.1592      1.00000
     42       2.1939      1.00000
     43       2.4945      1.00000
     44       2.6552      1.00000
     45       2.7789      1.00000
     46       2.8513      1.00000
     47       2.9714      1.00000
     48       3.1249      1.00000
     49       5.6698      0.00000
     50       6.1299      0.00000
     51       6.3550      0.00000
     52       6.5886      0.00000
     53       6.9501      0.00000
     54       7.0326      0.00000
     55       7.2174      0.00000
     56       7.3239      0.00000
     57       7.4644      0.00000
     58       7.6147      0.00000
     59       7.8942      0.00000
     60       8.0243      0.00000
     61       8.0869      0.00000
     62       8.1817      0.00000
     63       8.2578      0.00000
     64       8.3934      0.00000

 k-point    76 :       0.1667    0.4000   -0.3333
  band No.  band energies     occupation 
      1     -32.3823      1.00000
      2     -32.3794      1.00000
      3     -32.3742      1.00000
      4     -32.3732      1.00000
      5     -13.9156      1.00000
      6     -13.8993      1.00000
      7     -13.8711      1.00000
      8     -13.8175      1.00000
      9     -13.7896      1.00000
     10     -13.7786      1.00000
     11     -13.7731      1.00000
     12     -13.7664      1.00000
     13     -13.7493      1.00000
     14     -13.7429      1.00000
     15     -13.7104      1.00000
     16     -13.7010      1.00000
     17      -7.2567      1.00000
     18      -7.1210      1.00000
     19      -6.3989      1.00000
     20      -6.2739      1.00000
     21      -5.9584      1.00000
     22      -5.8916      1.00000
     23      -5.8859      1.00000
     24      -5.8527      1.00000
     25      -1.3553      1.00000
     26      -1.1743      1.00000
     27      -0.7542      1.00000
     28      -0.6504      1.00000
     29       0.0936      1.00000
     30       0.4287      1.00000
     31       0.4975      1.00000
     32       0.6596      1.00000
     33       0.9933      1.00000
     34       1.0718      1.00000
     35       1.3512      1.00000
     36       1.4940      1.00000
     37       1.7116      1.00000
     38       1.8058      1.00000
     39       1.8391      1.00000
     40       1.9161      1.00000
     41       2.1592      1.00000
     42       2.1939      1.00000
     43       2.4945      1.00000
     44       2.6552      1.00000
     45       2.7789      1.00000
     46       2.8513      1.00000
     47       2.9714      1.00000
     48       3.1249      1.00000
     49       5.6698      0.00000
     50       6.1299      0.00000
     51       6.3550      0.00000
     52       6.5886      0.00000
     53       6.9501      0.00000
     54       7.0326      0.00000
     55       7.2174      0.00000
     56       7.3239      0.00000
     57       7.4644      0.00000
     58       7.6147      0.00000
     59       7.8942      0.00000
     60       8.0243      0.00000
     61       8.0869      0.00000
     62       8.1817      0.00000
     63       8.2578      0.00000
     64       8.3921      0.00000

 k-point    77 :      -0.0000    0.0000    0.5000
  band No.  band energies     occupation 
      1     -32.3813      1.00000
      2     -32.3813      1.00000
      3     -32.3732      1.00000
      4     -32.3732      1.00000
      5     -13.9529      1.00000
      6     -13.9529      1.00000
      7     -13.8328      1.00000
      8     -13.8328      1.00000
      9     -13.7843      1.00000
     10     -13.7843      1.00000
     11     -13.7437      1.00000
     12     -13.7437      1.00000
     13     -13.7368      1.00000
     14     -13.7368      1.00000
     15     -13.7042      1.00000
     16     -13.7042      1.00000
     17      -7.2108      1.00000
     18      -7.2108      1.00000
     19      -6.2336      1.00000
     20      -6.2336      1.00000
     21      -6.0265      1.00000
     22      -6.0265      1.00000
     23      -5.8596      1.00000
     24      -5.8596      1.00000
     25      -1.2451      1.00000
     26      -1.2451      1.00000
     27      -0.8259      1.00000
     28      -0.8259      1.00000
     29       0.0380      1.00000
     30       0.0380      1.00000
     31       0.8968      1.00000
     32       0.8968      1.00000
     33       1.2634      1.00000
     34       1.2634      1.00000
     35       1.4708      1.00000
     36       1.4708      1.00000
     37       1.7104      1.00000
     38       1.7104      1.00000
     39       1.8837      1.00000
     40       1.8837      1.00000
     41       2.3048      1.00000
     42       2.3048      1.00000
     43       2.5581      1.00000
     44       2.5581      1.00000
     45       2.7625      1.00000
     46       2.7625      1.00000
     47       2.9385      1.00000
     48       2.9385      1.00000
     49       5.1429      0.00000
     50       5.1429      0.00000
     51       6.0681      0.00000
     52       6.0681      0.00000
     53       7.0988      0.00000
     54       7.0988      0.00000
     55       7.4301      0.00000
     56       7.4301      0.00000
     57       7.7736      0.00000
     58       7.7736      0.00000
     59       8.0570      0.00000
     60       8.0570      0.00000
     61       8.3286      0.00000
     62       8.3286      0.00000
     63       8.5262      0.00000
     64       8.5262      0.00000

 k-point    78 :       0.1667   -0.0000    0.5000
  band No.  band energies     occupation 
      1     -32.3813      1.00000
      2     -32.3813      1.00000
      3     -32.3732      1.00000
      4     -32.3732      1.00000
      5     -13.9528      1.00000
      6     -13.9527      1.00000
      7     -13.8328      1.00000
      8     -13.8326      1.00000
      9     -13.7848      1.00000
     10     -13.7847      1.00000
     11     -13.7439      1.00000
     12     -13.7439      1.00000
     13     -13.7368      1.00000
     14     -13.7368      1.00000
     15     -13.7042      1.00000
     16     -13.7042      1.00000
     17      -7.1861      1.00000
     18      -7.1838      1.00000
     19      -6.3199      1.00000
     20      -6.2824      1.00000
     21      -5.9892      1.00000
     22      -5.9523      1.00000
     23      -5.9247      1.00000
     24      -5.8333      1.00000
     25      -1.2805      1.00000
     26      -1.2028      1.00000
     27      -0.9350      1.00000
     28      -0.8179      1.00000
     29       0.0231      1.00000
     30       0.2411      1.00000
     31       0.8183      1.00000
     32       0.9397      1.00000
     33       1.1669      1.00000
     34       1.2598      1.00000
     35       1.3674      1.00000
     36       1.4256      1.00000
     37       1.7309      1.00000
     38       1.8180      1.00000
     39       1.9289      1.00000
     40       2.0154      1.00000
     41       2.2802      1.00000
     42       2.3543      1.00000
     43       2.5202      1.00000
     44       2.6494      1.00000
     45       2.6691      1.00000
     46       2.8356      1.00000
     47       2.9499      1.00000
     48       3.0702      1.00000
     49       5.1729      0.00000
     50       5.1910      0.00000
     51       6.0181      0.00000
     52       6.1333      0.00000
     53       6.8357      0.00000
     54       6.8648      0.00000
     55       7.1191      0.00000
     56       7.2863      0.00000
     57       7.4430      0.00000
     58       7.8360      0.00000
     59       7.8874      0.00000
     60       8.1058      0.00000
     61       8.1072      0.00000
     62       8.3802      0.00000
     63       8.4334      0.00000
     64       8.6823      0.00000

 k-point    79 :       0.3333    0.0000    0.5000
  band No.  band energies     occupation 
      1     -32.3813      1.00000
      2     -32.3813      1.00000
      3     -32.3732      1.00000
      4     -32.3732      1.00000
      5     -13.9525      1.00000
      6     -13.9524      1.00000
      7     -13.8326      1.00000
      8     -13.8324      1.00000
      9     -13.7858      1.00000
     10     -13.7857      1.00000
     11     -13.7443      1.00000
     12     -13.7443      1.00000
     13     -13.7368      1.00000
     14     -13.7368      1.00000
     15     -13.7042      1.00000
     16     -13.7042      1.00000
     17      -7.1295      1.00000
     18      -7.1251      1.00000
     19      -6.4195      1.00000
     20      -6.3746      1.00000
     21      -6.0138      1.00000
     22      -5.9784      1.00000
     23      -5.8373      1.00000
     24      -5.8135      1.00000
     25      -1.3048      1.00000
     26      -1.1895      1.00000
     27      -0.9706      1.00000
     28      -0.9545      1.00000
     29       0.2470      1.00000
     30       0.4039      1.00000
     31       0.7622      1.00000
     32       0.9533      1.00000
     33       1.0423      1.00000
     34       1.1587      1.00000
     35       1.3621      1.00000
     36       1.3724      1.00000
     37       1.6395      1.00000
     38       1.9130      1.00000
     39       2.0216      1.00000
     40       2.1582      1.00000
     41       2.3469      1.00000
     42       2.3690      1.00000
     43       2.6794      1.00000
     44       2.7236      1.00000
     45       2.7562      1.00000
     46       2.7882      1.00000
     47       3.0312      1.00000
     48       3.1265      1.00000
     49       5.2816      0.00000
     50       5.3042      0.00000
     51       5.9667      0.00000
     52       6.2854      0.00000
     53       6.4051      0.00000
     54       6.6190      0.00000
     55       6.6952      0.00000
     56       6.8743      0.00000
     57       7.2312      0.00000
     58       7.4270      0.00000
     59       7.7070      0.00000
     60       7.8386      0.00000
     61       8.0712      0.00000
     62       8.2585      0.00000
     63       8.4304      0.00000
     64       8.4754      0.00000

 k-point    80 :       0.5000   -0.0000    0.5000
  band No.  band energies     occupation 
      1     -32.3813      1.00000
      2     -32.3813      1.00000
      3     -32.3732      1.00000
      4     -32.3732      1.00000
      5     -13.9523      1.00000
      6     -13.9523      1.00000
      7     -13.8324      1.00000
      8     -13.8324      1.00000
      9     -13.7862      1.00000
     10     -13.7862      1.00000
     11     -13.7445      1.00000
     12     -13.7445      1.00000
     13     -13.7368      1.00000
     14     -13.7368      1.00000
     15     -13.7042      1.00000
     16     -13.7042      1.00000
     17      -7.0945      1.00000
     18      -7.0945      1.00000
     19      -6.4409      1.00000
     20      -6.4409      1.00000
     21      -6.0202      1.00000
     22      -6.0202      1.00000
     23      -5.7950      1.00000
     24      -5.7950      1.00000
     25      -1.2676      1.00000
     26      -1.2676      1.00000
     27      -0.9795      1.00000
     28      -0.9795      1.00000
     29       0.4101      1.00000
     30       0.4101      1.00000
     31       0.8625      1.00000
     32       0.8625      1.00000
     33       1.0171      1.00000
     34       1.0171      1.00000
     35       1.3661      1.00000
     36       1.3661      1.00000
     37       1.8235      1.00000
     38       1.8235      1.00000
     39       2.1191      1.00000
     40       2.1191      1.00000
     41       2.3355      1.00000
     42       2.3355      1.00000
     43       2.7214      1.00000
     44       2.7214      1.00000
     45       2.8403      1.00000
     46       2.8403      1.00000
     47       3.1211      1.00000
     48       3.1211      1.00000
     49       5.4073      0.00000
     50       5.4073      0.00000
     51       5.9672      0.00000
     52       5.9672      0.00000
     53       6.3609      0.00000
     54       6.3609      0.00000
     55       6.8365      0.00000
     56       6.8365      0.00000
     57       7.2250      0.00000
     58       7.2250      0.00000
     59       7.5018      0.00000
     60       7.5018      0.00000
     61       8.1625      0.00000
     62       8.1625      0.00000
     63       8.4429      0.00000
     64       8.4429      0.00000

 k-point    81 :      -0.0000    0.2000    0.5000
  band No.  band energies     occupation 
      1     -32.3808      1.00000
      2     -32.3808      1.00000
      3     -32.3738      1.00000
      4     -32.3738      1.00000
      5     -13.9384      1.00000
      6     -13.9384      1.00000
      7     -13.8384      1.00000
      8     -13.8384      1.00000
      9     -13.7813      1.00000
     10     -13.7813      1.00000
     11     -13.7490      1.00000
     12     -13.7490      1.00000
     13     -13.7410      1.00000
     14     -13.7410      1.00000
     15     -13.7077      1.00000
     16     -13.7077      1.00000
     17      -7.1867      1.00000
     18      -7.1867      1.00000
     19      -6.3228      1.00000
     20      -6.3228      1.00000
     21      -5.9694      1.00000
     22      -5.9694      1.00000
     23      -5.8579      1.00000
     24      -5.8579      1.00000
     25      -1.1735      1.00000
     26      -1.1735      1.00000
     27      -0.7886      1.00000
     28      -0.7886      1.00000
     29       0.0791      1.00000
     30       0.0791      1.00000
     31       0.8378      1.00000
     32       0.8378      1.00000
     33       1.1149      1.00000
     34       1.1149      1.00000
     35       1.4746      1.00000
     36       1.4746      1.00000
     37       1.6566      1.00000
     38       1.6566      1.00000
     39       1.9705      1.00000
     40       1.9705      1.00000
     41       2.2216      1.00000
     42       2.2216      1.00000
     43       2.5702      1.00000
     44       2.5702      1.00000
     45       2.5957      1.00000
     46       2.5957      1.00000
     47       3.0251      1.00000
     48       3.0251      1.00000
     49       5.3288      0.00000
     50       5.3288      0.00000
     51       6.3685      0.00000
     52       6.3685      0.00000
     53       6.9150      0.00000
     54       6.9150      0.00000
     55       7.5020      0.00000
     56       7.5020      0.00000
     57       7.9158      0.00000
     58       7.9158      0.00000
     59       8.0330      0.00000
     60       8.0330      0.00000
     61       8.2183      0.00000
     62       8.2183      0.00000
     63       8.5435      0.00000
     64       8.5435      0.00000

 k-point    82 :       0.1667    0.2000    0.5000
  band No.  band energies     occupation 
      1     -32.3808      1.00000
      2     -32.3808      1.00000
      3     -32.3738      1.00000
      4     -32.3738      1.00000
      5     -13.9383      1.00000
      6     -13.9382      1.00000
      7     -13.8383      1.00000
      8     -13.8383      1.00000
      9     -13.7818      1.00000
     10     -13.7817      1.00000
     11     -13.7492      1.00000
     12     -13.7491      1.00000
     13     -13.7411      1.00000
     14     -13.7410      1.00000
     15     -13.7076      1.00000
     16     -13.7076      1.00000
     17      -7.1727      1.00000
     18      -7.1567      1.00000
     19      -6.4010      1.00000
     20      -6.2854      1.00000
     21      -6.0090      1.00000
     22      -5.9226      1.00000
     23      -5.9120      1.00000
     24      -5.8265      1.00000
     25      -1.2271      1.00000
     26      -1.1396      1.00000
     27      -0.8873      1.00000
     28      -0.7728      1.00000
     29       0.0714      1.00000
     30       0.2939      1.00000
     31       0.7750      1.00000
     32       0.8638      1.00000
     33       1.0204      1.00000
     34       1.2006      1.00000
     35       1.3223      1.00000
     36       1.4926      1.00000
     37       1.5756      1.00000
     38       1.8050      1.00000
     39       1.8962      1.00000
     40       2.0720      1.00000
     41       2.2397      1.00000
     42       2.4111      1.00000
     43       2.5202      1.00000
     44       2.5921      1.00000
     45       2.6440      1.00000
     46       2.7221      1.00000
     47       2.9043      1.00000
     48       3.0601      1.00000
     49       5.3353      0.00000
     50       5.3740      0.00000
     51       6.3264      0.00000
     52       6.3823      0.00000
     53       6.6948      0.00000
     54       6.9464      0.00000
     55       7.0675      0.00000
     56       7.3494      0.00000
     57       7.5461      0.00000
     58       7.8104      0.00000
     59       7.9066      0.00000
     60       8.0235      0.00000
     61       8.1675      0.00000
     62       8.3548      0.00000
     63       8.4309      0.00000
     64       8.6351      0.00000

 k-point    83 :      -0.1667    0.2000    0.5000
  band No.  band energies     occupation 
      1     -32.3808      1.00000
      2     -32.3808      1.00000
      3     -32.3738      1.00000
      4     -32.3738      1.00000
      5     -13.9383      1.00000
      6     -13.9382      1.00000
      7     -13.8383      1.00000
      8     -13.8383      1.00000
      9     -13.7818      1.00000
     10     -13.7817      1.00000
     11     -13.7492      1.00000
     12     -13.7491      1.00000
     13     -13.7411      1.00000
     14     -13.7410      1.00000
     15     -13.7076      1.00000
     16     -13.7076      1.00000
     17      -7.1727      1.00000
     18      -7.1567      1.00000
     19      -6.4010      1.00000
     20      -6.2854      1.00000
     21      -6.0090      1.00000
     22      -5.9226      1.00000
     23      -5.9120      1.00000
     24      -5.8265      1.00000
     25      -1.2271      1.00000
     26      -1.1396      1.00000
     27      -0.8873      1.00000
     28      -0.7728      1.00000
     29       0.0714      1.00000
     30       0.2939      1.00000
     31       0.7750      1.00000
     32       0.8638      1.00000
     33       1.0204      1.00000
     34       1.2006      1.00000
     35       1.3223      1.00000
     36       1.4926      1.00000
     37       1.5756      1.00000
     38       1.8050      1.00000
     39       1.8962      1.00000
     40       2.0720      1.00000
     41       2.2397      1.00000
     42       2.4111      1.00000
     43       2.5202      1.00000
     44       2.5921      1.00000
     45       2.6440      1.00000
     46       2.7221      1.00000
     47       2.9043      1.00000
     48       3.0601      1.00000
     49       5.3353      0.00000
     50       5.3740      0.00000
     51       6.3264      0.00000
     52       6.3823      0.00000
     53       6.6948      0.00000
     54       6.9464      0.00000
     55       7.0675      0.00000
     56       7.3494      0.00000
     57       7.5461      0.00000
     58       7.8104      0.00000
     59       7.9066      0.00000
     60       8.0235      0.00000
     61       8.1675      0.00000
     62       8.3548      0.00000
     63       8.4309      0.00000
     64       8.6286      0.00000

 k-point    84 :       0.3333    0.2000    0.5000
  band No.  band energies     occupation 
      1     -32.3808      1.00000
      2     -32.3808      1.00000
      3     -32.3738      1.00000
      4     -32.3738      1.00000
      5     -13.9380      1.00000
      6     -13.9379      1.00000
      7     -13.8381      1.00000
      8     -13.8380      1.00000
      9     -13.7827      1.00000
     10     -13.7826      1.00000
     11     -13.7496      1.00000
     12     -13.7495      1.00000
     13     -13.7411      1.00000
     14     -13.7410      1.00000
     15     -13.7076      1.00000
     16     -13.7076      1.00000
     17      -7.1269      1.00000
     18      -7.1072      1.00000
     19      -6.4474      1.00000
     20      -6.3459      1.00000
     21      -6.0104      1.00000
     22      -5.9734      1.00000
     23      -5.8960      1.00000
     24      -5.8028      1.00000
     25      -1.2615      1.00000
     26      -1.1575      1.00000
     27      -0.9231      1.00000
     28      -0.8798      1.00000
     29       0.2887      1.00000
     30       0.4558      1.00000
     31       0.7201      1.00000
     32       0.8865      1.00000
     33       0.9958      1.00000
     34       1.0886      1.00000
     35       1.3062      1.00000
     36       1.3776      1.00000
     37       1.6719      1.00000
     38       1.8697      1.00000
     39       2.0445      1.00000
     40       2.1149      1.00000
     41       2.3267      1.00000
     42       2.4247      1.00000
     43       2.5761      1.00000
     44       2.6246      1.00000
     45       2.6830      1.00000
     46       2.8423      1.00000
     47       2.9341      1.00000
     48       3.0023      1.00000
     49       5.4188      0.00000
     50       5.4620      0.00000
     51       6.2258      0.00000
     52       6.3942      0.00000
     53       6.5094      0.00000
     54       6.7390      0.00000
     55       6.8145      0.00000
     56       6.8471      0.00000
     57       7.2545      0.00000
     58       7.5044      0.00000
     59       7.7137      0.00000
     60       7.8550      0.00000
     61       8.0317      0.00000
     62       8.2285      0.00000
     63       8.2682      0.00000
     64       8.4747      0.00000

 k-point    85 :      -0.3333    0.2000    0.5000
  band No.  band energies     occupation 
      1     -32.3808      1.00000
      2     -32.3808      1.00000
      3     -32.3738      1.00000
      4     -32.3738      1.00000
      5     -13.9380      1.00000
      6     -13.9379      1.00000
      7     -13.8381      1.00000
      8     -13.8380      1.00000
      9     -13.7827      1.00000
     10     -13.7826      1.00000
     11     -13.7496      1.00000
     12     -13.7495      1.00000
     13     -13.7411      1.00000
     14     -13.7410      1.00000
     15     -13.7076      1.00000
     16     -13.7076      1.00000
     17      -7.1269      1.00000
     18      -7.1072      1.00000
     19      -6.4474      1.00000
     20      -6.3459      1.00000
     21      -6.0104      1.00000
     22      -5.9734      1.00000
     23      -5.8960      1.00000
     24      -5.8028      1.00000
     25      -1.2615      1.00000
     26      -1.1575      1.00000
     27      -0.9231      1.00000
     28      -0.8798      1.00000
     29       0.2887      1.00000
     30       0.4558      1.00000
     31       0.7201      1.00000
     32       0.8865      1.00000
     33       0.9958      1.00000
     34       1.0886      1.00000
     35       1.3062      1.00000
     36       1.3776      1.00000
     37       1.6719      1.00000
     38       1.8697      1.00000
     39       2.0445      1.00000
     40       2.1149      1.00000
     41       2.3267      1.00000
     42       2.4247      1.00000
     43       2.5761      1.00000
     44       2.6246      1.00000
     45       2.6830      1.00000
     46       2.8423      1.00000
     47       2.9341      1.00000
     48       3.0023      1.00000
     49       5.4188      0.00000
     50       5.4620      0.00000
     51       6.2258      0.00000
     52       6.3942      0.00000
     53       6.5094      0.00000
     54       6.7390      0.00000
     55       6.8145      0.00000
     56       6.8471      0.00000
     57       7.2545      0.00000
     58       7.5044      0.00000
     59       7.7137      0.00000
     60       7.8550      0.00000
     61       8.0317      0.00000
     62       8.2285      0.00000
     63       8.2682      0.00000
     64       8.4775      0.00000

 k-point    86 :       0.5000    0.2000    0.5000
  band No.  band energies     occupation 
      1     -32.3808      1.00000
      2     -32.3807      1.00000
      3     -32.3738      1.00000
      4     -32.3738      1.00000
      5     -13.9378      1.00000
      6     -13.9378      1.00000
      7     -13.8379      1.00000
      8     -13.8379      1.00000
      9     -13.7831      1.00000
     10     -13.7831      1.00000
     11     -13.7498      1.00000
     12     -13.7498      1.00000
     13     -13.7411      1.00000
     14     -13.7411      1.00000
     15     -13.7076      1.00000
     16     -13.7076      1.00000
     17      -7.0912      1.00000
     18      -7.0912      1.00000
     19      -6.4249      1.00000
     20      -6.4249      1.00000
     21      -6.0152      1.00000
     22      -6.0152      1.00000
     23      -5.8296      1.00000
     24      -5.8296      1.00000
     25      -1.2287      1.00000
     26      -1.2287      1.00000
     27      -0.9240      1.00000
     28      -0.9240      1.00000
     29       0.4424      1.00000
     30       0.4424      1.00000
     31       0.7898      1.00000
     32       0.7898      1.00000
     33       1.0432      1.00000
     34       1.0432      1.00000
     35       1.3116      1.00000
     36       1.3116      1.00000
     37       1.8762      1.00000
     38       1.8762      1.00000
     39       2.1283      1.00000
     40       2.1283      1.00000
     41       2.2887      1.00000
     42       2.2887      1.00000
     43       2.5762      1.00000
     44       2.5762      1.00000
     45       2.8329      1.00000
     46       2.8329      1.00000
     47       3.0040      1.00000
     48       3.0040      1.00000
     49       5.5345      0.00000
     50       5.5345      0.00000
     51       6.1773      0.00000
     52       6.1773      0.00000
     53       6.5059      0.00000
     54       6.5059      0.00000
     55       6.8316      0.00000
     56       6.8316      0.00000
     57       7.2491      0.00000
     58       7.2491      0.00000
     59       7.6046      0.00000
     60       7.6046      0.00000
     61       8.0318      0.00000
     62       8.0318      0.00000
     63       8.2728      0.00000
     64       8.2728      0.00000

 k-point    87 :      -0.0000    0.4000    0.5000
  band No.  band energies     occupation 
      1     -32.3795      1.00000
      2     -32.3795      1.00000
      3     -32.3751      1.00000
      4     -32.3751      1.00000
      5     -13.9017      1.00000
      6     -13.9017      1.00000
      7     -13.8615      1.00000
      8     -13.8615      1.00000
      9     -13.7730      1.00000
     10     -13.7730      1.00000
     11     -13.7605      1.00000
     12     -13.7605      1.00000
     13     -13.7489      1.00000
     14     -13.7489      1.00000
     15     -13.7118      1.00000
     16     -13.7118      1.00000
     17      -7.1421      1.00000
     18      -7.1421      1.00000
     19      -6.4349      1.00000
     20      -6.4349      1.00000
     21      -5.9124      1.00000
     22      -5.9124      1.00000
     23      -5.8576      1.00000
     24      -5.8576      1.00000
     25      -1.0363      1.00000
     26      -1.0363      1.00000
     27      -0.7333      1.00000
     28      -0.7333      1.00000
     29       0.1558      1.00000
     30       0.1558      1.00000
     31       0.7672      1.00000
     32       0.7672      1.00000
     33       0.9448      1.00000
     34       0.9448      1.00000
     35       1.2248      1.00000
     36       1.2248      1.00000
     37       1.7394      1.00000
     38       1.7394      1.00000
     39       1.9506      1.00000
     40       1.9506      1.00000
     41       2.2406      1.00000
     42       2.2406      1.00000
     43       2.4013      1.00000
     44       2.4013      1.00000
     45       2.7277      1.00000
     46       2.7277      1.00000
     47       2.9429      1.00000
     48       2.9429      1.00000
     49       5.7988      0.00000
     50       5.7988      0.00000
     51       6.4146      0.00000
     52       6.4146      0.00000
     53       7.0219      0.00000
     54       7.0219      0.00000
     55       7.5180      0.00000
     56       7.5180      0.00000
     57       7.9544      0.00000
     58       7.9544      0.00000
     59       8.0874      0.00000
     60       8.0874      0.00000
     61       8.3584      0.00000
     62       8.3584      0.00000
     63       8.4753      0.00000
     64       8.4762      0.00000

 k-point    88 :       0.1667    0.4000    0.5000
  band No.  band energies     occupation 
      1     -32.3795      1.00000
      2     -32.3795      1.00000
      3     -32.3751      1.00000
      4     -32.3751      1.00000
      5     -13.9016      1.00000
      6     -13.9014      1.00000
      7     -13.8614      1.00000
      8     -13.8613      1.00000
      9     -13.7734      1.00000
     10     -13.7733      1.00000
     11     -13.7608      1.00000
     12     -13.7608      1.00000
     13     -13.7490      1.00000
     14     -13.7489      1.00000
     15     -13.7118      1.00000
     16     -13.7118      1.00000
     17      -7.1346      1.00000
     18      -7.1226      1.00000
     19      -6.4535      1.00000
     20      -6.3945      1.00000
     21      -5.9556      1.00000
     22      -5.9187      1.00000
     23      -5.8869      1.00000
     24      -5.8426      1.00000
     25      -1.1024      1.00000
     26      -1.0561      1.00000
     27      -0.7829      1.00000
     28      -0.7212      1.00000
     29       0.2212      1.00000
     30       0.3674      1.00000
     31       0.7091      1.00000
     32       0.7494      1.00000
     33       0.8084      1.00000
     34       0.9297      1.00000
     35       1.2721      1.00000
     36       1.3636      1.00000
     37       1.7062      1.00000
     38       1.7934      1.00000
     39       1.9399      1.00000
     40       1.9798      1.00000
     41       2.1843      1.00000
     42       2.3565      1.00000
     43       2.4284      1.00000
     44       2.4705      1.00000
     45       2.6854      1.00000
     46       2.8147      1.00000
     47       2.8540      1.00000
     48       2.9401      1.00000
     49       5.7543      0.00000
     50       5.8337      0.00000
     51       6.2681      0.00000
     52       6.4992      0.00000
     53       6.8586      0.00000
     54       7.1110      0.00000
     55       7.1693      0.00000
     56       7.3879      0.00000
     57       7.5533      0.00000
     58       7.6168      0.00000
     59       8.0944      0.00000
     60       8.2066      0.00000
     61       8.2918      0.00000
     62       8.3810      0.00000
     63       8.5190      0.00000
     64       8.5622      0.00000

 k-point    89 :      -0.1667    0.4000    0.5000
  band No.  band energies     occupation 
      1     -32.3795      1.00000
      2     -32.3795      1.00000
      3     -32.3751      1.00000
      4     -32.3751      1.00000
      5     -13.9016      1.00000
      6     -13.9014      1.00000
      7     -13.8614      1.00000
      8     -13.8613      1.00000
      9     -13.7734      1.00000
     10     -13.7733      1.00000
     11     -13.7608      1.00000
     12     -13.7608      1.00000
     13     -13.7490      1.00000
     14     -13.7489      1.00000
     15     -13.7118      1.00000
     16     -13.7118      1.00000
     17      -7.1346      1.00000
     18      -7.1226      1.00000
     19      -6.4535      1.00000
     20      -6.3945      1.00000
     21      -5.9556      1.00000
     22      -5.9187      1.00000
     23      -5.8869      1.00000
     24      -5.8426      1.00000
     25      -1.1024      1.00000
     26      -1.0561      1.00000
     27      -0.7829      1.00000
     28      -0.7212      1.00000
     29       0.2212      1.00000
     30       0.3674      1.00000
     31       0.7091      1.00000
     32       0.7494      1.00000
     33       0.8084      1.00000
     34       0.9297      1.00000
     35       1.2721      1.00000
     36       1.3636      1.00000
     37       1.7062      1.00000
     38       1.7934      1.00000
     39       1.9399      1.00000
     40       1.9798      1.00000
     41       2.1843      1.00000
     42       2.3565      1.00000
     43       2.4284      1.00000
     44       2.4705      1.00000
     45       2.6854      1.00000
     46       2.8147      1.00000
     47       2.8540      1.00000
     48       2.9401      1.00000
     49       5.7543      0.00000
     50       5.8337      0.00000
     51       6.2681      0.00000
     52       6.4992      0.00000
     53       6.8586      0.00000
     54       7.1110      0.00000
     55       7.1693      0.00000
     56       7.3879      0.00000
     57       7.5533      0.00000
     58       7.6168      0.00000
     59       8.0944      0.00000
     60       8.2066      0.00000
     61       8.2918      0.00000
     62       8.3810      0.00000
     63       8.5195      0.00000
     64       8.5654      0.00000

 k-point    90 :       0.3333    0.4000    0.5000
  band No.  band energies     occupation 
      1     -32.3795      1.00000
      2     -32.3795      1.00000
      3     -32.3751      1.00000
      4     -32.3751      1.00000
      5     -13.9013      1.00000
      6     -13.9012      1.00000
      7     -13.8611      1.00000
      8     -13.8610      1.00000
      9     -13.7741      1.00000
     10     -13.7740      1.00000
     11     -13.7613      1.00000
     12     -13.7613      1.00000
     13     -13.7492      1.00000
     14     -13.7491      1.00000
     15     -13.7117      1.00000
     16     -13.7117      1.00000
     17      -7.1070      1.00000
     18      -7.0939      1.00000
     19      -6.4365      1.00000
     20      -6.3736      1.00000
     21      -5.9738      1.00000
     22      -5.9674      1.00000
     23      -5.9288      1.00000
     24      -5.8584      1.00000
     25      -1.1584      1.00000
     26      -1.1139      1.00000
     27      -0.8254      1.00000
     28      -0.7880      1.00000
     29       0.4452      1.00000
     30       0.5899      1.00000
     31       0.6581      1.00000
     32       0.7401      1.00000
     33       0.7719      1.00000
     34       0.8373      1.00000
     35       1.4355      1.00000
     36       1.4611      1.00000
     37       1.7232      1.00000
     38       1.8726      1.00000
     39       1.9259      1.00000
     40       1.9561      1.00000
     41       2.2899      1.00000
     42       2.3788      1.00000
     43       2.5051      1.00000
     44       2.5292      1.00000
     45       2.7063      1.00000
     46       2.7553      1.00000
     47       2.8220      1.00000
     48       2.8792      1.00000
     49       5.7779      0.00000
     50       5.8719      0.00000
     51       6.1741      0.00000
     52       6.4027      0.00000
     53       6.7986      0.00000
     54       6.8474      0.00000
     55       7.0011      0.00000
     56       7.1215      0.00000
     57       7.1964      0.00000
     58       7.3076      0.00000
     59       7.8239      0.00000
     60       7.9675      0.00000
     61       8.1444      0.00000
     62       8.3116      0.00000
     63       8.3661      0.00000
     64       8.4766      0.00000

 k-point    91 :      -0.3333    0.4000    0.5000
  band No.  band energies     occupation 
      1     -32.3795      1.00000
      2     -32.3795      1.00000
      3     -32.3751      1.00000
      4     -32.3751      1.00000
      5     -13.9013      1.00000
      6     -13.9012      1.00000
      7     -13.8611      1.00000
      8     -13.8610      1.00000
      9     -13.7741      1.00000
     10     -13.7740      1.00000
     11     -13.7613      1.00000
     12     -13.7613      1.00000
     13     -13.7492      1.00000
     14     -13.7491      1.00000
     15     -13.7117      1.00000
     16     -13.7117      1.00000
     17      -7.1070      1.00000
     18      -7.0939      1.00000
     19      -6.4365      1.00000
     20      -6.3736      1.00000
     21      -5.9738      1.00000
     22      -5.9674      1.00000
     23      -5.9288      1.00000
     24      -5.8584      1.00000
     25      -1.1584      1.00000
     26      -1.1139      1.00000
     27      -0.8254      1.00000
     28      -0.7880      1.00000
     29       0.4452      1.00000
     30       0.5899      1.00000
     31       0.6581      1.00000
     32       0.7401      1.00000
     33       0.7719      1.00000
     34       0.8373      1.00000
     35       1.4355      1.00000
     36       1.4611      1.00000
     37       1.7232      1.00000
     38       1.8726      1.00000
     39       1.9259      1.00000
     40       1.9561      1.00000
     41       2.2899      1.00000
     42       2.3788      1.00000
     43       2.5051      1.00000
     44       2.5292      1.00000
     45       2.7063      1.00000
     46       2.7553      1.00000
     47       2.8220      1.00000
     48       2.8792      1.00000
     49       5.7779      0.00000
     50       5.8719      0.00000
     51       6.1741      0.00000
     52       6.4027      0.00000
     53       6.7986      0.00000
     54       6.8474      0.00000
     55       7.0011      0.00000
     56       7.1215      0.00000
     57       7.1964      0.00000
     58       7.3076      0.00000
     59       7.8239      0.00000
     60       7.9675      0.00000
     61       8.1444      0.00000
     62       8.3116      0.00000
     63       8.3661      0.00000
     64       8.4762      0.00000

 k-point    92 :       0.5000    0.4000    0.5000
  band No.  band energies     occupation 
      1     -32.3795      1.00000
      2     -32.3795      1.00000
      3     -32.3751      1.00000
      4     -32.3751      1.00000
      5     -13.9011      1.00000
      6     -13.9011      1.00000
      7     -13.8609      1.00000
      8     -13.8609      1.00000
      9     -13.7744      1.00000
     10     -13.7744      1.00000
     11     -13.7616      1.00000
     12     -13.7616      1.00000
     13     -13.7492      1.00000
     14     -13.7492      1.00000
     15     -13.7117      1.00000
     16     -13.7117      1.00000
     17      -7.0858      1.00000
     18      -7.0858      1.00000
     19      -6.3976      1.00000
     20      -6.3976      1.00000
     21      -5.9855      1.00000
     22      -5.9855      1.00000
     23      -5.9085      1.00000
     24      -5.9085      1.00000
     25      -1.1543      1.00000
     26      -1.1543      1.00000
     27      -0.8384      1.00000
     28      -0.8384      1.00000
     29       0.5368      1.00000
     30       0.5368      1.00000
     31       0.6696      1.00000
     32       0.6696      1.00000
     33       0.9263      1.00000
     34       0.9263      1.00000
     35       1.4729      1.00000
     36       1.4729      1.00000
     37       1.8243      1.00000
     38       1.8243      1.00000
     39       1.9648      1.00000
     40       1.9648      1.00000
     41       2.3292      1.00000
     42       2.3292      1.00000
     43       2.5090      1.00000
     44       2.5090      1.00000
     45       2.7536      1.00000
     46       2.7536      1.00000
     47       2.8155      1.00000
     48       2.8155      1.00000
     49       5.8635      0.00000
     50       5.8635      0.00000
     51       6.3001      0.00000
     52       6.3001      0.00000
     53       6.6834      0.00000
     54       6.6834      0.00000
     55       6.8791      0.00000
     56       6.8791      0.00000
     57       7.2315      0.00000
     58       7.2315      0.00000
     59       7.7340      0.00000
     60       7.7340      0.00000
     61       8.0759      0.00000
     62       8.0759      0.00000
     63       8.4526      0.00000
     64       8.4532      0.00000


--------------------------------------------------------------------------------------------------------


 soft charge-density along one line, spin component           1
         0         1         2         3         4         5         6         7         8         9
 total charge-density along one line
 
 soft charge-density along one line, spin component           2
         0         1         2         3         4         5         6         7         8         9
 total charge-density along one line
 
 pseudopotential strength for first ion, spin component:           1
  1.223   5.461  -0.001   0.002  -0.002
  5.461  23.264  -0.003   0.008  -0.005
 -0.001  -0.003  -0.045  -0.000   0.001
  0.002   0.008  -0.000  -0.046  -0.001
 -0.002  -0.005   0.001  -0.001  -0.048
 pseudopotential strength for first ion, spin component:           2
  1.223   5.461  -0.001   0.002  -0.002
  5.461  23.264  -0.003   0.008  -0.005
 -0.001  -0.003  -0.045  -0.000   0.001
  0.002   0.008  -0.000  -0.046  -0.001
 -0.002  -0.005   0.001  -0.001  -0.048
 total augmentation occupancy for first ion, spin component:           1
  1.222  -0.065   0.001  -0.020   0.021
 -0.065   0.003   0.000   0.001  -0.001
  0.001   0.000   0.073   0.002  -0.003
 -0.020   0.001   0.002   0.079   0.002
  0.021  -0.001  -0.003   0.002   0.085
 total augmentation occupancy for first ion, spin component:           2
 -0.000  -0.000   0.000  -0.000   0.000
 -0.000   0.000   0.000   0.000  -0.000
  0.000   0.000  -0.000   0.000  -0.000
 -0.000   0.000   0.000  -0.000  -0.000
  0.000  -0.000  -0.000  -0.000  -0.000


------------------------ aborting loop because EDIFF is reached ----------------------------------------


 


 total charge     
 
# of ion       s       p       d       tot
------------------------------------------
    1        0.101   0.171   0.000   0.272
    2        0.101   0.171   0.000   0.272
    3        0.101   0.171   0.000   0.272
    4        0.101   0.171   0.000   0.272
    5        2.012   5.827   0.212   8.051
    6        2.012   5.827   0.212   8.051
    7        2.012   5.827   0.212   8.051
    8        2.012   5.827   0.212   8.051
    9        0.380   0.375   0.000   0.755
   10        0.380   0.375   0.000   0.755
   11        0.380   0.375   0.000   0.755
   12        0.380   0.375   0.000   0.755
   13        1.001   1.589   0.000   2.589
   14        1.001   1.589   0.000   2.589
   15        1.001   1.589   0.000   2.589
   16        1.001   1.589   0.000   2.589
   17        1.002   1.585   0.000   2.587
   18        1.002   1.585   0.000   2.587
   19        1.002   1.585   0.000   2.587
   20        1.002   1.585   0.000   2.587
--------------------------------------------------
tot         17.982  38.188   0.848  57.018
 


 magnetization (x)
 
# of ion       s       p       d       tot
------------------------------------------
    1        0.000  -0.000   0.000  -0.000
    2        0.000  -0.000   0.000  -0.000
    3        0.000  -0.000   0.000  -0.000
    4        0.000  -0.000   0.000  -0.000
    5        0.000   0.000  -0.000   0.000
    6        0.000   0.000  -0.000   0.000
    7        0.000   0.000  -0.000   0.000
    8        0.000   0.000  -0.000   0.000
    9       -0.000  -0.000   0.000  -0.000
   10       -0.000  -0.000   0.000  -0.000
   11       -0.000  -0.000   0.000  -0.000
   12       -0.000  -0.000   0.000  -0.000
   13        0.000   0.000   0.000   0.000
   14        0.000   0.000   0.000   0.000
   15        0.000   0.000   0.000   0.000
   16        0.000   0.000   0.000   0.000
   17        0.000   0.000   0.000   0.000
   18        0.000   0.000   0.000   0.000
   19        0.000   0.000   0.000   0.000
   20        0.000   0.000   0.000   0.000
--------------------------------------------------
tot          0.000   0.000  -0.000   0.000
 
    CHARGE:  cpu time    0.1561: real time    0.1561
    FORLOC:  cpu time    0.0012: real time    0.0012
    FORNL :  cpu time    0.8103: real time    0.8104
    STRESS:  cpu time   23.6028: real time   23.6087
    FORCOR:  cpu time    0.0370: real time    0.0421
    FORHAR:  cpu time    0.0027: real time    0.0027
    MIXING:  cpu time    0.0005: real time    0.0005
    OFIELD:  cpu time    0.0000: real time    0.0000

  FORCE on cell =-STRESS in cart. coord.  units (eV):
  Direction    XX          YY          ZZ          XY          YZ          ZX
  --------------------------------------------------------------------------------------
  Alpha Z   209.21536   209.21536   209.21536
  Ewald   -1523.99000 -1247.83470 -1246.15620     0.00006    -0.00002    30.38382
  Hartree   151.09194   433.52266   437.08448     0.00002    -0.00001    15.27837
  E(xc)    -330.64660  -330.53822  -330.49572     0.00000    -0.00000     0.02454
  Local     209.61440  -347.52573  -352.18590    -0.00008     0.00004   -44.39940
  n-local   322.68626   319.40853   318.53707     0.00000    -0.00000    -0.27452
  augment   -61.13946   -61.20253   -61.19429     0.00000     0.00000     0.15262
  Kinetic  1023.16571  1024.92124  1025.16509     0.00001    -0.00000    -1.17626
  Fock        0.00000     0.00000     0.00000     0.00000     0.00000     0.00000
  -------------------------------------------------------------------------------------
  Total      -0.00238    -0.03340    -0.03011     0.00001    -0.00000    -0.01082
  in kB      -0.00906    -0.12729    -0.11474     0.00002    -0.00001    -0.04123
  external pressure =       -0.08 kB  Pullay stress =        0.00 kB


 VOLUME and BASIS-vectors are now :
 -----------------------------------------------------------------------------
  energy-cutoff  :      520.00
  volume of cell :      420.45
      direct lattice vectors                 reciprocal lattice vectors
     7.055855729 -0.000000083 -0.016670492     0.141725459  0.000000002 -0.000336620
    -0.000000109  8.374768001  0.000000001     0.000000001  0.119406293  0.000000000
     0.016899912 -0.000000001  7.115286292     0.000332050 -0.000000000  0.140541694

  length of vectors
     7.055875422  8.374768001  7.115306362     0.141725858  0.119406293  0.140542086


 FORCES acting on ions
    electron-ion (+dipol)            ewald-force                    non-local-force                 convergence-correction
 -----------------------------------------------------------------------------------------------
   -.481E+01 -.141E+01 -.182E+01   0.502E+01 0.143E+01 0.161E+01   -.218E+00 -.120E-01 0.219E+00   -.509E-05 -.633E-05 -.702E-05
   0.481E+01 -.141E+01 0.182E+01   -.502E+01 0.143E+01 -.161E+01   0.218E+00 -.120E-01 -.219E+00   0.508E-05 -.633E-05 0.695E-05
   0.481E+01 0.141E+01 0.182E+01   -.502E+01 -.143E+01 -.161E+01   0.218E+00 0.120E-01 -.219E+00   0.511E-05 0.632E-05 0.696E-05
   -.481E+01 0.141E+01 -.182E+01   0.502E+01 -.143E+01 0.161E+01   -.218E+00 0.120E-01 0.219E+00   -.510E-05 0.630E-05 -.693E-05
   -.129E+02 -.158E+00 0.875E+01   0.127E+02 0.382E+00 -.820E+01   0.172E+00 -.226E+00 -.549E+00   -.135E-03 0.282E-04 0.222E-04
   0.129E+02 -.158E+00 -.875E+01   -.127E+02 0.382E+00 0.820E+01   -.172E+00 -.226E+00 0.549E+00   0.137E-03 0.321E-04 -.246E-04
   0.129E+02 0.158E+00 -.875E+01   -.127E+02 -.382E+00 0.820E+01   -.172E+00 0.226E+00 0.549E+00   0.136E-03 -.298E-04 -.230E-04
   -.129E+02 0.158E+00 0.875E+01   0.127E+02 -.382E+00 -.820E+01   0.172E+00 0.226E+00 -.549E+00   -.136E-03 -.303E-04 0.230E-04
   0.202E+02 0.601E+01 -.356E+01   -.203E+02 -.564E+01 0.319E+01   0.105E+00 -.376E+00 0.368E+00   0.188E-04 0.601E-04 -.148E-05
   -.202E+02 0.601E+01 0.356E+01   0.203E+02 -.564E+01 -.319E+01   -.105E+00 -.376E+00 -.368E+00   -.190E-04 0.602E-04 0.130E-05
   -.202E+02 -.601E+01 0.356E+01   0.203E+02 0.564E+01 -.319E+01   -.105E+00 0.376E+00 -.368E+00   -.189E-04 -.601E-04 0.186E-05
   0.202E+02 -.601E+01 -.356E+01   -.203E+02 0.564E+01 0.319E+01   0.105E+00 0.376E+00 0.368E+00   0.190E-04 -.601E-04 -.153E-05
   -.617E+02 -.146E+02 0.927E+01   0.605E+02 0.157E+02 -.984E+01   0.108E+01 -.101E+01 0.524E+00   0.686E-04 -.954E-04 0.234E-03
   0.617E+02 -.146E+02 -.927E+01   -.605E+02 0.157E+02 0.984E+01   -.108E+01 -.101E+01 -.524E+00   -.686E-04 -.955E-04 -.234E-03
   0.617E+02 0.146E+02 -.927E+01   -.605E+02 -.157E+02 0.984E+01   -.108E+01 0.101E+01 -.524E+00   -.687E-04 0.952E-04 -.234E-03
   -.617E+02 0.146E+02 0.927E+01   0.605E+02 -.157E+02 -.984E+01   0.108E+01 0.101E+01 0.524E+00   0.685E-04 0.954E-04 0.233E-03
   -.423E+02 0.170E+02 -.112E+02   0.413E+02 -.173E+02 0.114E+02   0.878E+00 0.242E+00 -.192E+00   -.877E-04 0.171E-03 -.502E-04
   0.423E+02 0.170E+02 0.112E+02   -.413E+02 -.173E+02 -.114E+02   -.878E+00 0.242E+00 0.192E+00   0.878E-04 0.171E-03 0.504E-04
   0.423E+02 -.170E+02 0.112E+02   -.413E+02 0.173E+02 -.114E+02   -.878E+00 -.242E+00 0.192E+00   0.877E-04 -.171E-03 0.508E-04
   -.423E+02 -.170E+02 -.112E+02   0.413E+02 0.173E+02 0.114E+02   0.878E+00 -.242E+00 -.192E+00   -.879E-04 -.171E-03 -.505E-04
 -----------------------------------------------------------------------------------------------
   0.150E-03 -.345E-05 -.409E-04   0.142E-13 0.000E+00 -.160E-13   -.157E-03 0.474E-05 0.447E-04   0.198E-05 0.481E-06 -.216E-05
 
 
 POSITION                                       TOTAL-FORCE (eV/Angst)
 -----------------------------------------------------------------------------------
      2.67661      3.22105      6.49289        -0.002496     -0.001363      0.008138
      4.40459      7.40843      4.16337         0.002496     -0.001363     -0.008138
      4.39614      5.15372      0.60573         0.002496      0.001363     -0.008138
      2.66816      0.96633      2.93525        -0.002496      0.001362      0.008138
      0.07212      1.03897      5.25316         0.002614     -0.001833      0.004691
      7.00908      5.22635      5.40310        -0.002614     -0.001835     -0.004692
      7.00063      7.33580      1.84546        -0.002612      0.001835     -0.004691
      0.06367      3.14842      1.69551         0.002615      0.001833      0.004692
      4.37916      3.08152      4.09772         0.000814     -0.002536      0.002768
      2.70204      7.26891      6.55854        -0.000815     -0.002536     -0.002768
      2.69359      5.29324      3.00090        -0.000814      0.002536     -0.002768
      4.37071      1.10586      0.54007         0.000814      0.002536      0.002768
      1.91645      7.20984      4.25076        -0.002406      0.001139     -0.006018
      5.16475      3.02246      6.40549         0.002406      0.001141      0.006017
      5.15630      1.16493      2.84785         0.002405     -0.001138      0.006017
      1.90800      5.35231      0.69312        -0.002406     -0.001140     -0.006016
      1.98919      3.24800      4.04853         0.008847     -0.000245      0.002697
      5.09202      7.43538      6.60773        -0.008850     -0.000246     -0.002693
      5.08357      5.12677      3.05009        -0.008848      0.000243     -0.002697
      1.98074      0.93939      0.49088         0.008849      0.000246      0.002693
 -----------------------------------------------------------------------------------
    total drift:                               -0.000005      0.000002      0.000002


--------------------------------------------------------------------------------------------------------



  FREE ENERGIE OF THE ION-ELECTRON SYSTEM (eV)
  ---------------------------------------------------
  free  energy   TOTEN  =      -234.52430251 eV

  energy  without entropy=     -234.52430251  energy(sigma->0) =     -234.52430251
 
 d Force = 0.6868883E-04[ 0.581E-04, 0.792E-04]  d Energy = 0.6010554E-04 0.858E-05
 d Force = 0.6797564E-01[ 0.679E-01, 0.680E-01]  d Ewald  =-0.6947117E+00 0.763E+00


--------------------------------------------------------------------------------------------------------


    POTLOK:  cpu time    0.8928: real time    0.8938


--------------------------------------------------------------------------------------------------------


 Steepest descent step on ions:
 trial-energy change:   -0.000060  1 .order   -0.000088   -0.000127   -0.000049
  (g-gl).g = 0.127E-03      g.g   = 0.127E-03  gl.gl    = 0.000E+00
 g(Force)  = 0.792E-04   g(Stress)= 0.478E-04 ortho     = 0.000E+00
 gamma     =   0.00000
 trial     =   1.00000
 opt step  =   1.63779  (harmonic =   1.63779) maximal distance =0.00081650
 next E    =  -234.524346   (d E  =  -0.00010)


--------------------------------------------------------------------------------------------------------


  
 reached required accuracy - stopping structural energy minimisation
     LOOP+:  cpu time  129.4948: real time  129.7727
    4ORBIT:  cpu time    0.0000: real time    0.0000
 


 total charge     
 
# of ion       s       p       d       tot
------------------------------------------
    1        0.101   0.171   0.000   0.272
    2        0.101   0.171   0.000   0.272
    3        0.101   0.171   0.000   0.272
    4        0.101   0.171   0.000   0.272
    5        2.012   5.827   0.212   8.051
    6        2.012   5.827   0.212   8.051
    7        2.012   5.827   0.212   8.051
    8        2.012   5.827   0.212   8.051
    9        0.380   0.375   0.000   0.755
   10        0.380   0.375   0.000   0.755
   11        0.380   0.375   0.000   0.755
   12        0.380   0.375   0.000   0.755
   13        1.001   1.589   0.000   2.589
   14        1.001   1.589   0.000   2.589
   15        1.001   1.589   0.000   2.589
   16        1.001   1.589   0.000   2.589
   17        1.002   1.585   0.000   2.587
   18        1.002   1.585   0.000   2.587
   19        1.002   1.585   0.000   2.587
   20        1.002   1.585   0.000   2.587
--------------------------------------------------
tot         17.982  38.188   0.848  57.018
 


 magnetization (x)
 
# of ion       s       p       d       tot
------------------------------------------
    1        0.000  -0.000   0.000  -0.000
    2        0.000  -0.000   0.000  -0.000
    3        0.000  -0.000   0.000  -0.000
    4        0.000  -0.000   0.000  -0.000
    5        0.000   0.000  -0.000   0.000
    6        0.000   0.000  -0.000   0.000
    7        0.000   0.000  -0.000   0.000
    8        0.000   0.000  -0.000   0.000
    9       -0.000  -0.000   0.000  -0.000
   10       -0.000  -0.000   0.000  -0.000
   11       -0.000  -0.000   0.000  -0.000
   12       -0.000  -0.000   0.000  -0.000
   13        0.000   0.000   0.000   0.000
   14        0.000   0.000   0.000   0.000
   15        0.000   0.000   0.000   0.000
   16        0.000   0.000   0.000   0.000
   17        0.000   0.000   0.000   0.000
   18        0.000   0.000   0.000   0.000
   19        0.000   0.000   0.000   0.000
   20        0.000   0.000   0.000   0.000
--------------------------------------------------
tot          0.000   0.000  -0.000   0.000
 

 total amount of memory used by VASP MPI-rank0    55324. kBytes
=======================================================================

   base      :      30000. kBytes
   nonlr-proj:       3255. kBytes
   fftplans  :        914. kBytes
   grid      :       3571. kBytes
   one-center:         62. kBytes
   wavefun   :      17522. kBytes
 
  
  
 General timing and accounting informations for this job:
 ========================================================
  
                  Total CPU time used (sec):      435.498
                            User time (sec):      425.841
                          System time (sec):        9.657
                         Elapsed time (sec):      436.958
  
                   Maximum memory used (kb):      143536.
                   Average memory used (kb):           0.
  
                          Minor page faults:        53849
                          Major page faults:            0
                 Voluntary context switches:         1469
