Li12 Sr3 N6                             
   1.00000000000000     
     3.6135926848447317   -0.0099329782431136    0.0040523884465623
    -1.7999225226072171    3.0150753281078071    0.8541550989829884
    -0.0036504696790412    6.4642709452275078   23.0221740074727883
   Li   Sr   N 
    12     3     6
Direct
  0.0543161280568028  0.1071718874880144  0.8070240699530662
  0.9462110278694116  0.8946642441162865  0.1930250610761960
  0.7187720729252958  0.4390449594856040  0.1403404961823596
  0.6128953497275496  0.2256571151341990  0.5263226957792975
  0.3855762472423220  0.7702635590122823  0.4735438508091543
  0.2818912525121759  0.5627662752817334  0.8597776464129659
  0.8625260361124100  0.7244427115810403  0.5684906810549867
  0.1360647496000937  0.2718289541640482  0.4313896665014958
  0.5310347830272236  0.0613750699602788  0.9019535615643693
  0.8050210164772345  0.6083238419419233  0.7648988924590199
  0.1946114398223102  0.3916661609583524  0.2351047018959581
  0.4707460424235148  0.9423178292080289  0.0981742997637528
  0.0017264879436691  0.0031821815753564  0.0000761129193546
  0.6645263280508937  0.3307302651266215  0.3332639940613636
  0.3342831431382893  0.6667587470800659  0.6666856789351014
  0.8510612875307881  0.7012885235746494  0.9086146235788916
  0.1506131248331104  0.3023640513239011  0.0914810866999192
  0.5144364718585555  0.0310335177835258  0.2418057462154935
  0.8158292408986012  0.6319346243020704  0.4246979096403426
  0.1828671266185395  0.3647440172903200  0.5751416625801368
  0.4849906433311948  0.9684414636117123  0.7581875619167673
 
  0.00000000E+00  0.00000000E+00  0.00000000E+00
  0.00000000E+00  0.00000000E+00  0.00000000E+00
  0.00000000E+00  0.00000000E+00  0.00000000E+00
  0.00000000E+00  0.00000000E+00  0.00000000E+00
  0.00000000E+00  0.00000000E+00  0.00000000E+00
  0.00000000E+00  0.00000000E+00  0.00000000E+00
  0.00000000E+00  0.00000000E+00  0.00000000E+00
  0.00000000E+00  0.00000000E+00  0.00000000E+00
  0.00000000E+00  0.00000000E+00  0.00000000E+00
  0.00000000E+00  0.00000000E+00  0.00000000E+00
  0.00000000E+00  0.00000000E+00  0.00000000E+00
  0.00000000E+00  0.00000000E+00  0.00000000E+00
  0.00000000E+00  0.00000000E+00  0.00000000E+00
  0.00000000E+00  0.00000000E+00  0.00000000E+00
  0.00000000E+00  0.00000000E+00  0.00000000E+00
  0.00000000E+00  0.00000000E+00  0.00000000E+00
  0.00000000E+00  0.00000000E+00  0.00000000E+00
  0.00000000E+00  0.00000000E+00  0.00000000E+00
  0.00000000E+00  0.00000000E+00  0.00000000E+00
  0.00000000E+00  0.00000000E+00  0.00000000E+00
  0.00000000E+00  0.00000000E+00  0.00000000E+00
