Li6 Mg6 Ga6 N12                         
   1.00000000000000     
    -2.7119123009112123   -5.1992628408728505    0.1521191786356952
    -2.7117842361798554    5.1991683592372437    0.1507337193508217
     0.3638607766464296    0.0015055138546119  -11.1851997127227865
   Ga   Li   N    Mg
     6     6    12     6
Direct
  0.8094952769139704  0.4787257858993261  0.1799642488099434
  0.4783656166933844  0.8091498703373449  0.1798922195160268
  0.1906324899196157  0.5213900330081073  0.8200160390263889
  0.5215996242998752  0.1906712517359795  0.8199465121461917
  0.3883704275148713  0.3884064630023758  0.5911364713407277
  0.6116060168346276  0.6114534088372876  0.4088796188653182
  0.1713485535341013  0.5268902896319615  0.3336377302669963
  0.5261588475393603  0.1708024968815168  0.3334057946004394
  0.8287958693187811  0.4733649631960537  0.6663830345415520
  0.4734628639966342  0.8287838234921339  0.6664322145287437
  0.3766742690039130  0.3768363683547793  0.0702712162978803
  0.6231878991922741  0.6228494349023523  0.9299279622136069
  0.8844141222798630  0.5735840885577700  0.3525151426118004
  0.5742986191847375  0.8846067549601137  0.3523286093980212
  0.1155708285707725  0.4263667961919362  0.6474965860280056
  0.4264868055032234  0.1156322877611848  0.6474803921114903
  0.1136166945742335  0.4474555087535816  0.1417115155108070
  0.4481467892760195  0.1138917047984503  0.1415679121213267
  0.8864346845446215  0.5523183435163248  0.8584948124164063
  0.5524055333907696  0.8860529891350793  0.8581333115935065
  0.2457614805609213  0.2458195203136950  0.4159112702302146
  0.7542533018830297  0.7542266760909054  0.5841597030050489
  0.7723076819976622  0.7723506145115225  0.1038250569870103
  0.2277352625006405  0.2275904533920631  0.8961750334187041
  0.0511712816846821  0.0524906235808948  0.2460614845005344
  0.9474618494080222  0.9474840885341024  0.7543325396945955
  0.8586584197214786  0.1413352235671131  0.4999999086459952
  0.1413091504651451  0.8586748270807145  0.5000234893473577
  0.8591525872587523  0.1398028310530314 -0.0002057871466519
  0.1411171524340244  0.8609924789222982  0.0000959573720040
 
  0.00000000E+00  0.00000000E+00  0.00000000E+00
  0.00000000E+00  0.00000000E+00  0.00000000E+00
  0.00000000E+00  0.00000000E+00  0.00000000E+00
  0.00000000E+00  0.00000000E+00  0.00000000E+00
  0.00000000E+00  0.00000000E+00  0.00000000E+00
  0.00000000E+00  0.00000000E+00  0.00000000E+00
  0.00000000E+00  0.00000000E+00  0.00000000E+00
  0.00000000E+00  0.00000000E+00  0.00000000E+00
  0.00000000E+00  0.00000000E+00  0.00000000E+00
  0.00000000E+00  0.00000000E+00  0.00000000E+00
  0.00000000E+00  0.00000000E+00  0.00000000E+00
  0.00000000E+00  0.00000000E+00  0.00000000E+00
  0.00000000E+00  0.00000000E+00  0.00000000E+00
  0.00000000E+00  0.00000000E+00  0.00000000E+00
  0.00000000E+00  0.00000000E+00  0.00000000E+00
  0.00000000E+00  0.00000000E+00  0.00000000E+00
  0.00000000E+00  0.00000000E+00  0.00000000E+00
  0.00000000E+00  0.00000000E+00  0.00000000E+00
  0.00000000E+00  0.00000000E+00  0.00000000E+00
  0.00000000E+00  0.00000000E+00  0.00000000E+00
  0.00000000E+00  0.00000000E+00  0.00000000E+00
  0.00000000E+00  0.00000000E+00  0.00000000E+00
  0.00000000E+00  0.00000000E+00  0.00000000E+00
  0.00000000E+00  0.00000000E+00  0.00000000E+00
  0.00000000E+00  0.00000000E+00  0.00000000E+00
  0.00000000E+00  0.00000000E+00  0.00000000E+00
  0.00000000E+00  0.00000000E+00  0.00000000E+00
  0.00000000E+00  0.00000000E+00  0.00000000E+00
  0.00000000E+00  0.00000000E+00  0.00000000E+00
  0.00000000E+00  0.00000000E+00  0.00000000E+00
