Na6 Mg6 Ga6 P12                         
   1.00000000000000     
    -3.3206237059853652   -6.8364719195013688    0.2861585410627971
    -3.3060036520110336    6.8281433702323504    0.2625445830503271
     0.7994636983135270    0.0258443737355647  -14.2352501537633014
   Ga   Na   P    Mg
     6     6    12     6
Direct
  0.8356554396937659  0.5309967920858187  0.1777028350081221
  0.5302632781998323  0.8395898258045853  0.1798694284891199
  0.1645942772464714  0.4693268634097614  0.8217204380596146
  0.4696871065626628  0.1614919523057845  0.8215931054500455
  0.4024035672895861  0.4039657079474642  0.5876233735390187
  0.5970708876062860  0.5972097769939284  0.4123125854802885
  0.1373103343751046  0.4687450109373766  0.3142705205526915
  0.4667476283104549  0.1380532203664628  0.3147655627183771
  0.8612179212781645  0.5312139924167555  0.6857762827270268
  0.5340590188116784  0.8644907742352025  0.6849244951916011
  0.2791909734311982  0.2801922343884625  0.0823690937191402
  0.7202137582364412  0.7162683822698992  0.9181859241814453
  0.8733467680002461  0.5826263741262037  0.3555584275219278
  0.5831020083626524  0.8752813744538888  0.3560740142219598
  0.1260965311021992  0.4183886120221627  0.6441418864085743
  0.4164465707779660  0.1262223257833236  0.6441515470675828
  0.1374671137893577  0.5381437509113202  0.1259770510003307
  0.5343765106435653  0.1379531868700729  0.1255179869824488
  0.8631641387069819  0.4606116640413854  0.8748250998223311
  0.4667750228868789  0.8618787944259313  0.8737460029464791
  0.2393206897423465  0.2403993377248315  0.4233653241137169
  0.7606240491879507  0.7610939654499072  0.5762672235677001
  0.8129160735363032  0.8170381207982496  0.1228219394147032
  0.1867455733923118  0.1840962833783452  0.8774001655663746
  0.9237770280003902  0.9237724843717957  0.2972346459941533
  0.0762927108860515  0.0763809919978009  0.7027483401381831
  0.8719789347313315  0.1288304584762098  0.4995844601951215
  0.1277594932332838  0.8721488096258092  0.4996537162506327
  0.7927947575185643  0.2023348412266800  0.0017171176627208
  0.2086018344599869  0.7912540911546023 -0.0018985939914379
 
  0.00000000E+00  0.00000000E+00  0.00000000E+00
  0.00000000E+00  0.00000000E+00  0.00000000E+00
  0.00000000E+00  0.00000000E+00  0.00000000E+00
  0.00000000E+00  0.00000000E+00  0.00000000E+00
  0.00000000E+00  0.00000000E+00  0.00000000E+00
  0.00000000E+00  0.00000000E+00  0.00000000E+00
  0.00000000E+00  0.00000000E+00  0.00000000E+00
  0.00000000E+00  0.00000000E+00  0.00000000E+00
  0.00000000E+00  0.00000000E+00  0.00000000E+00
  0.00000000E+00  0.00000000E+00  0.00000000E+00
  0.00000000E+00  0.00000000E+00  0.00000000E+00
  0.00000000E+00  0.00000000E+00  0.00000000E+00
  0.00000000E+00  0.00000000E+00  0.00000000E+00
  0.00000000E+00  0.00000000E+00  0.00000000E+00
  0.00000000E+00  0.00000000E+00  0.00000000E+00
  0.00000000E+00  0.00000000E+00  0.00000000E+00
  0.00000000E+00  0.00000000E+00  0.00000000E+00
  0.00000000E+00  0.00000000E+00  0.00000000E+00
  0.00000000E+00  0.00000000E+00  0.00000000E+00
  0.00000000E+00  0.00000000E+00  0.00000000E+00
  0.00000000E+00  0.00000000E+00  0.00000000E+00
  0.00000000E+00  0.00000000E+00  0.00000000E+00
  0.00000000E+00  0.00000000E+00  0.00000000E+00
  0.00000000E+00  0.00000000E+00  0.00000000E+00
  0.00000000E+00  0.00000000E+00  0.00000000E+00
  0.00000000E+00  0.00000000E+00  0.00000000E+00
  0.00000000E+00  0.00000000E+00  0.00000000E+00
  0.00000000E+00  0.00000000E+00  0.00000000E+00
  0.00000000E+00  0.00000000E+00  0.00000000E+00
  0.00000000E+00  0.00000000E+00  0.00000000E+00
