K6 Mg6 Al6 P12                          
   1.00000000000000     
    -3.3148027331978103   -7.3866113248764664    0.4096266390632209
    -3.3173336683878984    7.3892144197273009    0.4306832361162781
     1.4327268261778758   -0.0223097575619598  -14.8382065982078224
   Al   K    P    Mg
     6     6    12     6
Direct
  0.8321412730953825  0.5316546592595837  0.1831229096968639
  0.5328653031057772  0.8317072435618397  0.1831117126813765
  0.1673657571330360  0.4678729427768661  0.8170937862515978
  0.4665777049768067  0.1674893899984063  0.8167272239250573
  0.4144387530311394  0.4132694962275931  0.5865356886210097
  0.5867313380356817  0.5872534543350866  0.4132735324692425
  0.0507363092040899  0.3828642508723127  0.3059258417540151
  0.3826521693774513  0.0502759837884139  0.3050432928217708
  0.9498055988942671  0.6174954113140078  0.6942472131409949
  0.6180610323292611  0.9492480166728249  0.6955821942495667
  0.2692683067933418  0.2684133668490213  0.0856249936421056
  0.7297821926189257  0.7312217192339016  0.9137927955863631
  0.8490955362078592  0.5789628656563681  0.3540082353616182
  0.5802695315727121  0.8508842824959112  0.3550322660683224
  0.1521901961105605  0.4220438818843836  0.6459422618761190
  0.4207535303775970  0.1493940670931326  0.6447778710315951
  0.1324455203841335  0.5580163393848036  0.1288078897325523
  0.5599524551647546  0.1318205547118032  0.1284929758940664
  0.8666052295142006  0.4412819235271596  0.8712796417968289
  0.4385347834463976  0.8675907383892103  0.8719978079292129
  0.2386093103520056  0.2387940605888992  0.4301755566101148
  0.7624980114517299  0.7617507956562091  0.5696290843112352
  0.7915723583163710  0.7902651759096653  0.1366869323591232
  0.2073274325622861  0.2084116152415679  0.8628988607251197
  0.8938194265035617  0.8938568716960327  0.3074255957696088
  0.1074054601072307  0.1073360561762746  0.6922199339082133
  0.8866221903165432  0.1148408977990121  0.5014086491926679
  0.1145688760687324  0.8858725215574836  0.4984992283760319
  0.7744718031214276  0.2254832648050081  0.9993497342462149
  0.2228326098267152  0.7746281525372319  0.0012862899713772
 
  0.00000000E+00  0.00000000E+00  0.00000000E+00
  0.00000000E+00  0.00000000E+00  0.00000000E+00
  0.00000000E+00  0.00000000E+00  0.00000000E+00
  0.00000000E+00  0.00000000E+00  0.00000000E+00
  0.00000000E+00  0.00000000E+00  0.00000000E+00
  0.00000000E+00  0.00000000E+00  0.00000000E+00
  0.00000000E+00  0.00000000E+00  0.00000000E+00
  0.00000000E+00  0.00000000E+00  0.00000000E+00
  0.00000000E+00  0.00000000E+00  0.00000000E+00
  0.00000000E+00  0.00000000E+00  0.00000000E+00
  0.00000000E+00  0.00000000E+00  0.00000000E+00
  0.00000000E+00  0.00000000E+00  0.00000000E+00
  0.00000000E+00  0.00000000E+00  0.00000000E+00
  0.00000000E+00  0.00000000E+00  0.00000000E+00
  0.00000000E+00  0.00000000E+00  0.00000000E+00
  0.00000000E+00  0.00000000E+00  0.00000000E+00
  0.00000000E+00  0.00000000E+00  0.00000000E+00
  0.00000000E+00  0.00000000E+00  0.00000000E+00
  0.00000000E+00  0.00000000E+00  0.00000000E+00
  0.00000000E+00  0.00000000E+00  0.00000000E+00
  0.00000000E+00  0.00000000E+00  0.00000000E+00
  0.00000000E+00  0.00000000E+00  0.00000000E+00
  0.00000000E+00  0.00000000E+00  0.00000000E+00
  0.00000000E+00  0.00000000E+00  0.00000000E+00
  0.00000000E+00  0.00000000E+00  0.00000000E+00
  0.00000000E+00  0.00000000E+00  0.00000000E+00
  0.00000000E+00  0.00000000E+00  0.00000000E+00
  0.00000000E+00  0.00000000E+00  0.00000000E+00
  0.00000000E+00  0.00000000E+00  0.00000000E+00
  0.00000000E+00  0.00000000E+00  0.00000000E+00
