Li4 Mg4 Al4 P8                          
   1.00000000000000     
     6.3640739496871452    0.0002314170116538   -0.0109197232995812
     0.0002889035609048    7.9694969152185280   -0.0002258724431169
     0.0214779135572062   -0.0001928817610651    6.8303559828520051
   Li   Mg   Al   P 
     4     4     4     8
Direct
  0.3567846019659296  0.3837823159896837  0.9163928344458232
  0.6431788589714759  0.8837957204192656  0.5835922599988118
  0.6432029149532825  0.6162061550202599  0.0835978083391130
  0.3567953288040617  0.1162162107588689  0.4164057985243617
  0.0056631993570360  0.1269542467207493  0.7490878675875740
  0.9943393941811633  0.6269264989739796  0.7509203105109165
  0.9943380094446576  0.8730770736692880  0.2509289586758373
  0.0056594154039142  0.3730755096947062  0.2490835113380773
  0.6272500874589982  0.3665372348523896  0.5794807064991179
  0.3727663559158462  0.8665326016964502  0.9205331732345909
  0.3727615249974862  0.6334596179981165  0.4205141553944636
  0.6272437937397835  0.1334576454756133  0.0794682815554813
  0.2403782148614135  0.8646158956217137  0.5977748706368995
  0.7596622317103484  0.3646058391547747  0.9022193629679977
  0.7596390089715579  0.1353815347464781  0.4022222214308748
  0.2403519043784826  0.6353798438452182  0.0977711042146296
  0.2509610272696947  0.3853577125657408  0.5710941960770591
  0.7490248819181333  0.8853357406543833  0.9289102053688647
  0.7490342869712523  0.6146439812830307  0.4289065521975582
  0.2509649587254890  0.1146586208592828  0.0710958210019554
 
  0.00000000E+00  0.00000000E+00  0.00000000E+00
  0.00000000E+00  0.00000000E+00  0.00000000E+00
  0.00000000E+00  0.00000000E+00  0.00000000E+00
  0.00000000E+00  0.00000000E+00  0.00000000E+00
  0.00000000E+00  0.00000000E+00  0.00000000E+00
  0.00000000E+00  0.00000000E+00  0.00000000E+00
  0.00000000E+00  0.00000000E+00  0.00000000E+00
  0.00000000E+00  0.00000000E+00  0.00000000E+00
  0.00000000E+00  0.00000000E+00  0.00000000E+00
  0.00000000E+00  0.00000000E+00  0.00000000E+00
  0.00000000E+00  0.00000000E+00  0.00000000E+00
  0.00000000E+00  0.00000000E+00  0.00000000E+00
  0.00000000E+00  0.00000000E+00  0.00000000E+00
  0.00000000E+00  0.00000000E+00  0.00000000E+00
  0.00000000E+00  0.00000000E+00  0.00000000E+00
  0.00000000E+00  0.00000000E+00  0.00000000E+00
  0.00000000E+00  0.00000000E+00  0.00000000E+00
  0.00000000E+00  0.00000000E+00  0.00000000E+00
  0.00000000E+00  0.00000000E+00  0.00000000E+00
  0.00000000E+00  0.00000000E+00  0.00000000E+00
