Li4 Zn4 Ga4 P8                          
   1.00000000000000     
     6.7663468952450732    0.0001668853047833   -0.0518036964879632
    -0.0000273334423415    7.1072080474847903    0.0003061543970239
    -0.0137036000386981    0.0004066984724462    7.5920772942075896
   Li   Zn   Ga   P 
     4     4     4     8
Direct
  0.2119297892887590  0.4752545755590854  0.8457330032945088
  0.7878124545160106  0.9752456608046448  0.6543911671503908
  0.7882861589361045  0.5247239615043817  0.1540782798226833
  0.2119872324274160  0.0247216689445853  0.3458119554216394
  0.1682696525900176  0.1396977636199695  0.7448347700326671
  0.8317323577221950  0.6397000013722518  0.7551624147502852
  0.8317237874495496  0.8602963437904815  0.2551789616184026
  0.1682748783650218  0.3602909621456182  0.2448273265417111
  0.6779881820215744  0.3466677899018182  0.5064644700133264
  0.3220648517575158  0.8466220587291622  0.9935099711728731
  0.3219853154006337  0.6533392917769518  0.4935209285666424
  0.6779458505181768  0.1533917360010243  0.0064985537951756
  0.1419196886110039  0.8032563777604130  0.7194435965977805
  0.8580829886219979  0.3032525817075156  0.7805493587078867
  0.8580734402786172  0.1967522965568659  0.2805599357870427
  0.1419210577127274  0.6967579410788345  0.2194362782697208
  0.3343153255367882  0.3136707055320042  0.5276437061733722
  0.6657145926957687  0.8137026438443931  0.9723353677157122
  0.6656704002626808  0.6863439145448045  0.4723611507314167
  0.3343019952874484  0.1863117248251810  0.0276588038367836
 
  0.00000000E+00  0.00000000E+00  0.00000000E+00
  0.00000000E+00  0.00000000E+00  0.00000000E+00
  0.00000000E+00  0.00000000E+00  0.00000000E+00
  0.00000000E+00  0.00000000E+00  0.00000000E+00
  0.00000000E+00  0.00000000E+00  0.00000000E+00
  0.00000000E+00  0.00000000E+00  0.00000000E+00
  0.00000000E+00  0.00000000E+00  0.00000000E+00
  0.00000000E+00  0.00000000E+00  0.00000000E+00
  0.00000000E+00  0.00000000E+00  0.00000000E+00
  0.00000000E+00  0.00000000E+00  0.00000000E+00
  0.00000000E+00  0.00000000E+00  0.00000000E+00
  0.00000000E+00  0.00000000E+00  0.00000000E+00
  0.00000000E+00  0.00000000E+00  0.00000000E+00
  0.00000000E+00  0.00000000E+00  0.00000000E+00
  0.00000000E+00  0.00000000E+00  0.00000000E+00
  0.00000000E+00  0.00000000E+00  0.00000000E+00
  0.00000000E+00  0.00000000E+00  0.00000000E+00
  0.00000000E+00  0.00000000E+00  0.00000000E+00
  0.00000000E+00  0.00000000E+00  0.00000000E+00
  0.00000000E+00  0.00000000E+00  0.00000000E+00
