Na4 Zn4 Ga4 N8                          
   1.00000000000000     
     5.8868568333587019   -0.0002691090384728   -0.5482408182259046
    -0.0003135060015253    8.1939596240645063    0.0004575519040955
    -0.5360993973276537    0.0004261771553299    6.0652504209233502
   Na   Zn   Ga   N 
     4     4     4     8
Direct
  0.2635363400248660  0.4894068367674106  0.8770598236407154
  0.7367040535666740  0.9894490121609875  0.6229974107964463
  0.7365411016381898  0.5105852710682767  0.1230157022111506
  0.2636268035239877  0.0105902325168462  0.3769984395376961
  0.0385838690250178  0.1979595697670118  0.9284496369009698
  0.9614021794622303  0.6978700996900234  0.5715601752597785
  0.9614280378797042  0.8020845623436078  0.0715392653521952
  0.0385336390746733  0.3020015758247684  0.4284864340801205
  0.6242492901337716  0.3589784516546955  0.5722985075441602
  0.3756874651112119  0.8590072346398285  0.9276686865867819
  0.3756533010948359  0.6409883193845920  0.4277160461707580
  0.6243164685095438  0.1410169425923484  0.0722470442186583
  0.2489064583180154  0.7934283024518461  0.6252445399701555
  0.7510762523580133  0.2934315530677298  0.8747470095597595
  0.7509204530299594  0.2066252452083019  0.3746938190669412
  0.2489562986132087  0.7065668789206676  0.1252697708750708
  0.3017319383178230  0.4142459786207854  0.5085364413617783
  0.6981958268380297  0.9142724671185155  0.9916300969820385
  0.6981384611618320  0.5857181499765520  0.4916289926831572
  0.3018117623184114  0.0857733162252273  0.0082121572016676
 
  0.00000000E+00  0.00000000E+00  0.00000000E+00
  0.00000000E+00  0.00000000E+00  0.00000000E+00
  0.00000000E+00  0.00000000E+00  0.00000000E+00
  0.00000000E+00  0.00000000E+00  0.00000000E+00
  0.00000000E+00  0.00000000E+00  0.00000000E+00
  0.00000000E+00  0.00000000E+00  0.00000000E+00
  0.00000000E+00  0.00000000E+00  0.00000000E+00
  0.00000000E+00  0.00000000E+00  0.00000000E+00
  0.00000000E+00  0.00000000E+00  0.00000000E+00
  0.00000000E+00  0.00000000E+00  0.00000000E+00
  0.00000000E+00  0.00000000E+00  0.00000000E+00
  0.00000000E+00  0.00000000E+00  0.00000000E+00
  0.00000000E+00  0.00000000E+00  0.00000000E+00
  0.00000000E+00  0.00000000E+00  0.00000000E+00
  0.00000000E+00  0.00000000E+00  0.00000000E+00
  0.00000000E+00  0.00000000E+00  0.00000000E+00
  0.00000000E+00  0.00000000E+00  0.00000000E+00
  0.00000000E+00  0.00000000E+00  0.00000000E+00
  0.00000000E+00  0.00000000E+00  0.00000000E+00
  0.00000000E+00  0.00000000E+00  0.00000000E+00
