Na4 Ca4 In4 P8                          
   1.00000000000000     
     6.9441251335094947   -0.0000146457924392   -0.0518802706915284
    -0.0000188711006273    8.8973562786436773   -0.0000045233318049
    -0.0071057415340959   -0.0000040576605256    7.5390651568474301
   Na   Ca   In   P 
     4     4     4     8
Direct
  0.3591204275087416  0.3867982246542608  0.9155010903911389
  0.6408741363985628  0.8867957802512928  0.5844996507188539
  0.6408811788135998  0.6132013056356819  0.0844974813939587
  0.3591235881946461  0.1132022408920006  0.4155006246247276
  0.0064355166404134  0.1224767364231267  0.7451881303475424
  0.9935647455705451  0.6224766965750643  0.7548115369571674
  0.9935645339992354  0.8775237366341192  0.2548122076367120
  0.0064354162340753  0.3775236051712610  0.2451886264992492
  0.6333007639853396  0.3631616246484523  0.5782040571275644
  0.3666990488838254  0.8631615586555830  0.9217964233678095
  0.3666991273558099  0.6368384156608070  0.4217959290361205
  0.6333011455612295  0.1368387620636766  0.0782037703195345
  0.2254137127414807  0.8603204341669387  0.5993621721199491
  0.7745864422658629  0.3603200603493994  0.9006378500559633
  0.7745862713892634  0.1396799161042820  0.4006381173196301
  0.2254138771265197  0.6396802269955144  0.0993621818189498
  0.2534657516611276  0.3885456226746880  0.5652901932374109
  0.7465346392072482  0.8885463274424764  0.9347100784733877
  0.7465346168637841  0.6114546122282587  0.4347101095448636
  0.2534650595986967  0.1114541127730945  0.0652897690094599
 
  0.00000000E+00  0.00000000E+00  0.00000000E+00
  0.00000000E+00  0.00000000E+00  0.00000000E+00
  0.00000000E+00  0.00000000E+00  0.00000000E+00
  0.00000000E+00  0.00000000E+00  0.00000000E+00
  0.00000000E+00  0.00000000E+00  0.00000000E+00
  0.00000000E+00  0.00000000E+00  0.00000000E+00
  0.00000000E+00  0.00000000E+00  0.00000000E+00
  0.00000000E+00  0.00000000E+00  0.00000000E+00
  0.00000000E+00  0.00000000E+00  0.00000000E+00
  0.00000000E+00  0.00000000E+00  0.00000000E+00
  0.00000000E+00  0.00000000E+00  0.00000000E+00
  0.00000000E+00  0.00000000E+00  0.00000000E+00
  0.00000000E+00  0.00000000E+00  0.00000000E+00
  0.00000000E+00  0.00000000E+00  0.00000000E+00
  0.00000000E+00  0.00000000E+00  0.00000000E+00
  0.00000000E+00  0.00000000E+00  0.00000000E+00
  0.00000000E+00  0.00000000E+00  0.00000000E+00
  0.00000000E+00  0.00000000E+00  0.00000000E+00
  0.00000000E+00  0.00000000E+00  0.00000000E+00
  0.00000000E+00  0.00000000E+00  0.00000000E+00
