Na6 Sr6 In6 N12                         
   1.00000000000000     
    -3.1896266712755739   -5.8981969805980716    0.1058290958447756
    -3.1896268401740677    5.8981970574921778    0.1058288516935720
     0.1207304769914118    0.0000003005997105  -13.3654482286843841
   In   Na   N    Sr
     6     6    12     6
Direct
  0.8184576747237488  0.4948713431222392  0.1775139245309620
  0.4948713497233966  0.8184576923391179  0.1775139592558992
  0.1815420077324802  0.5051295820542299  0.8224860841577769
  0.5051295477053156  0.1815420352251454  0.8224860785513345
  0.3872995205537597  0.3872995121033641  0.5902045546766000
  0.6127006583130289  0.6127006684127452  0.4097954417944752
  0.1804668399304827  0.5301757652009780  0.3224115082549993
  0.5301756069195823  0.1804665475478072  0.3224115084572648
  0.8195316392188967  0.4698246514683086  0.6775884342372258
  0.4698246576673417  0.8195316685972410  0.6775884356306234
  0.3725997388185632  0.3725997311543899  0.0709946720262093
  0.6274012642489208  0.6274012924071675  0.9290016832924295
  0.8894634215745252  0.5956495210750911  0.3424314358439984
  0.5956495967590876  0.8894634981984516  0.3424314167570893
  0.1105366220904457  0.4043490044755730  0.6575695041928611
  0.4043489858859526  0.1105366113324829  0.6575695241097651
  0.1379856692052508  0.5057565715823662  0.1350900601250322
  0.5057563727822101  0.1379856857405998  0.1350901695758506
  0.8620148003830606  0.4942447178406174  0.8649095355311136
  0.4942446568971786  0.8620148329188659  0.8649095500791556
  0.2607325451099197  0.2607324505897357  0.4272313330559157
  0.7392661309821249  0.7392661242432382  0.5727686444416515
  0.7769380862431532  0.7769381310592466  0.1046364600176545
  0.2230605765483872  0.2230606402583286  0.8953627862183414
  0.0174565060187665  0.0174562622671728  0.2605295162073790
  0.9825514183697944  0.9825514429120352  0.7394714598362609
  0.8452979055746969  0.1546973604288530  0.5000007121408406
  0.1546975224884289  0.8452979246343829  0.5000007101566388
  0.8380173880983919  0.1619813282536585  0.0000004448226544
  0.1619812894331090  0.8380174025565664  0.0000004520220039
 
  0.00000000E+00  0.00000000E+00  0.00000000E+00
  0.00000000E+00  0.00000000E+00  0.00000000E+00
  0.00000000E+00  0.00000000E+00  0.00000000E+00
  0.00000000E+00  0.00000000E+00  0.00000000E+00
  0.00000000E+00  0.00000000E+00  0.00000000E+00
  0.00000000E+00  0.00000000E+00  0.00000000E+00
  0.00000000E+00  0.00000000E+00  0.00000000E+00
  0.00000000E+00  0.00000000E+00  0.00000000E+00
  0.00000000E+00  0.00000000E+00  0.00000000E+00
  0.00000000E+00  0.00000000E+00  0.00000000E+00
  0.00000000E+00  0.00000000E+00  0.00000000E+00
  0.00000000E+00  0.00000000E+00  0.00000000E+00
  0.00000000E+00  0.00000000E+00  0.00000000E+00
  0.00000000E+00  0.00000000E+00  0.00000000E+00
  0.00000000E+00  0.00000000E+00  0.00000000E+00
  0.00000000E+00  0.00000000E+00  0.00000000E+00
  0.00000000E+00  0.00000000E+00  0.00000000E+00
  0.00000000E+00  0.00000000E+00  0.00000000E+00
  0.00000000E+00  0.00000000E+00  0.00000000E+00
  0.00000000E+00  0.00000000E+00  0.00000000E+00
  0.00000000E+00  0.00000000E+00  0.00000000E+00
  0.00000000E+00  0.00000000E+00  0.00000000E+00
  0.00000000E+00  0.00000000E+00  0.00000000E+00
  0.00000000E+00  0.00000000E+00  0.00000000E+00
  0.00000000E+00  0.00000000E+00  0.00000000E+00
  0.00000000E+00  0.00000000E+00  0.00000000E+00
  0.00000000E+00  0.00000000E+00  0.00000000E+00
  0.00000000E+00  0.00000000E+00  0.00000000E+00
  0.00000000E+00  0.00000000E+00  0.00000000E+00
  0.00000000E+00  0.00000000E+00  0.00000000E+00
