Na6 Sr6 In6 P12                         
   1.00000000000000     
    -3.6782200814988264   -6.8458322371834122    0.0580649120847012
    -3.6782198385616369    6.8458319678003692    0.0580664334773301
    -0.1145429802310747   -0.0000018231394031  -15.3588061626970145
   In   Na   P    Sr
     6     6    12     6
Direct
  0.8182313522882029  0.4976953699261255  0.1803759480672091
  0.4976952412239365  0.8182316941633250  0.1803758858471167
  0.1817846366170975  0.5023107986512972  0.8196240654777963
  0.5023113051247033  0.1817846692965336  0.8196240040458923
  0.3838723475763627  0.3838723507514756  0.5846453250484193
  0.6161214985769874  0.6161214032792638  0.4153558387072778
  0.1930309400569166  0.5197804715526458  0.3208690937594230
  0.5197825540086927  0.1930331616597764  0.3208695852206516
  0.8069694265338001  0.4802160832405876  0.6791299116998796
  0.4802122110391777  0.8069644785598989  0.6791299482640923
  0.3795655865144832  0.3795655872614008  0.0718000598333428
  0.6204406647460553  0.6204408246335665  0.9281959629543833
  0.8906150803128817  0.5847242278933545  0.3472209466192470
  0.5847257072886798  0.8906152541498821  0.3472206785845923
  0.1093824533778658  0.4152720447329475  0.6527805561203907
  0.4152705156530502  0.1093822003754312  0.6527808684646809
  0.1353484757846593  0.4966902736378951  0.1361908288666638
  0.4966896265007322  0.1353480047272567  0.1361905676140979
  0.8646768372296030  0.5033236385990038  0.8638061122432237
  0.5033233670231009  0.8646770033215331  0.8638066009749659
  0.2550550543414023  0.2550547255668405  0.4235360553770116
  0.7449324240307025  0.7449322737237050  0.5764683584650409
  0.7738723816633142  0.7738714124057652  0.1009575869749552
  0.2261242042098717  0.2261245690647829  0.8990390347654996
  0.0041830982519631  0.0041841818980640  0.2606956004788423
  0.9957976647250257  0.9957966686059813  0.7393075089158482
  0.8395207499224788  0.1604721036608898  0.5000013686213987
  0.1604706046870559  0.8395189357305411  0.5000019149523618
  0.8324951762109591  0.1674996455603715 -0.0000000435531211
  0.1674988144802377  0.8324959433698514 -0.0000001734111826
 
  0.00000000E+00  0.00000000E+00  0.00000000E+00
  0.00000000E+00  0.00000000E+00  0.00000000E+00
  0.00000000E+00  0.00000000E+00  0.00000000E+00
  0.00000000E+00  0.00000000E+00  0.00000000E+00
  0.00000000E+00  0.00000000E+00  0.00000000E+00
  0.00000000E+00  0.00000000E+00  0.00000000E+00
  0.00000000E+00  0.00000000E+00  0.00000000E+00
  0.00000000E+00  0.00000000E+00  0.00000000E+00
  0.00000000E+00  0.00000000E+00  0.00000000E+00
  0.00000000E+00  0.00000000E+00  0.00000000E+00
  0.00000000E+00  0.00000000E+00  0.00000000E+00
  0.00000000E+00  0.00000000E+00  0.00000000E+00
  0.00000000E+00  0.00000000E+00  0.00000000E+00
  0.00000000E+00  0.00000000E+00  0.00000000E+00
  0.00000000E+00  0.00000000E+00  0.00000000E+00
  0.00000000E+00  0.00000000E+00  0.00000000E+00
  0.00000000E+00  0.00000000E+00  0.00000000E+00
  0.00000000E+00  0.00000000E+00  0.00000000E+00
  0.00000000E+00  0.00000000E+00  0.00000000E+00
  0.00000000E+00  0.00000000E+00  0.00000000E+00
  0.00000000E+00  0.00000000E+00  0.00000000E+00
  0.00000000E+00  0.00000000E+00  0.00000000E+00
  0.00000000E+00  0.00000000E+00  0.00000000E+00
  0.00000000E+00  0.00000000E+00  0.00000000E+00
  0.00000000E+00  0.00000000E+00  0.00000000E+00
  0.00000000E+00  0.00000000E+00  0.00000000E+00
  0.00000000E+00  0.00000000E+00  0.00000000E+00
  0.00000000E+00  0.00000000E+00  0.00000000E+00
  0.00000000E+00  0.00000000E+00  0.00000000E+00
  0.00000000E+00  0.00000000E+00  0.00000000E+00
