Na4 Mg4 Ga4 P8                          
   1.00000000000000     
     7.0724172953603457   -0.0011160836244551   -0.0159379352286976
     0.0009598489568843    7.3007016880362352   -0.0001144350888996
     0.0081005764294328    0.0002185414998067    8.0384747005755131
   Na   Mg   Ga   P 
     4     4     4     8
Direct
  0.4294075670957999  0.4915975521811141  0.8161138585273108
  0.5705465209338773  0.9914342990683889  0.6837947357713809
  0.5705867253392436  0.5084667890707981  0.1838987818159870
  0.4294181387931374  0.0084775980538533  0.3160967794598473
  0.1339537556444009  0.1541889429903569  0.7350458582625933
  0.8660436810825092  0.6542021595163984  0.7649496919880112
  0.8660500517543197  0.8458093668949029  0.2649574995308609
  0.1339457060053000  0.3458012222767744  0.2350492255748947
  0.6708356027570864  0.3524650325611646  0.5121862595975235
  0.3291610246540003  0.8524919934141078  0.9878353850101519
  0.3291637012400356  0.6475238040013538  0.4878347785270426
  0.6708399175004267  0.1475218737471584  0.0121705073511381
  0.1825618774622403  0.8046049605824404  0.7187315285465272
  0.8174500184759917  0.3045654628626873  0.7812884080823703
  0.8174515478375968  0.1953964347794557  0.2812971176845311
  0.1825632867210399  0.6954525495436452  0.2187445401361245
  0.3289253262923205  0.3167680028641268  0.5113785257232653
  0.6710613941005629  0.8167700447810649  0.9886176597471650
  0.6710922719488539  0.6831888969285181  0.4886274477885728
  0.3289418843612626  0.1832730138816693  0.0113814108747235
 
  0.00000000E+00  0.00000000E+00  0.00000000E+00
  0.00000000E+00  0.00000000E+00  0.00000000E+00
  0.00000000E+00  0.00000000E+00  0.00000000E+00
  0.00000000E+00  0.00000000E+00  0.00000000E+00
  0.00000000E+00  0.00000000E+00  0.00000000E+00
  0.00000000E+00  0.00000000E+00  0.00000000E+00
  0.00000000E+00  0.00000000E+00  0.00000000E+00
  0.00000000E+00  0.00000000E+00  0.00000000E+00
  0.00000000E+00  0.00000000E+00  0.00000000E+00
  0.00000000E+00  0.00000000E+00  0.00000000E+00
  0.00000000E+00  0.00000000E+00  0.00000000E+00
  0.00000000E+00  0.00000000E+00  0.00000000E+00
  0.00000000E+00  0.00000000E+00  0.00000000E+00
  0.00000000E+00  0.00000000E+00  0.00000000E+00
  0.00000000E+00  0.00000000E+00  0.00000000E+00
  0.00000000E+00  0.00000000E+00  0.00000000E+00
  0.00000000E+00  0.00000000E+00  0.00000000E+00
  0.00000000E+00  0.00000000E+00  0.00000000E+00
  0.00000000E+00  0.00000000E+00  0.00000000E+00
  0.00000000E+00  0.00000000E+00  0.00000000E+00
