Li8 P4 Mg2                              
   1.00000000000000     
     4.1848357042575630   -0.0121144468044564    0.3604842107848836
    -0.0182360842653700    4.2825674178586741    0.3754236122189776
    -1.0474021978176171   -1.0312462308023038   11.8831482743218526
   Li   P    Mg
     8     4     2
Direct
  0.2506315252726809  0.7465989650792504  0.7623063069575745
  0.2599338296420263  0.2536036941697692  0.3781174518421636
  0.7493776388710602  0.2533793551352317  0.2377138932550500
  0.7400770978879476  0.7464105386942282  0.6218868866288204
  0.7493786119567775  0.2504240621306851  0.0093956758732274
  0.2451956831909670  0.7513684925054562  0.5008202965402431
  0.2505735707472332  0.7496217325686761  0.9905871526626209
  0.7548417876753374  0.2485738724203040  0.4991813517121793
  0.7458325789575326  0.7503528222734341  0.3794690210797194
  0.7509786040816125  0.7468073934226336  0.8688022653399287
  0.2542145896706435  0.2496615729001298  0.6205219464341177
  0.2490036626858415  0.2531864859475485  0.1311752726328339
  0.2433580900507023  0.7532838272796195  0.2341344462055681
  0.7566027293096373  0.2467271854730405  0.7658880328359461
 
  0.00000000E+00  0.00000000E+00  0.00000000E+00
  0.00000000E+00  0.00000000E+00  0.00000000E+00
  0.00000000E+00  0.00000000E+00  0.00000000E+00
  0.00000000E+00  0.00000000E+00  0.00000000E+00
  0.00000000E+00  0.00000000E+00  0.00000000E+00
  0.00000000E+00  0.00000000E+00  0.00000000E+00
  0.00000000E+00  0.00000000E+00  0.00000000E+00
  0.00000000E+00  0.00000000E+00  0.00000000E+00
  0.00000000E+00  0.00000000E+00  0.00000000E+00
  0.00000000E+00  0.00000000E+00  0.00000000E+00
  0.00000000E+00  0.00000000E+00  0.00000000E+00
  0.00000000E+00  0.00000000E+00  0.00000000E+00
  0.00000000E+00  0.00000000E+00  0.00000000E+00
  0.00000000E+00  0.00000000E+00  0.00000000E+00
