Na6 Ca6 Al6 P12                         
   1.00000000000000     
    -3.4747432233794355   -6.6087943101139155    0.0932294862520966
    -3.4747429449726011    6.6087941528016430    0.0932288619327169
     0.0465852690663939    0.0000006647030446  -14.5648736943637367
   Al   Na   P    Ca
     6     6    12     6
Direct
  0.8284873383287978  0.5077445038252144  0.1800660272570001
  0.5077444911259712  0.8284873071777853  0.1800660232718941
  0.1715137987752753  0.4922583399727041  0.8199328626492350
  0.4922583882641073  0.1715139025821523  0.8199328716893514
  0.3868815823893622  0.3868815357342429  0.5836005479455511
  0.6131177011995582  0.6131177268320449  0.4163997561578702
  0.1802006888962966  0.5134490279139461  0.3209637935045493
  0.5134490271196500  0.1802006856527520  0.3209638173675068
  0.8197990431794432  0.4865495490103658  0.6790359436895274
  0.4865497148043527  0.8197991869510376  0.6790358827992855
  0.3686484646351073  0.3686484646434612  0.0761729079290785
  0.6313555557248347  0.6313555628444310  0.9238280635446477
  0.8794807294989418  0.5898310540209883  0.3466135795474718
  0.5898310632470343  0.8794807827680947  0.3466135729968853
  0.1205221732749934  0.4101744592833348  0.6533858379165098
  0.4101744985597073  0.1205221071465381  0.6533858292758710
  0.1431613935015714  0.5279584748692125  0.1339091956906764
  0.5279585436961217  0.1431614130766313  0.1339091637436904
  0.8568400007762543  0.4720433460983482  0.8660905086802388
  0.4720431600862256  0.8568400065079934  0.8660906361144055
  0.2638395605146224  0.2638395593462866  0.4281002412775229
  0.7361541490827118  0.7361541923421512  0.5719028416202605
  0.7760068119436779  0.7760068211231128  0.1081966656714590
  0.2239901252444416  0.2239901496541307  0.8917996296160967
  0.9946011773803427  0.9946012434531042  0.2692084371190908
  0.0054001897455911  0.0053999753386118  0.7307864361619717
  0.8450145596275298  0.1549723287996293  0.5000048781913984
  0.1549723908686691  0.8450145596924999  0.5000048556606130
  0.8353681294636955  0.1646355980070040 -0.0000004024395539
  0.1646355490451392  0.8353681353321978 -0.0000004046501057
 
  0.00000000E+00  0.00000000E+00  0.00000000E+00
  0.00000000E+00  0.00000000E+00  0.00000000E+00
  0.00000000E+00  0.00000000E+00  0.00000000E+00
  0.00000000E+00  0.00000000E+00  0.00000000E+00
  0.00000000E+00  0.00000000E+00  0.00000000E+00
  0.00000000E+00  0.00000000E+00  0.00000000E+00
  0.00000000E+00  0.00000000E+00  0.00000000E+00
  0.00000000E+00  0.00000000E+00  0.00000000E+00
  0.00000000E+00  0.00000000E+00  0.00000000E+00
  0.00000000E+00  0.00000000E+00  0.00000000E+00
  0.00000000E+00  0.00000000E+00  0.00000000E+00
  0.00000000E+00  0.00000000E+00  0.00000000E+00
  0.00000000E+00  0.00000000E+00  0.00000000E+00
  0.00000000E+00  0.00000000E+00  0.00000000E+00
  0.00000000E+00  0.00000000E+00  0.00000000E+00
  0.00000000E+00  0.00000000E+00  0.00000000E+00
  0.00000000E+00  0.00000000E+00  0.00000000E+00
  0.00000000E+00  0.00000000E+00  0.00000000E+00
  0.00000000E+00  0.00000000E+00  0.00000000E+00
  0.00000000E+00  0.00000000E+00  0.00000000E+00
  0.00000000E+00  0.00000000E+00  0.00000000E+00
  0.00000000E+00  0.00000000E+00  0.00000000E+00
  0.00000000E+00  0.00000000E+00  0.00000000E+00
  0.00000000E+00  0.00000000E+00  0.00000000E+00
  0.00000000E+00  0.00000000E+00  0.00000000E+00
  0.00000000E+00  0.00000000E+00  0.00000000E+00
  0.00000000E+00  0.00000000E+00  0.00000000E+00
  0.00000000E+00  0.00000000E+00  0.00000000E+00
  0.00000000E+00  0.00000000E+00  0.00000000E+00
  0.00000000E+00  0.00000000E+00  0.00000000E+00
