Na4 Mg4 In4 P8                          
   1.00000000000000     
     7.1876521567133747    0.0027808628342517   -0.0107920352262764
     0.0111480816376301    7.8588848844733521   -0.0062312271203352
     0.0295878943152016   -0.0039953155544881    8.1550856643791061
   Na   Mg   In   P 
     4     4     4     8
Direct
  0.2896137532813154  0.4877809673688384  0.8507585806241763
  0.7040496442172254  0.9884169717215028  0.6475352025501868
  0.6671610312689392  0.5118317880661025  0.1500421783667041
  0.3126700222097442  0.0134987243229238  0.3497669880013652
  0.1459915531922236  0.1464171033590253  0.7502241759449044
  0.8542213735076094  0.6462903827008580  0.7510118819300131
  0.8581332189243833  0.8513265824766819  0.2498086699803909
  0.1449825166215453  0.3538807760420479  0.2496487566796581
  0.6740112182488832  0.3526416662016324  0.5181469837999669
  0.3287399235073021  0.8528832899337638  0.9820282832503118
  0.3282929783521348  0.6481496568810362  0.4846028715582066
  0.6761334657340585  0.1464573970237390  0.0177501580380604
  0.1534501591301754  0.8192390225292269  0.7060659345202538
  0.8474412134552237  0.3186113652500669  0.7940837177906577
  0.8472436436148646  0.1809566367135671  0.2936729311251471
  0.1602513798879656  0.6811394515705271  0.2059349820655430
  0.3195318103268769  0.3195371292349884  0.5312090284994299
  0.6842622252707888  0.8188282504868069  0.9686741478504725
  0.6824757309243981  0.6804702742047223  0.4684646178977141
  0.3213431383243359  0.1816425639119436  0.0305699095268316
 
  0.00000000E+00  0.00000000E+00  0.00000000E+00
  0.00000000E+00  0.00000000E+00  0.00000000E+00
  0.00000000E+00  0.00000000E+00  0.00000000E+00
  0.00000000E+00  0.00000000E+00  0.00000000E+00
  0.00000000E+00  0.00000000E+00  0.00000000E+00
  0.00000000E+00  0.00000000E+00  0.00000000E+00
  0.00000000E+00  0.00000000E+00  0.00000000E+00
  0.00000000E+00  0.00000000E+00  0.00000000E+00
  0.00000000E+00  0.00000000E+00  0.00000000E+00
  0.00000000E+00  0.00000000E+00  0.00000000E+00
  0.00000000E+00  0.00000000E+00  0.00000000E+00
  0.00000000E+00  0.00000000E+00  0.00000000E+00
  0.00000000E+00  0.00000000E+00  0.00000000E+00
  0.00000000E+00  0.00000000E+00  0.00000000E+00
  0.00000000E+00  0.00000000E+00  0.00000000E+00
  0.00000000E+00  0.00000000E+00  0.00000000E+00
  0.00000000E+00  0.00000000E+00  0.00000000E+00
  0.00000000E+00  0.00000000E+00  0.00000000E+00
  0.00000000E+00  0.00000000E+00  0.00000000E+00
  0.00000000E+00  0.00000000E+00  0.00000000E+00
