K12 Zn3 N6                              
   1.00000000000000     
     5.0821132990792233    0.0002267512090441    0.0000621657640032
    -2.5408602882644828    4.4013525921495660   -0.0000625064570520
     0.0002571170828204   -0.0001501354342800   21.7290722432944108
   K    Zn   N 
    12     3     6
Direct
 -0.0000001692463048  0.0000002154985853  0.7915018622301332
 -0.0000052662855032  0.0000057160185771  0.2084986860411673
  0.6666891172176312  0.3333109802576302  0.1255450569078441
  0.6666679647444730  0.3333319481755094  0.5415128057554641
  0.3333431756947562  0.6666559927430827  0.4584822872783775
  0.3333251575667273  0.6666753783489310  0.8744537934942973
 -0.0000053454670520  0.0000053573646055  0.6041790168384735
  0.0000012980228582 -0.0000018981599139  0.3958314650295537
  0.6666671073056842  0.3333333908189056  0.9382271073459579
  0.6666644775547119  0.3333353957242219  0.7279352055674979
  0.3333439763041842  0.6666564028561237  0.2720664862527460
  0.3333277164471349  0.6666722650469841  0.0617700744294725
 -0.0000018007003419  0.0000019077799409 -0.0000003683786624
  0.6666684805945789  0.3333314982060421  0.3340312926075155
  0.3333282088051444  0.6666717673577504  0.6659693817332022
  0.0000002424876879  0.0000000548592052  0.9159354489269143
  0.9999948098183503  0.0000050683621744  0.0840643006042581
  0.6666640886309962  0.3333355607666578  0.2499678295404303
  0.6666644722148567  0.3333352499702219  0.4179956336174577
  0.3333314546074660  0.6666686765927496  0.5820016637977655
  0.3333308336819388  0.6666690714120079  0.7500309703801270
 
  0.00000000E+00  0.00000000E+00  0.00000000E+00
  0.00000000E+00  0.00000000E+00  0.00000000E+00
  0.00000000E+00  0.00000000E+00  0.00000000E+00
  0.00000000E+00  0.00000000E+00  0.00000000E+00
  0.00000000E+00  0.00000000E+00  0.00000000E+00
  0.00000000E+00  0.00000000E+00  0.00000000E+00
  0.00000000E+00  0.00000000E+00  0.00000000E+00
  0.00000000E+00  0.00000000E+00  0.00000000E+00
  0.00000000E+00  0.00000000E+00  0.00000000E+00
  0.00000000E+00  0.00000000E+00  0.00000000E+00
  0.00000000E+00  0.00000000E+00  0.00000000E+00
  0.00000000E+00  0.00000000E+00  0.00000000E+00
  0.00000000E+00  0.00000000E+00  0.00000000E+00
  0.00000000E+00  0.00000000E+00  0.00000000E+00
  0.00000000E+00  0.00000000E+00  0.00000000E+00
  0.00000000E+00  0.00000000E+00  0.00000000E+00
  0.00000000E+00  0.00000000E+00  0.00000000E+00
  0.00000000E+00  0.00000000E+00  0.00000000E+00
  0.00000000E+00  0.00000000E+00  0.00000000E+00
  0.00000000E+00  0.00000000E+00  0.00000000E+00
  0.00000000E+00  0.00000000E+00  0.00000000E+00
