K12 Zn3 N6
1.0
   5.6639999999999997    0.0000000000000000    0.0000000000000003
  -2.8319999999999981    4.9051678870350610    0.0000000000000003
   0.0000000000000000    0.0000000000000000   26.1009999999999991
K Zn N
12 3 6
direct
   0.0000000000000000    0.0000000000000000    0.7914000000000000 K+
   0.0000000000000000    0.0000000000000000    0.2086000000000000 K+
   0.6666666666666666    0.3333333333333333    0.1247333333333333 K+
   0.6666666666666666    0.3333333333333333    0.5419333333333334 K+
   0.3333333333333333    0.6666666666666666    0.4580666666666666 K+
   0.3333333333333333    0.6666666666666666    0.8752666666666666 K+
   0.0000000000000000    0.0000000000000000    0.6106000000000000 K+
   0.0000000000000000    0.0000000000000000    0.3894000000000000 K+
   0.6666666666666666    0.3333333333333333    0.9439333333333333 K+
   0.6666666666666666    0.3333333333333333    0.7227333333333333 K+
   0.3333333333333333    0.6666666666666666    0.2772666666666666 K+
   0.3333333333333333    0.6666666666666666    0.0560666666666667 K+
   0.0000000000000000    0.0000000000000000    0.0000000000000000 Zn2+
   0.6666666666666666    0.3333333333333333    0.3333333333333333 Zn2+
   0.3333333333333333    0.6666666666666666    0.6666666666666666 Zn2+
   0.0000000000000000    0.0000000000000000    0.9155000000000000 N3-
   0.0000000000000000    0.0000000000000000    0.0845000000000000 N3-
   0.6666666666666666    0.3333333333333333    0.2488333333333333 N3-
   0.6666666666666666    0.3333333333333333    0.4178333333333333 N3-
   0.3333333333333333    0.6666666666666666    0.5821666666666666 N3-
   0.3333333333333333    0.6666666666666666    0.7511666666666666 N3-
