Na6 Ca6 Ga6 N12                         
   1.00000000000000     
    -2.9596422266930116   -5.5786549056957089    0.1145954455337039
    -2.9596651228332478    5.5786679804206178    0.1146331216868791
     0.1817333753969878   -0.0000421427183227  -12.4565542822344693
   Ga   Na   N    Ca
     6     6    12     6
Direct
  0.8283351802170630  0.5035431210825816  0.1771875242950955
  0.5035447606705514  0.8283324584598628  0.1771874218203094
  0.1716769187580774  0.4964528923909571  0.8228096704969257
  0.4964513914836792  0.1716763848950221  0.8228103254486164
  0.3876063026943346  0.3876058376490651  0.5880112732421657
  0.6123725262073415  0.6123737330351492  0.4119925872028309
  0.1747780994241512  0.5183089991741877  0.3216659083084725
  0.5183105048885291  0.1747796592462487  0.3216661694561603
  0.8252186221759817  0.4816808124023167  0.6783319186379929
  0.4816776748580637  0.8252173728074879  0.6783312552660798
  0.3684689957406056  0.3684663813514178  0.0753912394853396
  0.6315410706788334  0.6315437521554950  0.9246335837755530
  0.8768535630143117  0.5969430179308715  0.3425966452287921
  0.5969388997337315  0.8768525080450675  0.3425977401214844
  0.1231511883512004  0.4030534399521802  0.6573984358969804
  0.4030548729883849  0.1231526952172037  0.6573967306409023
  0.1464464376018793  0.5409370807753091  0.1339974406854121
  0.5409403308197448  0.1464416800963286  0.1339994157323002
  0.8535627091325990  0.4590783260478631  0.8659999198188564
  0.4590776109539318  0.8535634121490260  0.8659986572323943
  0.2702340093356080  0.2702351675080091  0.4318165568211650
  0.7297608725990422  0.7297613495091322  0.5681812781059316
  0.7746484848490131  0.7746463008899774  0.1105596802325239
  0.2253579948298625  0.2253596769145274  0.8894405759229631
  0.9951359399518011  0.9951363233627384  0.2679094321584850
  0.0048447227099920  0.0048461629102329  0.7320916969181600
  0.8497269003988260  0.1502594384778755  0.5000005011012558
  0.1502608297351036  0.8497310634739649  0.4999984337326910
  0.8345408724061592  0.1654876203819625 -0.0000007683125085
  0.1654817127916112  0.8345333317079379  0.9999987505266760
 
  0.00000000E+00  0.00000000E+00  0.00000000E+00
  0.00000000E+00  0.00000000E+00  0.00000000E+00
  0.00000000E+00  0.00000000E+00  0.00000000E+00
  0.00000000E+00  0.00000000E+00  0.00000000E+00
  0.00000000E+00  0.00000000E+00  0.00000000E+00
  0.00000000E+00  0.00000000E+00  0.00000000E+00
  0.00000000E+00  0.00000000E+00  0.00000000E+00
  0.00000000E+00  0.00000000E+00  0.00000000E+00
  0.00000000E+00  0.00000000E+00  0.00000000E+00
  0.00000000E+00  0.00000000E+00  0.00000000E+00
  0.00000000E+00  0.00000000E+00  0.00000000E+00
  0.00000000E+00  0.00000000E+00  0.00000000E+00
  0.00000000E+00  0.00000000E+00  0.00000000E+00
  0.00000000E+00  0.00000000E+00  0.00000000E+00
  0.00000000E+00  0.00000000E+00  0.00000000E+00
  0.00000000E+00  0.00000000E+00  0.00000000E+00
  0.00000000E+00  0.00000000E+00  0.00000000E+00
  0.00000000E+00  0.00000000E+00  0.00000000E+00
  0.00000000E+00  0.00000000E+00  0.00000000E+00
  0.00000000E+00  0.00000000E+00  0.00000000E+00
  0.00000000E+00  0.00000000E+00  0.00000000E+00
  0.00000000E+00  0.00000000E+00  0.00000000E+00
  0.00000000E+00  0.00000000E+00  0.00000000E+00
  0.00000000E+00  0.00000000E+00  0.00000000E+00
  0.00000000E+00  0.00000000E+00  0.00000000E+00
  0.00000000E+00  0.00000000E+00  0.00000000E+00
  0.00000000E+00  0.00000000E+00  0.00000000E+00
  0.00000000E+00  0.00000000E+00  0.00000000E+00
  0.00000000E+00  0.00000000E+00  0.00000000E+00
  0.00000000E+00  0.00000000E+00  0.00000000E+00
