Na6 Ca6 Ga6 N12
1.0
  -3.0374865377256404   -5.0773000000000001    0.0724310405524285
  -3.0374865377256386    5.0773000000000001    0.0724310405524291
   0.0000000000000000    0.0000000000000000  -12.6411999999999995
Ga Na N Ca
6 6 12 6
direct
   0.8122999999999999    0.4878999999999999    0.1876000000000001 Ga
   0.4878999999999999    0.8123000000000000    0.1876000000000001 Ga
   0.1877000000000001    0.5120999999999999    0.8124000000000000 Ga
   0.5121000000000000    0.1877000000000000    0.8124000000000000 Ga
   0.3916999999999999    0.3917000000000000    0.5886000000000000 Ga
   0.6083000000000001    0.6083000000000001    0.4114000000000000 Ga
   0.1864000000000000    0.5534000000000000    0.3176000000000000 Na
   0.5534000000000000    0.1864000000000000    0.3176000000000000 Na
   0.8136000000000000    0.4465999999999998    0.6824000000000001 Na
   0.4466000000000001    0.8135999999999998    0.6824000000000000 Na
   0.4070000000000000    0.4070000000000001    0.0815000000000000 Na
   0.5930000000000000    0.5930000000000000    0.9185000000000000 Na
   0.8635000000000002    0.5450999999999999    0.3431999999999999 N
   0.5451000000000000    0.8635000000000000    0.3431999999999999 N
   0.1365000000000000    0.4549000000000001    0.6568000000000001 N
   0.4548999999999999    0.1365000000000000    0.6568000000000001 N
   0.1469999999999999    0.5044000000000001    0.1488000000000000 N
   0.5044000000000000    0.1470000000000000    0.1488000000000000 N
   0.8529999999999999    0.4956000000000000    0.8512000000000000 N
   0.4955999999999999    0.8530000000000000    0.8512000000000000 N
   0.2817000000000001    0.2817000000000001    0.4339000000000000 N
   0.7182999999999999    0.7182999999999999    0.5660999999999999 N
   0.7473000000000000    0.7472999999999999    0.1092000000000001 N
   0.2526999999999999    0.2527000000000000    0.8908000000000000 N
   0.0526000000000000    0.0526000000000001    0.2565999999999998 Ca
   0.9474000000000000    0.9474000000000000    0.7434000000000001 Ca
   0.8191999999999999    0.1808000000000000    0.5000000000000000 Ca
   0.1808000000000000    0.8192000000000002    0.4999999999999999 Ca
   0.8341000000000001    0.1659000000000000    0.0000000000000000 Ca
   0.1659000000000000    0.8341000000000001    0.0000000000000000 Ca
