Li4 Mg4 Ga4 P8                          
   1.00000000000000     
     6.3921665138074770   -0.0000025840571634    0.0141170192053364
    -0.0000032076835993    7.9623590082923430   -0.0000035100024661
     0.0474561811034683   -0.0000030062375463    6.8702805096114989
   Li   Mg   Ga   P 
     4     4     4     8
Direct
  0.3581108687663413  0.3816363682910964  0.9145472599739686
  0.6418929708394848  0.8816337819661716  0.5854496383402464
  0.6418931177520243  0.6183662185613743  0.0854499336302110
  0.3581109181335737  0.1183640922612766  0.4145473107618489
  0.0049367438853873  0.1320894601841283  0.7510569238368098
  0.9950538141865829  0.6320893688779948  0.7489528479884994
  0.9950512955769134  0.8679106679934637  0.2489548887800377
  0.0049363032258295  0.3679104074061640  0.2510572411533325
  0.6236390474203914  0.3618381524153438  0.5815807332771242
  0.3763634112679431  0.8618373080620146  0.9184138126389901
  0.3763628216474700  0.6381624932745741  0.4184138613583526
  0.6236389738344434  0.1381616773763274  0.0815808150756481
  0.2399744331887949  0.8683514650169433  0.5987241501707672
  0.7600293187964400  0.3683513672755945  0.9012750243058339
  0.7600296913366342  0.1316487200714862  0.4012747484531556
  0.2399743769667823  0.6316485728903054  0.0987240519602419
  0.2457778480119543  0.3883653938049281  0.5707234278991042
  0.7542233665961428  0.8883661524469763  0.9292751642826991
  0.7542230043906912  0.6116336430270329  0.4292751979867852
  0.2457776741761749  0.1116346887968316  0.0707229681263288
 
  0.00000000E+00  0.00000000E+00  0.00000000E+00
  0.00000000E+00  0.00000000E+00  0.00000000E+00
  0.00000000E+00  0.00000000E+00  0.00000000E+00
  0.00000000E+00  0.00000000E+00  0.00000000E+00
  0.00000000E+00  0.00000000E+00  0.00000000E+00
  0.00000000E+00  0.00000000E+00  0.00000000E+00
  0.00000000E+00  0.00000000E+00  0.00000000E+00
  0.00000000E+00  0.00000000E+00  0.00000000E+00
  0.00000000E+00  0.00000000E+00  0.00000000E+00
  0.00000000E+00  0.00000000E+00  0.00000000E+00
  0.00000000E+00  0.00000000E+00  0.00000000E+00
  0.00000000E+00  0.00000000E+00  0.00000000E+00
  0.00000000E+00  0.00000000E+00  0.00000000E+00
  0.00000000E+00  0.00000000E+00  0.00000000E+00
  0.00000000E+00  0.00000000E+00  0.00000000E+00
  0.00000000E+00  0.00000000E+00  0.00000000E+00
  0.00000000E+00  0.00000000E+00  0.00000000E+00
  0.00000000E+00  0.00000000E+00  0.00000000E+00
  0.00000000E+00  0.00000000E+00  0.00000000E+00
  0.00000000E+00  0.00000000E+00  0.00000000E+00
