Na8 N4 Ca2                              
   1.00000000000000     
     4.4000784465338549   -0.0166158554952208   -0.0215719455483375
    -0.0160846916028185    4.3930808494113549   -0.0264067103494283
    -2.2533940675297277   -2.2698537179481342   13.4147157065999636
   Na   N    Ca
     8     4     2
Direct
  0.4107510983833390  0.6442323334730807  0.8464242967397272
  0.6467896228210618  0.4156561122684904  0.3542635329446118
  0.5902349600014722  0.3557471649246245  0.1582096455040213
  0.3548223390810828  0.5844050607945995  0.6500866088969846
  0.8584126094069536  0.2316460157104198  0.9656704469928045
  0.2226410880233856  0.8764370673116612  0.4607187156496632
  0.1416041935997569  0.7796599591369940  0.0340364866220523
  0.7768968126653274  0.1171092387777499  0.5384923190991093
  0.6852836735590127  0.9141757759575235  0.3516088218446489
  0.9138044466277472  0.6839173362971159  0.8531608299743096
  0.3145728174328745  0.0817789015044130  0.6447398466906423
  0.0840317151183204  0.3177278859664178  0.1439501800958245
  0.1145998670011541  0.8832296298904915  0.2470954082730140
  0.8855547562785049  0.1142775179864105  0.7515428606726077
 
  0.00000000E+00  0.00000000E+00  0.00000000E+00
  0.00000000E+00  0.00000000E+00  0.00000000E+00
  0.00000000E+00  0.00000000E+00  0.00000000E+00
  0.00000000E+00  0.00000000E+00  0.00000000E+00
  0.00000000E+00  0.00000000E+00  0.00000000E+00
  0.00000000E+00  0.00000000E+00  0.00000000E+00
  0.00000000E+00  0.00000000E+00  0.00000000E+00
  0.00000000E+00  0.00000000E+00  0.00000000E+00
  0.00000000E+00  0.00000000E+00  0.00000000E+00
  0.00000000E+00  0.00000000E+00  0.00000000E+00
  0.00000000E+00  0.00000000E+00  0.00000000E+00
  0.00000000E+00  0.00000000E+00  0.00000000E+00
  0.00000000E+00  0.00000000E+00  0.00000000E+00
  0.00000000E+00  0.00000000E+00  0.00000000E+00
