Li4 Ca4 Ga4 N8                          
   1.00000000000000     
     5.7721258919916467   -0.0000001158995699   -0.0139965977086744
    -0.0000001418892663    6.9100997833832380    0.0000002747616143
     0.0143362938098412    0.0000002328368985    5.8763469458486206
   Li   Ca   Ga   N 
     4     4     4     8
Direct
  0.3687647427448724  0.3951360299863609  0.9105238835957792
  0.6312351396277052  0.8951359432702404  0.5894753985720556
  0.6312359924798869  0.6048644330323114  0.0894753621190176
  0.3687637633125647  0.1048643540076100  0.4105241197785574
  0.0218380516528001  0.1274881845604057  0.7424008106791931
  0.9781606834431145  0.6274879713193755  0.7576000665733673
  0.9781613129458151  0.8725117815912853  0.2576008827814960
  0.0218375970115545  0.3725115572763116  0.2424000606671939
  0.6233039837490679  0.3602771214416833  0.5777769781020581
  0.3766957693079931  0.8602776816928497  0.9222213295963755
  0.3766949476657260  0.6397241061022569  0.4222248379699209
  0.6233050547777452  0.1397249869511157  0.0777736501363080
  0.2610195395236659  0.8621555519374127  0.5982694989429334
  0.7389801380019492  0.3621539662716842  0.9017307754365405
  0.7389805381130117  0.1378446025445825  0.4017302071832134
  0.2610192559113926  0.6378431482018456  0.0982699554812214
  0.2786174934731491  0.3884338733777568  0.5701685122293370
  0.7213842793325398  0.8884344531398156  0.9298325743932807
  0.7213846461315754  0.6115648312692770  0.4298320420806476
  0.2786170707938638  0.1115654220258122  0.0701690536814894
 
  0.00000000E+00  0.00000000E+00  0.00000000E+00
  0.00000000E+00  0.00000000E+00  0.00000000E+00
  0.00000000E+00  0.00000000E+00  0.00000000E+00
  0.00000000E+00  0.00000000E+00  0.00000000E+00
  0.00000000E+00  0.00000000E+00  0.00000000E+00
  0.00000000E+00  0.00000000E+00  0.00000000E+00
  0.00000000E+00  0.00000000E+00  0.00000000E+00
  0.00000000E+00  0.00000000E+00  0.00000000E+00
  0.00000000E+00  0.00000000E+00  0.00000000E+00
  0.00000000E+00  0.00000000E+00  0.00000000E+00
  0.00000000E+00  0.00000000E+00  0.00000000E+00
  0.00000000E+00  0.00000000E+00  0.00000000E+00
  0.00000000E+00  0.00000000E+00  0.00000000E+00
  0.00000000E+00  0.00000000E+00  0.00000000E+00
  0.00000000E+00  0.00000000E+00  0.00000000E+00
  0.00000000E+00  0.00000000E+00  0.00000000E+00
  0.00000000E+00  0.00000000E+00  0.00000000E+00
  0.00000000E+00  0.00000000E+00  0.00000000E+00
  0.00000000E+00  0.00000000E+00  0.00000000E+00
  0.00000000E+00  0.00000000E+00  0.00000000E+00
