K8 N4 Mg2                               
   1.00000000000000     
     4.3533539739043068   -0.0403147163551276    0.0489981078782869
    -0.0375830669781398    4.3645476462577877    0.1782551974190802
    -1.9587279757640090   -1.3246019023291984   22.2318649213955872
   K    N    Mg
     8     4     2
Direct
  0.3997676631286807  0.6686825973923414  0.8302764376342351
  0.6546809046894358  0.3385055386354408  0.3184159403483699
  0.5986166081599863  0.3314019812678943  0.1744244077768969
  0.3479931464485239  0.6564310662646682  0.6860484688083084
  0.9143733465467971  0.2067625473276387  0.9129468880643192
  0.2085553586652298  0.7724991628254674  0.4233971035151037
  0.0826785613581399  0.7915103173851913  0.0734422578135691
  0.7884215596471128  0.2386399802410911  0.5646247773889856
  0.6245239852053320  0.8380793914034332  0.2453007870066111
  0.8748720843379723  0.6557229274953172  0.7605532123950448
  0.3779292220464729  0.1599893786992213  0.7612896953027954
  0.1261858273836447  0.3423028903597443  0.2460274333257850
  0.1261252378688488  0.8433643171698894  0.2461455409298269
  0.8752764945138302  0.1561079035326813  0.7571070496901581
 
  0.00000000E+00  0.00000000E+00  0.00000000E+00
  0.00000000E+00  0.00000000E+00  0.00000000E+00
  0.00000000E+00  0.00000000E+00  0.00000000E+00
  0.00000000E+00  0.00000000E+00  0.00000000E+00
  0.00000000E+00  0.00000000E+00  0.00000000E+00
  0.00000000E+00  0.00000000E+00  0.00000000E+00
  0.00000000E+00  0.00000000E+00  0.00000000E+00
  0.00000000E+00  0.00000000E+00  0.00000000E+00
  0.00000000E+00  0.00000000E+00  0.00000000E+00
  0.00000000E+00  0.00000000E+00  0.00000000E+00
  0.00000000E+00  0.00000000E+00  0.00000000E+00
  0.00000000E+00  0.00000000E+00  0.00000000E+00
  0.00000000E+00  0.00000000E+00  0.00000000E+00
  0.00000000E+00  0.00000000E+00  0.00000000E+00
