K8 N4 Zn2                               
   1.00000000000000     
     4.6427392274756905    0.1004736636758380   -0.7994651265534126
     0.0232330309019673    4.9571595578796614    0.5697939596099869
    -5.1013242508371954   -0.6249403427040325   16.6127376684059840
   K    N    Zn
     8     4     2
Direct
  0.3585085123502890  0.4106997305100520  0.7980431457951104
  0.4959141522084923  0.5583002915384950  0.3420673433534041
  0.4776664265733555  0.5782215374801194  0.1382304107026312
  0.4616899792123549  0.5874908404320273  0.6040645679585533
  0.2021037042096296  0.2238775976325971  0.9782201495727890
  0.1693870418395741  0.9946483124348694  0.4333265332198175
  0.7172627412049181  0.7641428771489565  0.9832111478511361
  0.9426598287836154  0.1051715601464347  0.5967344593637415
  0.7831741628981778  0.6818727552997760  0.4950934512866509
  0.0728845380134345  0.7294424770940275  0.8913648593773063
  0.5827880543078030  0.0883278541909299  0.6859769680613437
  0.8722027703233742  0.2634483553706146  0.0782299775208896
  0.0308365572811136  0.1047745034672675  0.1871502509496827
  0.8329215307938819  0.9095813072538051  0.7882867349869572
 
  0.00000000E+00  0.00000000E+00  0.00000000E+00
  0.00000000E+00  0.00000000E+00  0.00000000E+00
  0.00000000E+00  0.00000000E+00  0.00000000E+00
  0.00000000E+00  0.00000000E+00  0.00000000E+00
  0.00000000E+00  0.00000000E+00  0.00000000E+00
  0.00000000E+00  0.00000000E+00  0.00000000E+00
  0.00000000E+00  0.00000000E+00  0.00000000E+00
  0.00000000E+00  0.00000000E+00  0.00000000E+00
  0.00000000E+00  0.00000000E+00  0.00000000E+00
  0.00000000E+00  0.00000000E+00  0.00000000E+00
  0.00000000E+00  0.00000000E+00  0.00000000E+00
  0.00000000E+00  0.00000000E+00  0.00000000E+00
  0.00000000E+00  0.00000000E+00  0.00000000E+00
  0.00000000E+00  0.00000000E+00  0.00000000E+00
