K8 N4 Zn2                               
   1.00000000000000     
     4.5415482490623935    0.1492463294858759   -0.2806486277351042
     0.1117104374102649    4.5456883598719067    0.2337897943915444
    -3.1476838675673506   -1.5745148518841849   16.2201186552685392
   K    N    Zn
     8     4     2
Direct
  0.2479052745143696  0.5174875210790256  0.7808690501000194
  0.6522112690085093  0.5154926431013657  0.3405565939689242
  0.5338868061120937  0.5212859791103382  0.1503603677904623
  0.4172848723800950  0.6031683755159830  0.5945810444188890
  0.1752214211931699  0.2182620425429283  0.9476441499851717
  0.2394746513287989  0.0120912055060190  0.4372609000087512
 -0.2070820249350787  0.7236570105021761  0.0196975489366214
  0.9150755681214390  0.1202991852526767  0.5938107493494655
  0.8168496634221618  0.6513716021472867  0.4910691859182303
  0.8661007855505902  0.7535036006921615  0.8706100489206231
  0.5022837492600729  0.1180475482641091  0.6831046671887315
  0.0287468789191508  0.2038158159293395  0.1023605373396742
  0.1084280444668934  0.0756780666292207  0.2084950550991100
  0.7036130406577346 -0.0341605962726320  0.7795801009753266
 
  0.00000000E+00  0.00000000E+00  0.00000000E+00
  0.00000000E+00  0.00000000E+00  0.00000000E+00
  0.00000000E+00  0.00000000E+00  0.00000000E+00
  0.00000000E+00  0.00000000E+00  0.00000000E+00
  0.00000000E+00  0.00000000E+00  0.00000000E+00
  0.00000000E+00  0.00000000E+00  0.00000000E+00
  0.00000000E+00  0.00000000E+00  0.00000000E+00
  0.00000000E+00  0.00000000E+00  0.00000000E+00
  0.00000000E+00  0.00000000E+00  0.00000000E+00
  0.00000000E+00  0.00000000E+00  0.00000000E+00
  0.00000000E+00  0.00000000E+00  0.00000000E+00
  0.00000000E+00  0.00000000E+00  0.00000000E+00
  0.00000000E+00  0.00000000E+00  0.00000000E+00
  0.00000000E+00  0.00000000E+00  0.00000000E+00
