Mg Ca Zn P2                             
   1.00000000000000     
     4.1056207326731471    0.0035240631515305    0.0018676605758183
    -2.0496347081285515    3.5574068396016703   -0.0018691350385005
     0.0031346105827775   -0.0018167767063620    6.8839698735638999
   Ca   Mg   Zn   P 
     1     1     1     2
Direct
 -0.0014860078183603  0.0014878358392726  0.0023342868065208
  0.3327310885548344  0.6672677459929044  0.6270012374528683
  0.6690548793935981  0.3309450275576084  0.3689589193072386
  0.3338328381804265  0.6661659018073226  0.2587030424567313
  0.6658671416894967  0.3341334888028988  0.7430025439766440
 
  0.00000000E+00  0.00000000E+00  0.00000000E+00
  0.00000000E+00  0.00000000E+00  0.00000000E+00
  0.00000000E+00  0.00000000E+00  0.00000000E+00
  0.00000000E+00  0.00000000E+00  0.00000000E+00
  0.00000000E+00  0.00000000E+00  0.00000000E+00
