Sr6 Li6 Ga6 N12                         
   1.00000000000000     
    -3.0345000462323846   -5.0683561600219607    0.0710024779044174
    -3.0344993478661562    5.0683557422157248    0.0710022940806154
    -0.0058612877231617    0.0000002296854469  -12.6436505140665538
   Ga   Li   N    Sr
     6     6    12     6
Direct
  0.8141489334790037  0.4891898912682535  0.1874070284708012
  0.4891905441383813  0.8141499633391405  0.1874070449876655
  0.1858515674206345  0.5108121694708601  0.8125934427765600
  0.5108136428914420  0.1858537109511786  0.8125933171838255
  0.3921189038297470  0.3921189605018611  0.5888764203398651
  0.6078830556944439  0.6078831831051943  0.4111237713278655
  0.1875575427253366  0.5531080398951786  0.3178054517844799
  0.5531078423537323  0.1875572744923559  0.3178056640640179
  0.8124438916486056  0.4468925519938907  0.6821943116151985
  0.4468928314078795  0.8124438867728685  0.6821943199478042
  0.4052420672324715  0.4052422321862110  0.0814721586288059
  0.5947555910172682  0.5947556226099167  0.9185285290427672
  0.8623172426400956  0.5436653478575550  0.3426706285593184
  0.5436661611851932  0.8623172393866625  0.3426705898321813
  0.1376811994124623  0.4563275455216953  0.6573291374955303
  0.4563278050735988  0.1376811512209670  0.6573291369643002
  0.1483970062218418  0.5037682235746317  0.1494804871630890
  0.5037677101714593  0.1483967480278920  0.1494803079620510
  0.8515954163857131  0.4962197786176077  0.8505189450098314
  0.4962193624775040  0.8515951717692403  0.8505188101171370
  0.2817405677293152  0.2817405481101787  0.4338482145286591
  0.7182658629910179  0.7182658869487142  0.5661523600819649
  0.7479434454207237  0.7479436422291030  0.1086095918327317
  0.2520564832937708  0.2520567349495124  0.8913915145989719
  0.0529209727181126  0.0529208862256638  0.2568379708710040
  0.9470869010652976  0.9470868002818023  0.7431613829177977
  0.8194602144107677  0.1805454975689074  0.4999997849059739
  0.1805456461370198  0.8194599644716547  0.4999997892531951
  0.8337955972982840  0.1662060163307686  0.9999999255752527
  0.1662059915288978  0.8337953303205410  0.9999999621613540
 
  0.00000000E+00  0.00000000E+00  0.00000000E+00
  0.00000000E+00  0.00000000E+00  0.00000000E+00
  0.00000000E+00  0.00000000E+00  0.00000000E+00
  0.00000000E+00  0.00000000E+00  0.00000000E+00
  0.00000000E+00  0.00000000E+00  0.00000000E+00
  0.00000000E+00  0.00000000E+00  0.00000000E+00
  0.00000000E+00  0.00000000E+00  0.00000000E+00
  0.00000000E+00  0.00000000E+00  0.00000000E+00
  0.00000000E+00  0.00000000E+00  0.00000000E+00
  0.00000000E+00  0.00000000E+00  0.00000000E+00
  0.00000000E+00  0.00000000E+00  0.00000000E+00
  0.00000000E+00  0.00000000E+00  0.00000000E+00
  0.00000000E+00  0.00000000E+00  0.00000000E+00
  0.00000000E+00  0.00000000E+00  0.00000000E+00
  0.00000000E+00  0.00000000E+00  0.00000000E+00
  0.00000000E+00  0.00000000E+00  0.00000000E+00
  0.00000000E+00  0.00000000E+00  0.00000000E+00
  0.00000000E+00  0.00000000E+00  0.00000000E+00
  0.00000000E+00  0.00000000E+00  0.00000000E+00
  0.00000000E+00  0.00000000E+00  0.00000000E+00
  0.00000000E+00  0.00000000E+00  0.00000000E+00
  0.00000000E+00  0.00000000E+00  0.00000000E+00
  0.00000000E+00  0.00000000E+00  0.00000000E+00
  0.00000000E+00  0.00000000E+00  0.00000000E+00
  0.00000000E+00  0.00000000E+00  0.00000000E+00
  0.00000000E+00  0.00000000E+00  0.00000000E+00
  0.00000000E+00  0.00000000E+00  0.00000000E+00
  0.00000000E+00  0.00000000E+00  0.00000000E+00
  0.00000000E+00  0.00000000E+00  0.00000000E+00
  0.00000000E+00  0.00000000E+00  0.00000000E+00
