K6 Ca6 Al6 N12                          
   1.00000000000000     
    -2.9218972601682132   -6.1089937239557628    0.1888858776398523
    -2.9219081494821104    6.1090003196750393    0.1889267307705611
     0.4879974249462117   -0.0000436657351533  -12.8495305218889673
   Al   K    N    Ca
     6     6    12     6
Direct
  0.8342415368821403  0.5142238672898740  0.1761659915878470
  0.5142304388540097  0.8342416598144083  0.1761643967087290
  0.1657568634768540  0.4857643894893374  0.8238481548525642
  0.4857621040856652  0.1657575293971222  0.8238485064884096
  0.4023045172572146  0.4023042018929597  0.5889873846688308
  0.5977107819925048  0.5977108526938755  0.4110048466361120
  0.1043695118691561  0.4515336625565700  0.3211031584682695
  0.4515191068864973  0.1043654032697328  0.3211018526015276
  0.8956564764565008  0.5485001098696501  0.6789075153879419
  0.5485037961258995  0.8956560772649644  0.6789060701048625
  0.3101831737092883  0.3101820990889109  0.0876477184022499
  0.6898394917999141  0.6898345729169109  0.9123353688123083
  0.8445800542263004  0.5983942484403175  0.3388101195617887
  0.5984003221442885  0.8445857935832968  0.3388122856880216
  0.1554205582432070  0.4016058766113351  0.6611776244612965
  0.4016052552561752  0.1554178755965142  0.6611772062578769
  0.1543639196561063  0.6015767580736514  0.1375750230221197
  0.6015756798024752  0.1543587657854289  0.1375748412687121
  0.8456306580449784  0.3984080482334145  0.8624345534571650
  0.3984059587290388  0.8456329892736087  0.8624354532095440
  0.2737775519318489  0.2737787251112637  0.4449973076714810
  0.7262305759508593  0.7262283628356383  0.5549937553612260
  0.7601954121594979  0.7601980662793208  0.1223939516548491
  0.2398361867577766  0.2398397232374220  0.8775958144377431
  0.9663420177251735  0.9663415781054325  0.2793740123277570
  0.0336771525503242  0.0336767633990623  0.7206175259912752
  0.8678212807207916  0.1321908587577771  0.4999981893243557
  0.1321906194982443  0.8678211569995128  0.4999994108727262
  0.8228270308348722  0.1770472922688153  0.0000038576751794
  0.1770419663724186  0.8228226918638584  0.0000081030372371
 
  0.00000000E+00  0.00000000E+00  0.00000000E+00
  0.00000000E+00  0.00000000E+00  0.00000000E+00
  0.00000000E+00  0.00000000E+00  0.00000000E+00
  0.00000000E+00  0.00000000E+00  0.00000000E+00
  0.00000000E+00  0.00000000E+00  0.00000000E+00
  0.00000000E+00  0.00000000E+00  0.00000000E+00
  0.00000000E+00  0.00000000E+00  0.00000000E+00
  0.00000000E+00  0.00000000E+00  0.00000000E+00
  0.00000000E+00  0.00000000E+00  0.00000000E+00
  0.00000000E+00  0.00000000E+00  0.00000000E+00
  0.00000000E+00  0.00000000E+00  0.00000000E+00
  0.00000000E+00  0.00000000E+00  0.00000000E+00
  0.00000000E+00  0.00000000E+00  0.00000000E+00
  0.00000000E+00  0.00000000E+00  0.00000000E+00
  0.00000000E+00  0.00000000E+00  0.00000000E+00
  0.00000000E+00  0.00000000E+00  0.00000000E+00
  0.00000000E+00  0.00000000E+00  0.00000000E+00
  0.00000000E+00  0.00000000E+00  0.00000000E+00
  0.00000000E+00  0.00000000E+00  0.00000000E+00
  0.00000000E+00  0.00000000E+00  0.00000000E+00
  0.00000000E+00  0.00000000E+00  0.00000000E+00
  0.00000000E+00  0.00000000E+00  0.00000000E+00
  0.00000000E+00  0.00000000E+00  0.00000000E+00
  0.00000000E+00  0.00000000E+00  0.00000000E+00
  0.00000000E+00  0.00000000E+00  0.00000000E+00
  0.00000000E+00  0.00000000E+00  0.00000000E+00
  0.00000000E+00  0.00000000E+00  0.00000000E+00
  0.00000000E+00  0.00000000E+00  0.00000000E+00
  0.00000000E+00  0.00000000E+00  0.00000000E+00
  0.00000000E+00  0.00000000E+00  0.00000000E+00
