Li6 Mg6 Al6 N12                         
   1.00000000000000     
    -2.7057717651245605   -5.0854435159066869    0.1505400894098173
    -2.7057726304553498    5.0854440410632646    0.1505403458667411
     0.3618115057797684   -0.0000003139105684  -11.0764085954647733
   Al   Li   N    Mg
     6     6    12     6
Direct
  0.8206216698511466  0.4952701713229281  0.1751019206245180
  0.4952697895177439  0.8206220168680316  0.1751019557980009
  0.1792758123159470  0.5046985516734060  0.8249544604822687
  0.5046991961378016  0.1792749619279038  0.8249540902031496
  0.3847125835540308  0.3847121901055434  0.5889077546595646
  0.6154816247663676  0.6154821379546483  0.4110617575666062
  0.1786114754247821  0.5370663773803369  0.3238397324055886
  0.5370655763687150  0.1786119786262799  0.3238408154872999
  0.8215262403050680  0.4630718754249168  0.6761550368471910
  0.4630715821115821  0.8215255796376677  0.6761541451821970
  0.3626302850267932  0.3626307440683250  0.0690911654120025
  0.6371442982530511  0.6371434071478527  0.9307079217649186
  0.8876956383685971  0.5919771737610087  0.3461867774313235
  0.5919767831280852  0.8876960167988448  0.3461869473234533
  0.1124995132597318  0.4082624028862902  0.6537509734087718
  0.4082626583329833  0.1124989508194074  0.6537508619915697
  0.1347372139700962  0.5000710172368739  0.1339033517775509
  0.5000693793237253  0.1347379077903160  0.1339041629734880
  0.8652321575678573  0.5001582356322154  0.8660183447853186
  0.5001602751542124  0.8652314748792004  0.8660174693203072
  0.2667295653766151  0.2667303026688688  0.4203706386668100
  0.7335007048721255  0.7335004309645771  0.5795230653871587
  0.7788240569820162  0.7788246383439743  0.1086502206827627
  0.2212660745811997  0.2212650085530902  0.8913438280098648
  0.0198256725898849  0.0198253254214861  0.2655846931504516
  0.9801706211112774  0.9801704098950195  0.7344497803006742
  0.8522346884751052  0.1478345165084434  0.5000128263359251
  0.1478335123983138  0.8522343252018149  0.5000128145551394
  0.8454303298058110  0.1534412311574843  0.0002317935831662
  0.1534410210693555  0.8454306393432520  0.0002306938829584
 
  0.00000000E+00  0.00000000E+00  0.00000000E+00
  0.00000000E+00  0.00000000E+00  0.00000000E+00
  0.00000000E+00  0.00000000E+00  0.00000000E+00
  0.00000000E+00  0.00000000E+00  0.00000000E+00
  0.00000000E+00  0.00000000E+00  0.00000000E+00
  0.00000000E+00  0.00000000E+00  0.00000000E+00
  0.00000000E+00  0.00000000E+00  0.00000000E+00
  0.00000000E+00  0.00000000E+00  0.00000000E+00
  0.00000000E+00  0.00000000E+00  0.00000000E+00
  0.00000000E+00  0.00000000E+00  0.00000000E+00
  0.00000000E+00  0.00000000E+00  0.00000000E+00
  0.00000000E+00  0.00000000E+00  0.00000000E+00
  0.00000000E+00  0.00000000E+00  0.00000000E+00
  0.00000000E+00  0.00000000E+00  0.00000000E+00
  0.00000000E+00  0.00000000E+00  0.00000000E+00
  0.00000000E+00  0.00000000E+00  0.00000000E+00
  0.00000000E+00  0.00000000E+00  0.00000000E+00
  0.00000000E+00  0.00000000E+00  0.00000000E+00
  0.00000000E+00  0.00000000E+00  0.00000000E+00
  0.00000000E+00  0.00000000E+00  0.00000000E+00
  0.00000000E+00  0.00000000E+00  0.00000000E+00
  0.00000000E+00  0.00000000E+00  0.00000000E+00
  0.00000000E+00  0.00000000E+00  0.00000000E+00
  0.00000000E+00  0.00000000E+00  0.00000000E+00
  0.00000000E+00  0.00000000E+00  0.00000000E+00
  0.00000000E+00  0.00000000E+00  0.00000000E+00
  0.00000000E+00  0.00000000E+00  0.00000000E+00
  0.00000000E+00  0.00000000E+00  0.00000000E+00
  0.00000000E+00  0.00000000E+00  0.00000000E+00
  0.00000000E+00  0.00000000E+00  0.00000000E+00
