Li8 N4 Ca2                              
   1.00000000000000     
     3.7512516708582577    0.0007245004723124   -0.0014253227440891
     0.0007244508865359    3.7512411791604401   -0.0014270709735577
    -1.8808928774217100   -1.8808940159352088   12.7119755106616097
   Li   N    Ca
     8     4     2
Direct
  0.4413480302081680  0.6907929995083180  0.8823089738890815
  0.6907942119914736  0.4413429424312341  0.3823088687374110
  0.5586648446819353  0.3092069210257620  0.1176909769149788
  0.3092074637469366  0.5586567298878080  0.6176911462514596
  0.9785513800691277  0.2286287357959793  0.9575383921815757
  0.2286255727005937  0.9785504935831710  0.4575386843971430
  0.0214542309985930  0.7713698174793180  0.0424615807711746
  0.7713646276795671  0.0214500103976647  0.5424614350042702
  0.6891599236612223  0.9397313805976069  0.3790659458888328
  0.9397358924395434  0.6891691773913067  0.8790659609436915
  0.3108211809228294  0.0602681987604043  0.6209340855211138
  0.0602698017920176  0.3108308946640790  0.1209339855917335
  0.1243272768709289  0.8756751297926826  0.2500001571309625
  0.8756755622370704  0.1243265686846655  0.7499998067765858
 
  0.00000000E+00  0.00000000E+00  0.00000000E+00
  0.00000000E+00  0.00000000E+00  0.00000000E+00
  0.00000000E+00  0.00000000E+00  0.00000000E+00
  0.00000000E+00  0.00000000E+00  0.00000000E+00
  0.00000000E+00  0.00000000E+00  0.00000000E+00
  0.00000000E+00  0.00000000E+00  0.00000000E+00
  0.00000000E+00  0.00000000E+00  0.00000000E+00
  0.00000000E+00  0.00000000E+00  0.00000000E+00
  0.00000000E+00  0.00000000E+00  0.00000000E+00
  0.00000000E+00  0.00000000E+00  0.00000000E+00
  0.00000000E+00  0.00000000E+00  0.00000000E+00
  0.00000000E+00  0.00000000E+00  0.00000000E+00
  0.00000000E+00  0.00000000E+00  0.00000000E+00
  0.00000000E+00  0.00000000E+00  0.00000000E+00
