Na4 Sr4 Al4 P8                          
   1.00000000000000     
     7.1242365319415075   -0.0000003164523167   -0.0802080615793947
    -0.0000003114589647    8.8111495482545941    0.0000034197259567
    -0.0498857155535490    0.0000028550960575    7.3310678806492948
   Na   Sr   Al   P 
     4     4     4     8
Direct
  0.3659005171056231  0.3894828943587464  0.9190011932118786
  0.6340988281755094  0.8894828221665948  0.5809985759608727
  0.6340986553113909  0.6105176613228421  0.0809979063097396
  0.3659011502797365  0.1105169785335522  0.4190012996792861
  0.0080936820874531  0.1178563138117905  0.7376314465920980
  0.9919060548657079  0.6178559953200924  0.7623682828770787
  0.9919060624662220  0.8821433846958776  0.2623682870151474
  0.0080940131526670  0.3821434461539087  0.2376319422449177
  0.6243227873469264  0.3681502093441920  0.5710280013666572
  0.3756738153420748  0.8681503002862722  0.9289720274004414
  0.3756777859428386  0.6318493842499059  0.4289723638290311
  0.6243254616550938  0.1318493562250052  0.0710277203949558
  0.2541698482758819  0.8455094474739128  0.6103823249701594
  0.7458301361533931  0.3455101099648141  0.8896174337370362
  0.7458296909053836  0.1544903217599337  0.3896179421467387
  0.2541696237166903  0.6544896457649095  0.1103831197265117
  0.2827295443540295  0.3952550180623963  0.5571099770113076
  0.7172693882768113  0.8952542832712803  0.9428895467567693
  0.7172729884735978  0.6047465577469440  0.4428901034233167
  0.2827299661129622  0.1047458694870435  0.0571105053460636
 
  0.00000000E+00  0.00000000E+00  0.00000000E+00
  0.00000000E+00  0.00000000E+00  0.00000000E+00
  0.00000000E+00  0.00000000E+00  0.00000000E+00
  0.00000000E+00  0.00000000E+00  0.00000000E+00
  0.00000000E+00  0.00000000E+00  0.00000000E+00
  0.00000000E+00  0.00000000E+00  0.00000000E+00
  0.00000000E+00  0.00000000E+00  0.00000000E+00
  0.00000000E+00  0.00000000E+00  0.00000000E+00
  0.00000000E+00  0.00000000E+00  0.00000000E+00
  0.00000000E+00  0.00000000E+00  0.00000000E+00
  0.00000000E+00  0.00000000E+00  0.00000000E+00
  0.00000000E+00  0.00000000E+00  0.00000000E+00
  0.00000000E+00  0.00000000E+00  0.00000000E+00
  0.00000000E+00  0.00000000E+00  0.00000000E+00
  0.00000000E+00  0.00000000E+00  0.00000000E+00
  0.00000000E+00  0.00000000E+00  0.00000000E+00
  0.00000000E+00  0.00000000E+00  0.00000000E+00
  0.00000000E+00  0.00000000E+00  0.00000000E+00
  0.00000000E+00  0.00000000E+00  0.00000000E+00
  0.00000000E+00  0.00000000E+00  0.00000000E+00
