Mg Sr Zn N2                             
   1.00000000000000     
     3.5692182617875523    0.0000305620337603    0.0000126488910727
    -1.7846760500279639    3.0909945719454908   -0.0000127728937288
     0.0000217105082611   -0.0000124349992862    6.2497801512297793
   Sr   Mg   Zn   N 
     1     1     1     2
Direct
  0.0000032478809037  0.9999968320494032  0.0069747053587150
  0.3333318317661139  0.6666682628850849  0.6260401162076050
  0.6666576528630903  0.3333421393019373  0.3716594694872365
  0.3333350712636663  0.6666648211733045  0.2765374877971536
  0.6666721362262208  0.3333279445902700  0.7187882511492921
 
  0.00000000E+00  0.00000000E+00  0.00000000E+00
  0.00000000E+00  0.00000000E+00  0.00000000E+00
  0.00000000E+00  0.00000000E+00  0.00000000E+00
  0.00000000E+00  0.00000000E+00  0.00000000E+00
  0.00000000E+00  0.00000000E+00  0.00000000E+00
