Li4 Zn4 In4 P8                          
   1.00000000000000     
     7.1310851520968681    0.0001116546149182   -0.0879564673383497
    -0.0003323437730752    7.1960555599777338   -0.0001391642742800
    -0.0620468436857797    0.0001551741900841    7.9164923751445944
   Li   Zn   In   P 
     4     4     4     8
Direct
  0.1726577844446606  0.4935814822448174  0.8838441654232809
  0.8274623010480339  0.9936403127824616  0.6159750368722930
  0.8276767040638466  0.5063151327691841  0.1156568592663413
  0.1724548513683827  0.0063842770651920  0.3840915551155686
  0.1723331552944896  0.1577429765619760  0.7541923007803947
  0.8276427857023059  0.6577713246898712  0.7458794636926228
  0.8276414114959882  0.8422055355401679  0.2458611352394724
  0.1723345876436402  0.3422590529748837  0.2542105459384044
  0.6807619852141895  0.3499251811470045  0.4993149683375262
  0.3192022451105965  0.8498950272718027  0.0006986908597027
  0.3193176458479556  0.6501235108150722  0.5007288356618435
  0.6806669773456059  0.1501094949207361  0.9993034980208849
  0.1256315216572268  0.8174882363316555  0.7182804822110805
  0.8743250882654487  0.3175123975058215  0.7817661062125811
  0.8743053413272972  0.1824926348039304  0.2817228448183865
  0.1256569949188502  0.6825281609268092  0.2183063484037760
  0.3308924781079784  0.2925836387470981  0.5241773546176866
  0.6690759980748195  0.7925575569793794  0.9759036522474288
  0.6691243516075484  0.7074380653525036  0.4759159027301035
  0.3308357914611355  0.2074460005696332  0.0241702535506078
 
  0.00000000E+00  0.00000000E+00  0.00000000E+00
  0.00000000E+00  0.00000000E+00  0.00000000E+00
  0.00000000E+00  0.00000000E+00  0.00000000E+00
  0.00000000E+00  0.00000000E+00  0.00000000E+00
  0.00000000E+00  0.00000000E+00  0.00000000E+00
  0.00000000E+00  0.00000000E+00  0.00000000E+00
  0.00000000E+00  0.00000000E+00  0.00000000E+00
  0.00000000E+00  0.00000000E+00  0.00000000E+00
  0.00000000E+00  0.00000000E+00  0.00000000E+00
  0.00000000E+00  0.00000000E+00  0.00000000E+00
  0.00000000E+00  0.00000000E+00  0.00000000E+00
  0.00000000E+00  0.00000000E+00  0.00000000E+00
  0.00000000E+00  0.00000000E+00  0.00000000E+00
  0.00000000E+00  0.00000000E+00  0.00000000E+00
  0.00000000E+00  0.00000000E+00  0.00000000E+00
  0.00000000E+00  0.00000000E+00  0.00000000E+00
  0.00000000E+00  0.00000000E+00  0.00000000E+00
  0.00000000E+00  0.00000000E+00  0.00000000E+00
  0.00000000E+00  0.00000000E+00  0.00000000E+00
  0.00000000E+00  0.00000000E+00  0.00000000E+00
