Na4 Sr4 In4 P8                          
   1.00000000000000     
     7.2176196443197291    0.0000321035616830   -0.0473439967653313
     0.0000398770689566    9.0567527215159487   -0.0000317759555770
    -0.0032874993715200   -0.0000266976995198    7.6467614652638245
   Na   Sr   In   P 
     4     4     4     8
Direct
  0.3664704042953847  0.3852676511375171  0.9172309483200045
  0.6335340858490442  0.8852811677271233  0.5827791999876684
  0.6335315460486418  0.6147390744925623  0.0827545199386382
  0.3664740301187984  0.1147367022000703  0.4172456218890865
  0.0076810282133601  0.1223541635632969  0.7426271351242081
  0.9923211572866348  0.6223512074918748  0.7573665834211131
  0.9923210508419901  0.8776335534910092  0.2573762453537234
  0.0076764645339686  0.3776355085144176  0.2426215201031122
  0.6312350766918542  0.3648521680525607  0.5793675748339528
  0.3687546382997128  0.8648450466010643  0.9206353682205821
  0.3687683385416546  0.6351497929057960  0.4206288744390626
  0.6312319119172416  0.1351503808293619  0.0793701438261135
  0.2383446064670155  0.8592746262599523  0.5980587663791304
  0.7616519437831334  0.3592776269369045  0.9019430071780283
  0.7616577281619195  0.1407248939321299  0.4019401181748884
  0.2383474179425489  0.6407164505800945  0.0980535564717750
  0.2660298131092868  0.3895421992555919  0.5663757091791379
  0.7339733527980580  0.8895471866276274  0.9336244764991054
  0.7339660799567002  0.6104631618037331  0.4336186310884459
  0.2660293251430519  0.1104574375973189  0.0663819995722374
 
  0.00000000E+00  0.00000000E+00  0.00000000E+00
  0.00000000E+00  0.00000000E+00  0.00000000E+00
  0.00000000E+00  0.00000000E+00  0.00000000E+00
  0.00000000E+00  0.00000000E+00  0.00000000E+00
  0.00000000E+00  0.00000000E+00  0.00000000E+00
  0.00000000E+00  0.00000000E+00  0.00000000E+00
  0.00000000E+00  0.00000000E+00  0.00000000E+00
  0.00000000E+00  0.00000000E+00  0.00000000E+00
  0.00000000E+00  0.00000000E+00  0.00000000E+00
  0.00000000E+00  0.00000000E+00  0.00000000E+00
  0.00000000E+00  0.00000000E+00  0.00000000E+00
  0.00000000E+00  0.00000000E+00  0.00000000E+00
  0.00000000E+00  0.00000000E+00  0.00000000E+00
  0.00000000E+00  0.00000000E+00  0.00000000E+00
  0.00000000E+00  0.00000000E+00  0.00000000E+00
  0.00000000E+00  0.00000000E+00  0.00000000E+00
  0.00000000E+00  0.00000000E+00  0.00000000E+00
  0.00000000E+00  0.00000000E+00  0.00000000E+00
  0.00000000E+00  0.00000000E+00  0.00000000E+00
  0.00000000E+00  0.00000000E+00  0.00000000E+00
