Na6 Mg6 Al6 N12                         
   1.00000000000000     
    -2.7358238357608204   -5.7607327300088986    0.2468943520681340
    -2.7359173111966566    5.7607877733053003    0.2471449585633190
     0.7256371704465513   -0.0002644816343527  -11.6642603350279401
   Al   Na   N    Mg
     6     6    12     6
Direct
  0.8276061412203315  0.5160939216926794  0.1758757726074681
  0.5161036128209614  0.8276038331972764  0.1758745941761526
  0.1722736900645519  0.4837744029030844  0.8241164818104650
  0.4837663359575750  0.1722750355909687  0.8241181686709595
  0.3962028756068606  0.3962028684790386  0.5891968393671536
  0.6039741863486595  0.6039763389104157  0.4109133543271093
  0.1411781861097941  0.4999439787561281  0.3272010973802306
  0.4999778961013707  0.1412131137136019  0.3272117999071904
  0.8588817698551751  0.5001158211216713  0.6727938958843642
  0.5001104847823319  0.8588595353172513  0.6728004938538199
  0.2988430722881515  0.2988438569718813  0.0750197591765141
  0.7010963849079686  0.7010951599001238  0.9249662640387596
  0.8759162550306744  0.6152104235929330  0.3482158937400388
  0.6151948383637733  0.8759045128584052  0.3482231799312875
  0.1241740200441338  0.3848438736493803  0.6518166408613961
  0.3848597784376201  0.1241847453120004  0.6518094190574611
  0.1348701432873657  0.5523483758785069  0.1294389253745357
  0.5523509168224853  0.1348619557611813  0.1294451259203495
  0.8649975753005494  0.4475132734523199  0.8705266787548580
  0.4475095478191563  0.8650058446312709  0.8705228330009670
  0.2621653590705791  0.2621684852149019  0.4268617191850422
  0.7379192660261925  0.7379183408254820  0.5732038948748457
  0.7635732681719082  0.7635665420078325  0.1300505348080787
  0.2361660865657826  0.2361743186228349  0.8699543753874835
  0.9695184036308720  0.9695222308058132  0.2897233538363890
  0.0304552355693677  0.0304520579658620  0.7102638176616088
  0.8735497867711940  0.1268607572260960  0.4999599530832587
  0.1268626054958952  0.8735537819529643  0.4999555836529387
  0.7981577869163957  0.2017327377409853  0.9999519160240771
  0.2017444906123373  0.7981798759471299 -0.0000123663548036
 
  0.00000000E+00  0.00000000E+00  0.00000000E+00
  0.00000000E+00  0.00000000E+00  0.00000000E+00
  0.00000000E+00  0.00000000E+00  0.00000000E+00
  0.00000000E+00  0.00000000E+00  0.00000000E+00
  0.00000000E+00  0.00000000E+00  0.00000000E+00
  0.00000000E+00  0.00000000E+00  0.00000000E+00
  0.00000000E+00  0.00000000E+00  0.00000000E+00
  0.00000000E+00  0.00000000E+00  0.00000000E+00
  0.00000000E+00  0.00000000E+00  0.00000000E+00
  0.00000000E+00  0.00000000E+00  0.00000000E+00
  0.00000000E+00  0.00000000E+00  0.00000000E+00
  0.00000000E+00  0.00000000E+00  0.00000000E+00
  0.00000000E+00  0.00000000E+00  0.00000000E+00
  0.00000000E+00  0.00000000E+00  0.00000000E+00
  0.00000000E+00  0.00000000E+00  0.00000000E+00
  0.00000000E+00  0.00000000E+00  0.00000000E+00
  0.00000000E+00  0.00000000E+00  0.00000000E+00
  0.00000000E+00  0.00000000E+00  0.00000000E+00
  0.00000000E+00  0.00000000E+00  0.00000000E+00
  0.00000000E+00  0.00000000E+00  0.00000000E+00
  0.00000000E+00  0.00000000E+00  0.00000000E+00
  0.00000000E+00  0.00000000E+00  0.00000000E+00
  0.00000000E+00  0.00000000E+00  0.00000000E+00
  0.00000000E+00  0.00000000E+00  0.00000000E+00
  0.00000000E+00  0.00000000E+00  0.00000000E+00
  0.00000000E+00  0.00000000E+00  0.00000000E+00
  0.00000000E+00  0.00000000E+00  0.00000000E+00
  0.00000000E+00  0.00000000E+00  0.00000000E+00
  0.00000000E+00  0.00000000E+00  0.00000000E+00
  0.00000000E+00  0.00000000E+00  0.00000000E+00
