Li6 Al6 Zn6 N12                         
   1.00000000000000     
    -2.7770129520339446   -5.0774996357070483    0.4147851702458104
    -2.7770315487984067    5.0775205700291295    0.4148595929219739
     1.4512157211182499   -0.0000980050540564  -11.1907123384752278
   Al   Li   N    Zn
     6     6    12     6
Direct
  0.7987727682328214  0.4816666386986415  0.1825282915191241
  0.4816771635459844  0.7987999455984897  0.1825300992253224
  0.2179650507777744  0.5466957381015095  0.8032684589242793
  0.5467031200924123  0.2179544212791163  0.8032641791715432
  0.3624436516360001  0.3624256082922202  0.5630302521732140
  0.6406429398632526  0.6406521217754598  0.4184955323326143
  0.1835898925158205  0.5328690670236387  0.3272275936624712
  0.5328671599529067  0.1836086673677065  0.3272455621925500
  0.8311266400671333  0.5047686688976293  0.6677473290827520
  0.5047631181922587  0.8311005927297873  0.6677326469914362
  0.3181410959183155  0.3181546995543673  0.0402594480555860
  0.6468929033442776  0.6468847894643169  0.9353611249163279
  0.8983782554565193  0.6033897649549377  0.3541750053841823
  0.6033796410596518  0.8983900111480513  0.3541809904023539
  0.1321753589661297  0.4632231542333609  0.6256729113226829
  0.4632338743424841  0.1321504024572217  0.6256688833227015
  0.0999464744927668  0.4893958753027937  0.1271314053477828
  0.4894058496870382  0.0999506041139341  0.1271410861741161
  0.9189606693063405  0.5756769488128020  0.8484676834660615
  0.5756755736515552  0.9189433043928780  0.8484604147073839
  0.3103002369531488  0.3103332441867266  0.3961429307154579
  0.7388610395496709  0.7388361459376238  0.5939456363174273
  0.7394360501818530  0.7394358992574941  0.1202487474001967
  0.2953768715056803  0.2953679052926917  0.8562161777475806
  0.9853218569853093  0.9853300994261776  0.2996714734056658
  0.9333782789266689  0.9333801518539400  0.7908371485897938
  0.7543080651620639  0.1134333596870383  0.5324893332027263
  0.1134138722962495  0.7542898306054414  0.5324854129874672
  0.7721453652664985  0.1107361814094908  0.0241804379454190
  0.1107171620714282  0.7721561581445414  0.0241938033137653
 
  0.00000000E+00  0.00000000E+00  0.00000000E+00
  0.00000000E+00  0.00000000E+00  0.00000000E+00
  0.00000000E+00  0.00000000E+00  0.00000000E+00
  0.00000000E+00  0.00000000E+00  0.00000000E+00
  0.00000000E+00  0.00000000E+00  0.00000000E+00
  0.00000000E+00  0.00000000E+00  0.00000000E+00
  0.00000000E+00  0.00000000E+00  0.00000000E+00
  0.00000000E+00  0.00000000E+00  0.00000000E+00
  0.00000000E+00  0.00000000E+00  0.00000000E+00
  0.00000000E+00  0.00000000E+00  0.00000000E+00
  0.00000000E+00  0.00000000E+00  0.00000000E+00
  0.00000000E+00  0.00000000E+00  0.00000000E+00
  0.00000000E+00  0.00000000E+00  0.00000000E+00
  0.00000000E+00  0.00000000E+00  0.00000000E+00
  0.00000000E+00  0.00000000E+00  0.00000000E+00
  0.00000000E+00  0.00000000E+00  0.00000000E+00
  0.00000000E+00  0.00000000E+00  0.00000000E+00
  0.00000000E+00  0.00000000E+00  0.00000000E+00
  0.00000000E+00  0.00000000E+00  0.00000000E+00
  0.00000000E+00  0.00000000E+00  0.00000000E+00
  0.00000000E+00  0.00000000E+00  0.00000000E+00
  0.00000000E+00  0.00000000E+00  0.00000000E+00
  0.00000000E+00  0.00000000E+00  0.00000000E+00
  0.00000000E+00  0.00000000E+00  0.00000000E+00
  0.00000000E+00  0.00000000E+00  0.00000000E+00
  0.00000000E+00  0.00000000E+00  0.00000000E+00
  0.00000000E+00  0.00000000E+00  0.00000000E+00
  0.00000000E+00  0.00000000E+00  0.00000000E+00
  0.00000000E+00  0.00000000E+00  0.00000000E+00
  0.00000000E+00  0.00000000E+00  0.00000000E+00
