Strontium Calcium Zinc Nitride          
   1.00000000000000     
     3.9172953449391037   -0.0000155656474626    0.0000127008903202
    -0.0000155676787857    3.9173753406895697   -0.0000008744481952
     0.0000479049210372   -0.0000023776267262   15.5839844800659844
   Ca   Zn   Mg   P 
     2     2     2     4
Direct
  0.0000021621918622 -0.0000002331068511  0.3275784780371360
  0.0000024657593905 -0.0000011602252689  0.6724231993170124
  0.4999911098189662  0.5000036867667043  0.8175587532809141
  0.4999945210778209  0.5000027411306367  0.1824386792748175
  0.0000030858946419 -0.0000004478202476 -0.0000023008042666
  0.4999966149426990  0.5000003127056181  0.5000118627431492
  0.0000044086230755 -0.0000015205056670  0.1517274843412845
  0.0000036279899846 -0.0000011908176453  0.8482674909577533
  0.5000009687051077  0.4999980554449678  0.6513249008636096
  0.5000010349964511  0.4999997564277535  0.3486714519886040
 
  0.00000000E+00  0.00000000E+00  0.00000000E+00
  0.00000000E+00  0.00000000E+00  0.00000000E+00
  0.00000000E+00  0.00000000E+00  0.00000000E+00
  0.00000000E+00  0.00000000E+00  0.00000000E+00
  0.00000000E+00  0.00000000E+00  0.00000000E+00
  0.00000000E+00  0.00000000E+00  0.00000000E+00
  0.00000000E+00  0.00000000E+00  0.00000000E+00
  0.00000000E+00  0.00000000E+00  0.00000000E+00
  0.00000000E+00  0.00000000E+00  0.00000000E+00
  0.00000000E+00  0.00000000E+00  0.00000000E+00
