Li6 Al6 Zn6 P12                         
   1.00000000000000     
    -3.2842145800125415   -6.2642405373203873    0.5389349809608454
    -3.2842062778301293    6.2641996980670882    0.5385123730130004
     1.8592361579224557    0.0004594936586490  -13.5733452646358295
   Al   Li   P    Zn
     6     6    12     6
Direct
  0.7961828639606434  0.4829952943244264  0.1968534107405513
  0.4829795818288697  0.7961912392579681  0.1968459414464280
  0.2042814998871452  0.5173862846891675  0.8031048653203168
  0.5174036253177912  0.2042468240473253  0.8030972412595450
  0.4169862498165987  0.4169729718807537  0.5794511061617927
  0.5831709792747327  0.5831651351062518  0.4204546276568785
  0.1409431758971749  0.4845975347232372  0.3536229820395376
  0.4846250465691819  0.1409725769556670  0.3536313007330961
  0.8592916668328632  0.5156166468082005  0.6462411917013504
  0.5156062219118723  0.8592477688400131  0.6462310219826198
  0.3581372127746042  0.3581876801565951  0.0625282724055528
  0.6417193854251370  0.6416626182977382  0.9371114744838743
  0.8491077290478357  0.5305638094191614  0.3721498858903486
  0.5305433386318659  0.8491066894596707  0.3721341801876326
  0.1510840212792115  0.4697147509574141  0.6277127834817623
  0.4697390846600786  0.1510621988433947  0.6277191158512453
  0.0872457745378435  0.4218825578127112  0.1513855727866772
  0.4219182756276323  0.0872467608088442  0.1513301367223324
  0.9129434480201484  0.5783636329957891  0.8486631339458044
  0.5783486365587450  0.9129310599322137  0.8487078187858257
  0.2076656270082226  0.2076464402404396  0.4019170160345800
  0.7925868651487793  0.7925931389776697  0.5980032484402648
  0.7519246469695798  0.7519560274055109  0.1250790678928188
  0.2484790169270183  0.2483943941757569  0.8746623519613742
  0.1120782935835743  0.1120837837410663  0.2174554264090677
  0.8880192079991051  0.8880108203632472  0.7826886950107736
  0.8782180024477650  0.1218161275308804  0.5000260531713902
  0.1218338968160943  0.8782359421411376  0.5000364655707340
  0.8410222488916238  0.1560406021781102  0.0005879638657556
  0.1559143763482832  0.8411086879296534  0.0005676480600691
 
  0.00000000E+00  0.00000000E+00  0.00000000E+00
  0.00000000E+00  0.00000000E+00  0.00000000E+00
  0.00000000E+00  0.00000000E+00  0.00000000E+00
  0.00000000E+00  0.00000000E+00  0.00000000E+00
  0.00000000E+00  0.00000000E+00  0.00000000E+00
  0.00000000E+00  0.00000000E+00  0.00000000E+00
  0.00000000E+00  0.00000000E+00  0.00000000E+00
  0.00000000E+00  0.00000000E+00  0.00000000E+00
  0.00000000E+00  0.00000000E+00  0.00000000E+00
  0.00000000E+00  0.00000000E+00  0.00000000E+00
  0.00000000E+00  0.00000000E+00  0.00000000E+00
  0.00000000E+00  0.00000000E+00  0.00000000E+00
  0.00000000E+00  0.00000000E+00  0.00000000E+00
  0.00000000E+00  0.00000000E+00  0.00000000E+00
  0.00000000E+00  0.00000000E+00  0.00000000E+00
  0.00000000E+00  0.00000000E+00  0.00000000E+00
  0.00000000E+00  0.00000000E+00  0.00000000E+00
  0.00000000E+00  0.00000000E+00  0.00000000E+00
  0.00000000E+00  0.00000000E+00  0.00000000E+00
  0.00000000E+00  0.00000000E+00  0.00000000E+00
  0.00000000E+00  0.00000000E+00  0.00000000E+00
  0.00000000E+00  0.00000000E+00  0.00000000E+00
  0.00000000E+00  0.00000000E+00  0.00000000E+00
  0.00000000E+00  0.00000000E+00  0.00000000E+00
  0.00000000E+00  0.00000000E+00  0.00000000E+00
  0.00000000E+00  0.00000000E+00  0.00000000E+00
  0.00000000E+00  0.00000000E+00  0.00000000E+00
  0.00000000E+00  0.00000000E+00  0.00000000E+00
  0.00000000E+00  0.00000000E+00  0.00000000E+00
  0.00000000E+00  0.00000000E+00  0.00000000E+00
