Strontium Calcium Zinc Nitride          
   1.00000000000000     
     3.7087802309624984    0.0000000020440146    0.0000000246268617
     0.0000000014457006    3.7087802788975339   -0.0000000016446954
     0.0000000695971899    0.0000000030127828   13.5316598013071800
   Sr   Ca   Mg   N 
     2     2     2     4
Direct
  0.9999999634004794  0.0000000155571841  0.3333182510801996
  0.9999999520220213 -0.0000000164982167  0.6666809529482671
  0.5000000204692655  0.5000000378798508  0.8317317086002561
  0.5000000602989023  0.4999999506606540  0.1682665216702249
  0.0000000447415220  0.0000000271891708  0.0000034229326510
  0.4999999946771749  0.4999999965326828  0.4999990498326922
  0.9999998690430849  0.9999999900123749  0.1447073453450335
  0.9999998250429398  0.9999999848485085  0.8552899299648941
  0.5000001183320171  0.4999999910362650  0.6447996544990350
  0.5000001519725785  0.5000000227815258  0.3552031631267537
 
  0.00000000E+00  0.00000000E+00  0.00000000E+00
  0.00000000E+00  0.00000000E+00  0.00000000E+00
  0.00000000E+00  0.00000000E+00  0.00000000E+00
  0.00000000E+00  0.00000000E+00  0.00000000E+00
  0.00000000E+00  0.00000000E+00  0.00000000E+00
  0.00000000E+00  0.00000000E+00  0.00000000E+00
  0.00000000E+00  0.00000000E+00  0.00000000E+00
  0.00000000E+00  0.00000000E+00  0.00000000E+00
  0.00000000E+00  0.00000000E+00  0.00000000E+00
  0.00000000E+00  0.00000000E+00  0.00000000E+00
