Na4 Sr4 Ga4 N8                          
   1.00000000000000     
     6.1571414212033435   -0.0000123733703939   -0.0986703723513868
    -0.0000157704664252    7.5553870205720735   -0.0000331075852612
    -0.0708135411082615   -0.0000270950920382    6.2279944708781994
   Na   Sr   Ga   N 
     4     4     4     8
Direct
  0.3665411809477681  0.3954941592542234  0.9137640016156954
  0.6334590584977503  0.8954963923649444  0.5862346649859235
  0.6334601823043434  0.6045032912672959  0.0862356293390370
  0.3665413774680608  0.1045042688518250  0.4137646848373603
  0.0150399962141361  0.1187223219405643  0.7431423662511603
  0.9849632807754526  0.6187216072410792  0.7568547207758367
  0.9849653610200204  0.8812796308462305  0.2568537198287616
  0.0150413805509440  0.3812779233526988  0.2431398280851323
  0.6257756056435975  0.3641340955070005  0.5670467986659985
  0.3742241492339655  0.8641277825669105  0.9329591038903675
  0.3742276136413711  0.6358690551788118  0.4329629962158330
  0.6257747173723605  0.1358707637015837  0.0670390795846605
  0.2550563547825372  0.8396344565804466  0.6141166519381138
  0.7449433859993972  0.3396400361926342  0.8858802145830660
  0.7449427387856432  0.1603643703228748  0.3858782474535314
  0.2550554872892070  0.6603574510742741  0.1141236506038353
  0.2960714729513736  0.3973929119214710  0.5483827039461200
  0.7039207822638599  0.8973940533494303  0.9516217175850052
  0.7039205738532270  0.6026095845564384  0.4516200719501192
  0.2960753004049989  0.1026058439292625  0.0483791478644424
 
  0.00000000E+00  0.00000000E+00  0.00000000E+00
  0.00000000E+00  0.00000000E+00  0.00000000E+00
  0.00000000E+00  0.00000000E+00  0.00000000E+00
  0.00000000E+00  0.00000000E+00  0.00000000E+00
  0.00000000E+00  0.00000000E+00  0.00000000E+00
  0.00000000E+00  0.00000000E+00  0.00000000E+00
  0.00000000E+00  0.00000000E+00  0.00000000E+00
  0.00000000E+00  0.00000000E+00  0.00000000E+00
  0.00000000E+00  0.00000000E+00  0.00000000E+00
  0.00000000E+00  0.00000000E+00  0.00000000E+00
  0.00000000E+00  0.00000000E+00  0.00000000E+00
  0.00000000E+00  0.00000000E+00  0.00000000E+00
  0.00000000E+00  0.00000000E+00  0.00000000E+00
  0.00000000E+00  0.00000000E+00  0.00000000E+00
  0.00000000E+00  0.00000000E+00  0.00000000E+00
  0.00000000E+00  0.00000000E+00  0.00000000E+00
  0.00000000E+00  0.00000000E+00  0.00000000E+00
  0.00000000E+00  0.00000000E+00  0.00000000E+00
  0.00000000E+00  0.00000000E+00  0.00000000E+00
  0.00000000E+00  0.00000000E+00  0.00000000E+00
