Na12 Sr3 P6                             
   1.00000000000000     
     4.7861538847498810    0.0324170963459579   -0.6418282774323281
    -2.3946407311734026    4.1683738395549481    0.6330291721186180
    -3.7812514108650750    2.2856428517063185   26.2905860602050190
   Na   Sr   P 
    12     3     6
Direct
 -0.0196524657079664 -0.0164663971775448  0.8122440895937298
  0.0603630630118525  0.9140958042422398  0.2242194591522866
  0.6360691535656270  0.3370872964072182  0.1325001972567049
  0.6691559735205340  0.2383197489986692  0.5381711535196620
  0.2694863015764654  0.6641972619815704  0.4572759457369858
  0.4100613697037472  0.5714955060805725  0.8972981000563985
  0.0550391248020468  0.8510871863958076  0.5906370251328201
  0.8895694259737040  0.0477927447602054  0.4093039793531710
  0.7008629458410601  0.2802649781849498  0.8539438063028181
  0.5496023133196932  0.3762463719871638  0.7386590666305634
  0.3560445261378954  0.6258910293400211  0.1831874476969177
  0.2405297248972749  0.7336162394863809  0.0672673138261593
  0.8299031515461883  0.1480866570244906  0.9872527736934059
  0.4772676097802339  0.4852573837500424  0.3151536977757370
  0.8072395979878668  0.0993690207982859  0.6751588046630840
  0.1078296027941619  0.8701706378989781  0.9314675442514486
  0.9422333986219165  0.0302931257497243  0.1048586357971761
  0.7568718406201470  0.2113250040554667  0.2580067497280192
  0.5786392936699767  0.3571782167274513  0.4321691145969432
  0.4182341081156117  0.4919350880258992  0.6173677038865916
  0.2646499402219640  0.6827570952824008  0.7738573913493929
 
  0.00000000E+00  0.00000000E+00  0.00000000E+00
  0.00000000E+00  0.00000000E+00  0.00000000E+00
  0.00000000E+00  0.00000000E+00  0.00000000E+00
  0.00000000E+00  0.00000000E+00  0.00000000E+00
  0.00000000E+00  0.00000000E+00  0.00000000E+00
  0.00000000E+00  0.00000000E+00  0.00000000E+00
  0.00000000E+00  0.00000000E+00  0.00000000E+00
  0.00000000E+00  0.00000000E+00  0.00000000E+00
  0.00000000E+00  0.00000000E+00  0.00000000E+00
  0.00000000E+00  0.00000000E+00  0.00000000E+00
  0.00000000E+00  0.00000000E+00  0.00000000E+00
  0.00000000E+00  0.00000000E+00  0.00000000E+00
  0.00000000E+00  0.00000000E+00  0.00000000E+00
  0.00000000E+00  0.00000000E+00  0.00000000E+00
  0.00000000E+00  0.00000000E+00  0.00000000E+00
  0.00000000E+00  0.00000000E+00  0.00000000E+00
  0.00000000E+00  0.00000000E+00  0.00000000E+00
  0.00000000E+00  0.00000000E+00  0.00000000E+00
  0.00000000E+00  0.00000000E+00  0.00000000E+00
  0.00000000E+00  0.00000000E+00  0.00000000E+00
  0.00000000E+00  0.00000000E+00  0.00000000E+00
