K12 Ca3 P6                              
   1.00000000000000     
     5.7292397506938650    0.0003343179890458    0.0012606129042804
    -2.8643303252242385    4.9619750924942556   -0.0015893277793648
     0.0061891190850045   -0.0054703875141883   29.1541494860614634
   K    Ca   P 
    12     3     6
Direct
 -0.0001115082532993 -0.0000357458890394  0.7938305516004475
  0.0000779786116671  0.0000217067729240  0.2061681598547512
  0.6668189951662298  0.3330898893432792  0.1265074238710669
  0.6668456390789135  0.3331902930451442  0.5396788237270956
  0.3332646502957707  0.6665914791427152  0.4603355771698714
  0.3331139337658632  0.6669937577091920  0.8735060301717520
  0.0000558507498384 -0.0000896443139089  0.5811533551656327
  0.9999638600501084 -0.0000470530486437  0.4188241743398521
  0.6665210990895440  0.3336742813497509  0.9143800221557167
  0.6666910603982737  0.3334400989255447  0.7514678315193773
  0.3333501214496161  0.6666956377254895  0.2485155401501327
  0.3334957381045539  0.6664290807015362  0.0856244580923259
  0.9999871605590224  0.0000459050881631 -0.0000010877337925
  0.6666188873387077  0.3333712034434482  0.3329686161220802
  0.3332813710345875  0.6666778886213590  0.6670503453202723
  0.9997977189930498  0.0004579132329315  0.9072305433341741
  0.0002598601187057  0.9997103332635907  0.0927779243283964
  0.6666810696065153  0.3333305799734421  0.2402772823102190
  0.6666107218267594  0.3333196094148508  0.4259186162434463
  0.3334189672262144  0.6665098367913174  0.5740639899986734
  0.3332568247893514  0.6666229487069136  0.7597218222585227
 
  0.00000000E+00  0.00000000E+00  0.00000000E+00
  0.00000000E+00  0.00000000E+00  0.00000000E+00
  0.00000000E+00  0.00000000E+00  0.00000000E+00
  0.00000000E+00  0.00000000E+00  0.00000000E+00
  0.00000000E+00  0.00000000E+00  0.00000000E+00
  0.00000000E+00  0.00000000E+00  0.00000000E+00
  0.00000000E+00  0.00000000E+00  0.00000000E+00
  0.00000000E+00  0.00000000E+00  0.00000000E+00
  0.00000000E+00  0.00000000E+00  0.00000000E+00
  0.00000000E+00  0.00000000E+00  0.00000000E+00
  0.00000000E+00  0.00000000E+00  0.00000000E+00
  0.00000000E+00  0.00000000E+00  0.00000000E+00
  0.00000000E+00  0.00000000E+00  0.00000000E+00
  0.00000000E+00  0.00000000E+00  0.00000000E+00
  0.00000000E+00  0.00000000E+00  0.00000000E+00
  0.00000000E+00  0.00000000E+00  0.00000000E+00
  0.00000000E+00  0.00000000E+00  0.00000000E+00
  0.00000000E+00  0.00000000E+00  0.00000000E+00
  0.00000000E+00  0.00000000E+00  0.00000000E+00
  0.00000000E+00  0.00000000E+00  0.00000000E+00
  0.00000000E+00  0.00000000E+00  0.00000000E+00
