K12 Sr3 P6                              
   1.00000000000000     
     5.7373231600915098   -0.0001339518564899    0.0002167513161541
    -2.8687775958057538    4.9685330143901734   -0.0001736821801690
     0.0010101245092140   -0.0003233035211407   30.3126425193839850
   K    Sr   P 
    12     3     6
Direct
 -0.0000409341888446  0.9997796107905185  0.7949809116066224
  0.0001363603595431  0.9999503585218477  0.2050067481120507
  0.6667443382917622  0.3334394733109012  0.1283996439359570
  0.6665894763901540  0.3335168301268920  0.5382827086013594
  0.3332764751827292  0.6667869679768966  0.4616888194392785
  0.3333409875628671  0.6666154341869204  0.8715637162119942
 -0.0000264645081551 -0.0000028267265975  0.5753422649613122
 -0.0000038202829851  0.0000450568879427  0.4246775592290529
  0.6666568541020442  0.3333775799168933  0.9086640515199769
  0.6666091264160837  0.3329969874782416  0.7580513999784636
  0.3333384227834342  0.6666823824341394  0.2419797696900255
  0.3333411377574917  0.6666674278278663  0.0913463829452417
  0.9999489623577671  0.0000960321820595 -0.0000144254470593
  0.6666512767542818  0.3333862952819713  0.3332975542751386
  0.3333424816382907  0.6666720334056159  0.6667174797264417
  0.0000136650969190 -0.0000854966157010  0.9046023138110343
  0.0000687857219537  0.0000983654331922  0.0953866601574429
  0.6667308761990147  0.3332797746063572  0.2379384046856040
  0.6666526182952633  0.3333979532570752  0.4287252260763950
  0.3333227357371440  0.6667394660857249  0.5712793901523598
  0.3333066383332340  0.6665602936312429  0.7620834203313005
 
  0.00000000E+00  0.00000000E+00  0.00000000E+00
  0.00000000E+00  0.00000000E+00  0.00000000E+00
  0.00000000E+00  0.00000000E+00  0.00000000E+00
  0.00000000E+00  0.00000000E+00  0.00000000E+00
  0.00000000E+00  0.00000000E+00  0.00000000E+00
  0.00000000E+00  0.00000000E+00  0.00000000E+00
  0.00000000E+00  0.00000000E+00  0.00000000E+00
  0.00000000E+00  0.00000000E+00  0.00000000E+00
  0.00000000E+00  0.00000000E+00  0.00000000E+00
  0.00000000E+00  0.00000000E+00  0.00000000E+00
  0.00000000E+00  0.00000000E+00  0.00000000E+00
  0.00000000E+00  0.00000000E+00  0.00000000E+00
  0.00000000E+00  0.00000000E+00  0.00000000E+00
  0.00000000E+00  0.00000000E+00  0.00000000E+00
  0.00000000E+00  0.00000000E+00  0.00000000E+00
  0.00000000E+00  0.00000000E+00  0.00000000E+00
  0.00000000E+00  0.00000000E+00  0.00000000E+00
  0.00000000E+00  0.00000000E+00  0.00000000E+00
  0.00000000E+00  0.00000000E+00  0.00000000E+00
  0.00000000E+00  0.00000000E+00  0.00000000E+00
  0.00000000E+00  0.00000000E+00  0.00000000E+00
