Li6 Mg6 In6 N12                         
   1.00000000000000     
    -2.9096202106874247   -5.4537307952018130    0.1957800342257883
    -2.8897389330211518    5.4420619096914296    0.1638445198852077
     0.4853722941894967    0.0354581074520851  -11.5557286891602651
   In   Li   N    Mg
     6     6    12     6
Direct
  0.7971759311890639  0.4614789230097424  0.1933731381911270
  0.4605552395819218  0.7962115737410874  0.1936560808716346
  0.2028863298937560  0.5385580546775786  0.8065337391176550
  0.5396126146256937  0.2040811581506586  0.8062888457127749
  0.2461994112684277  0.2469776849450108  0.5717857558263366
  0.7533664068187915  0.7524748342172024  0.4282908069646120
  0.1548727168706178  0.4532699325138048  0.3474624005444067
  0.4599225124157677  0.1557763082233413  0.3469498530911371
  0.8446607644128540  0.5462225379862556  0.6523122356357688
  0.5395250669933322  0.8440495845114671  0.6530661768827618
  0.3744715216309390  0.3767608314862625  0.0625598369662701
  0.6262923862182969  0.6239795356228858  0.9379346429936615
  0.8429968775179476  0.4772798400370801  0.3814860554418587
  0.4785294112327887  0.8406846266644677  0.3809244346847734
  0.1567832592146009  0.5224486778039429  0.6185388273015389
  0.5211822475321450  0.1589401478784908  0.6190633635687230
  0.0981079932775928  0.4050443789222434  0.1406255780654062
  0.4060545247573342  0.0992645081908282  0.1400081183853103
  0.9020159586229987  0.5950088251387825  0.8595276956135344
  0.5937279946062693  0.9009595388177642  0.8603486639230197
  0.1307987418649051  0.1234763102182086  0.3884230374160250
  0.8684754260032965  0.8762069326867827  0.6116701367544127
  0.7683306484040154  0.7698210848059256  0.1065198242082963
  0.2312517026801032  0.2299015044434093  0.8937575629991010
  0.0840682836763914  0.0823175536646878  0.2143830315423368
  0.9156034843357156  0.9174399832735484  0.7855722799881526
  0.7883390823390959  0.2107386749795151  0.5023022841412293
  0.2113248150224849  0.7885233995113394  0.4972954671930739
  0.8616367053254511  0.1344645926668153  0.0013062983630067
  0.1412319416674148  0.8676384612108945  0.9980338276120414
 
  0.00000000E+00  0.00000000E+00  0.00000000E+00
  0.00000000E+00  0.00000000E+00  0.00000000E+00
  0.00000000E+00  0.00000000E+00  0.00000000E+00
  0.00000000E+00  0.00000000E+00  0.00000000E+00
  0.00000000E+00  0.00000000E+00  0.00000000E+00
  0.00000000E+00  0.00000000E+00  0.00000000E+00
  0.00000000E+00  0.00000000E+00  0.00000000E+00
  0.00000000E+00  0.00000000E+00  0.00000000E+00
  0.00000000E+00  0.00000000E+00  0.00000000E+00
  0.00000000E+00  0.00000000E+00  0.00000000E+00
  0.00000000E+00  0.00000000E+00  0.00000000E+00
  0.00000000E+00  0.00000000E+00  0.00000000E+00
  0.00000000E+00  0.00000000E+00  0.00000000E+00
  0.00000000E+00  0.00000000E+00  0.00000000E+00
  0.00000000E+00  0.00000000E+00  0.00000000E+00
  0.00000000E+00  0.00000000E+00  0.00000000E+00
  0.00000000E+00  0.00000000E+00  0.00000000E+00
  0.00000000E+00  0.00000000E+00  0.00000000E+00
  0.00000000E+00  0.00000000E+00  0.00000000E+00
  0.00000000E+00  0.00000000E+00  0.00000000E+00
  0.00000000E+00  0.00000000E+00  0.00000000E+00
  0.00000000E+00  0.00000000E+00  0.00000000E+00
  0.00000000E+00  0.00000000E+00  0.00000000E+00
  0.00000000E+00  0.00000000E+00  0.00000000E+00
  0.00000000E+00  0.00000000E+00  0.00000000E+00
  0.00000000E+00  0.00000000E+00  0.00000000E+00
  0.00000000E+00  0.00000000E+00  0.00000000E+00
  0.00000000E+00  0.00000000E+00  0.00000000E+00
  0.00000000E+00  0.00000000E+00  0.00000000E+00
  0.00000000E+00  0.00000000E+00  0.00000000E+00
