Li12 Mg3 N6                             
   1.00000000000000     
     3.6065277601457426    0.0010851727808669    0.0001442205593025
    -1.8023240972398817    3.1239729381376473   -0.0003692465891793
     0.0010882288891821   -0.0020832467626886   19.9766765198366620
   Li   Mg   N 
    12     3     6
Direct
  0.0000156808853746  0.0000180005855950  0.7985791896796880
  0.9999462565757353  0.0001277945368468  0.2014328916842325
  0.6668175254860909  0.3332598017125689  0.1321518823773178
  0.6665229984046974  0.3335118119621268  0.5345998428424081
  0.3333051994637896  0.6667509471876559  0.4653592971445715
  0.3333494845719698  0.6667273529324165  0.8678458479246424
  0.9998931772181907  0.0000772825952866  0.5725443359746313
  0.9999225431966778  0.0001308994905923  0.4274348420613829
  0.6667612226173809  0.3333156895746933  0.9060340378089542
  0.6665800767032563  0.3333880252735719  0.7604131773665419
  0.3333122176002987  0.6667472796524876  0.2395782547616099
  0.3334884815406864  0.6665883138174632  0.0939966280929213
  0.0006649092697181  0.9993403228480521  0.0000091671157658
  0.6666987261777454  0.3334068208632836  0.3335827157963164
  0.3327773591520249  0.6662510664028672  0.6664308022451321
  0.0000798560267374  0.0000024218352593  0.9016844710747799
  0.0001172583576141  0.9999530437706543  0.0983333252569450
  0.6666334230390655  0.3334386008082401  0.2352683062450735
  0.6666048813259295  0.3334417293675779  0.4317752526915882
  0.3332353315610229  0.6668105995462594  0.5682085521322463
  0.3332733908259866  0.6667121952365085  0.7647371797232509
 
  0.00000000E+00  0.00000000E+00  0.00000000E+00
  0.00000000E+00  0.00000000E+00  0.00000000E+00
  0.00000000E+00  0.00000000E+00  0.00000000E+00
  0.00000000E+00  0.00000000E+00  0.00000000E+00
  0.00000000E+00  0.00000000E+00  0.00000000E+00
  0.00000000E+00  0.00000000E+00  0.00000000E+00
  0.00000000E+00  0.00000000E+00  0.00000000E+00
  0.00000000E+00  0.00000000E+00  0.00000000E+00
  0.00000000E+00  0.00000000E+00  0.00000000E+00
  0.00000000E+00  0.00000000E+00  0.00000000E+00
  0.00000000E+00  0.00000000E+00  0.00000000E+00
  0.00000000E+00  0.00000000E+00  0.00000000E+00
  0.00000000E+00  0.00000000E+00  0.00000000E+00
  0.00000000E+00  0.00000000E+00  0.00000000E+00
  0.00000000E+00  0.00000000E+00  0.00000000E+00
  0.00000000E+00  0.00000000E+00  0.00000000E+00
  0.00000000E+00  0.00000000E+00  0.00000000E+00
  0.00000000E+00  0.00000000E+00  0.00000000E+00
  0.00000000E+00  0.00000000E+00  0.00000000E+00
  0.00000000E+00  0.00000000E+00  0.00000000E+00
  0.00000000E+00  0.00000000E+00  0.00000000E+00
