Na4 Ca4 Al4 N8                          
   1.00000000000000     
     5.9032893431840696    0.0000006097337240   -0.2437876493471614
     0.0000007402206809    7.5831891728676588    0.0000006895801536
    -0.2281117506352681    0.0000007162514227    5.8157898278512308
   Na   Ca   Al   N 
     4     4     4     8
Direct
  0.3449559156933346  0.3868638862192139  0.9468184041484986
  0.6550427731007750  0.8868620040750160  0.5531813291035614
  0.6550465771402851  0.6131389189218091  0.0531826350812117
  0.3449541750288285  0.1131369730691874  0.4468179244816881
 -0.0172099525524639  0.1135505843793550  0.7592286996928271
  0.0172095440881578  0.6135470520035213  0.7407724957223487
  0.0172070441916176  0.8864511107766231  0.2407744285280382
 -0.0172083987667704  0.3864472579279917  0.2592274085914795
  0.6214235220309350  0.3686579267161880  0.5811480641527725
  0.3785761103033520  0.8686595043049037  0.9188521234910306
  0.3785771322240244  0.6313406833901010  0.4188511682331122
  0.6214224808560423  0.1313425763211094  0.0811483243443899
  0.2598938541171902  0.8280000561038531  0.6031440053173998
  0.7401096313472360  0.3280022961764458  0.8968561990246514
  0.7401095470383741  0.1719976947689230  0.3968563829976909
  0.2598936020069538  0.6719999879667936  0.1031437888572572
  0.2941358008494647  0.4112908068916928  0.5451582046776685
  0.7058624354374619  0.9112952878686592  0.9548401828897815
  0.7058643719732265  0.5887056747906281  0.4548388012639320
  0.2941338338919599  0.0887097173279778  0.0451594294006605
 
  0.00000000E+00  0.00000000E+00  0.00000000E+00
  0.00000000E+00  0.00000000E+00  0.00000000E+00
  0.00000000E+00  0.00000000E+00  0.00000000E+00
  0.00000000E+00  0.00000000E+00  0.00000000E+00
  0.00000000E+00  0.00000000E+00  0.00000000E+00
  0.00000000E+00  0.00000000E+00  0.00000000E+00
  0.00000000E+00  0.00000000E+00  0.00000000E+00
  0.00000000E+00  0.00000000E+00  0.00000000E+00
  0.00000000E+00  0.00000000E+00  0.00000000E+00
  0.00000000E+00  0.00000000E+00  0.00000000E+00
  0.00000000E+00  0.00000000E+00  0.00000000E+00
  0.00000000E+00  0.00000000E+00  0.00000000E+00
  0.00000000E+00  0.00000000E+00  0.00000000E+00
  0.00000000E+00  0.00000000E+00  0.00000000E+00
  0.00000000E+00  0.00000000E+00  0.00000000E+00
  0.00000000E+00  0.00000000E+00  0.00000000E+00
  0.00000000E+00  0.00000000E+00  0.00000000E+00
  0.00000000E+00  0.00000000E+00  0.00000000E+00
  0.00000000E+00  0.00000000E+00  0.00000000E+00
  0.00000000E+00  0.00000000E+00  0.00000000E+00
