K4 Mg4 Ga4 N8                           
   1.00000000000000     
     5.6304633895950298   -0.0001251474530730   -1.1450013697566910
    -0.0001419331738695    9.1769685228379920    0.0000764390894263
    -1.0923055700581585    0.0000550845004795    5.6129761996048240
   K    Mg   Ga   N 
     4     4     4     8
Direct
  0.2421850257863053  0.3764992264513494  0.9949368516306699
  0.7578467745243865  0.8764958554825931  0.5050872244563891
  0.7578244025534061  0.6234992679880484  0.0051172879986622
  0.2421457762585623  0.1235099569067640  0.4948676479738557
  0.8824869428249720  0.1234125458480772  0.8454668607180533
  0.1175276769650641  0.6234142761828756  0.6545290213219936
  0.1175069830153129  0.8765833128472695  0.1545127298979617
  0.8824914128572307  0.3765902078539264  0.3454754796323611
  0.5974068523590952  0.3718428778556075  0.6259967987332674
  0.4025949919591628  0.8718398970896460  0.8740024340791235
  0.4025919681444464  0.6281540537337910  0.3740353209205358
  0.5973881549251360  0.1281536514118060  0.1259672081717917
  0.2753311501031692  0.7987946435371147  0.5240405844049002
  0.7246930169713712  0.2988015731675206  0.9759677385073791
  0.7246235855654640  0.2012067647271234  0.4759440768627272
  0.2753567785987864  0.7011968731995744  0.0240538381392051
  0.2539219800452630  0.4528211116667874  0.4853956566761742
  0.7460899067985183  0.9528275322583580  0.0146447373403143
  0.7460870181941326  0.5471814663045544  0.5146390407514032
  0.2538996015502221  0.0471749054872190  0.9853194617832383
 
  0.00000000E+00  0.00000000E+00  0.00000000E+00
  0.00000000E+00  0.00000000E+00  0.00000000E+00
  0.00000000E+00  0.00000000E+00  0.00000000E+00
  0.00000000E+00  0.00000000E+00  0.00000000E+00
  0.00000000E+00  0.00000000E+00  0.00000000E+00
  0.00000000E+00  0.00000000E+00  0.00000000E+00
  0.00000000E+00  0.00000000E+00  0.00000000E+00
  0.00000000E+00  0.00000000E+00  0.00000000E+00
  0.00000000E+00  0.00000000E+00  0.00000000E+00
  0.00000000E+00  0.00000000E+00  0.00000000E+00
  0.00000000E+00  0.00000000E+00  0.00000000E+00
  0.00000000E+00  0.00000000E+00  0.00000000E+00
  0.00000000E+00  0.00000000E+00  0.00000000E+00
  0.00000000E+00  0.00000000E+00  0.00000000E+00
  0.00000000E+00  0.00000000E+00  0.00000000E+00
  0.00000000E+00  0.00000000E+00  0.00000000E+00
  0.00000000E+00  0.00000000E+00  0.00000000E+00
  0.00000000E+00  0.00000000E+00  0.00000000E+00
  0.00000000E+00  0.00000000E+00  0.00000000E+00
  0.00000000E+00  0.00000000E+00  0.00000000E+00
