K6 Sr6 Ga6 P12                          
   1.00000000000000     
    -3.5359311653639574   -7.2019599669564149    0.1257749879435805
    -3.5359867656662773    7.2019919230257585    0.1259834027027242
     0.1997612136795871   -0.0002338636315462  -15.7337824555750885
   Ga   K    P    Sr
     6     6    12     6
Direct
  0.8465530556896431  0.5258752255662257  0.1803050987043785
  0.5258813408187455  0.8465510204054012  0.1803019603215133
  0.1534490747116063  0.4741270367759448  0.8196957271443827
  0.4741264194313677  0.1534531062671765  0.8196971428609040
  0.3879733502493948  0.3879629866301412  0.5884613791330553
  0.6120034978803492  0.6120151699771893  0.4115454811597360
  0.1471875769074233  0.4765760285424905  0.3159573213906874
  0.4766041611127592  0.1471927288671603  0.3159615289484649
  0.8528121998496971  0.5234265036077972  0.6840399195601584
  0.5233845633841353  0.8527885978806538  0.6840325850670859
  0.3610351880983211  0.3610302014365695  0.0863461775307034
  0.6389773680583756  0.6389798405378952  0.9136395063389565
  0.8697789389321969  0.5927384461593566  0.3452643258217685
  0.5927117974650572  0.8697623611173044  0.3452672365274221
  0.1302210120965779  0.4072627582309257  0.6547382260212544
  0.4072882265210193  0.1302342839975381  0.6547342781310787
  0.1548749712171954  0.5652618055898753  0.1317130591451620
  0.5652702364180008  0.1548688267803831  0.1317152388070135
  0.8451259742894797  0.4347367442481194  0.8682859763040632
  0.4347341671768468  0.8451364420319361  0.8682838654583959
  0.2720073467693208  0.2720185043273343  0.4405155044671211
  0.7279874131264467  0.7279795253300035  0.5594923463040616
  0.7961657588850894  0.7961708368098680  0.1121372290575023
  0.2038395173097737  0.2038373174914308  0.8878621330930061
  0.9777113641190296  0.9777203221987126  0.2783046578543847
  0.0222806152517086  0.0222788021413833  0.7216996424948258
  0.8506139628883701  0.1493850120058581  0.5000046380489559
  0.1493906006440798  0.8506214297944411  0.4999956616825770
  0.8381495167213043  0.1618747216417882  0.0000017904977113
  0.1618607839766700  0.8381334136091120  0.0000003621236708
 
  0.00000000E+00  0.00000000E+00  0.00000000E+00
  0.00000000E+00  0.00000000E+00  0.00000000E+00
  0.00000000E+00  0.00000000E+00  0.00000000E+00
  0.00000000E+00  0.00000000E+00  0.00000000E+00
  0.00000000E+00  0.00000000E+00  0.00000000E+00
  0.00000000E+00  0.00000000E+00  0.00000000E+00
  0.00000000E+00  0.00000000E+00  0.00000000E+00
  0.00000000E+00  0.00000000E+00  0.00000000E+00
  0.00000000E+00  0.00000000E+00  0.00000000E+00
  0.00000000E+00  0.00000000E+00  0.00000000E+00
  0.00000000E+00  0.00000000E+00  0.00000000E+00
  0.00000000E+00  0.00000000E+00  0.00000000E+00
  0.00000000E+00  0.00000000E+00  0.00000000E+00
  0.00000000E+00  0.00000000E+00  0.00000000E+00
  0.00000000E+00  0.00000000E+00  0.00000000E+00
  0.00000000E+00  0.00000000E+00  0.00000000E+00
  0.00000000E+00  0.00000000E+00  0.00000000E+00
  0.00000000E+00  0.00000000E+00  0.00000000E+00
  0.00000000E+00  0.00000000E+00  0.00000000E+00
  0.00000000E+00  0.00000000E+00  0.00000000E+00
  0.00000000E+00  0.00000000E+00  0.00000000E+00
  0.00000000E+00  0.00000000E+00  0.00000000E+00
  0.00000000E+00  0.00000000E+00  0.00000000E+00
  0.00000000E+00  0.00000000E+00  0.00000000E+00
  0.00000000E+00  0.00000000E+00  0.00000000E+00
  0.00000000E+00  0.00000000E+00  0.00000000E+00
  0.00000000E+00  0.00000000E+00  0.00000000E+00
  0.00000000E+00  0.00000000E+00  0.00000000E+00
  0.00000000E+00  0.00000000E+00  0.00000000E+00
  0.00000000E+00  0.00000000E+00  0.00000000E+00
