Sr4 Li4 Ga4 N8                          
   1.00000000000000     
     6.0106217857662729    0.0000003795673236   -0.0015176622812001
     0.0000003688392256    7.1844426928401042    0.0000040791083120
     0.0271023007071883    0.0000034080902533    6.0408975804875009
   Li   Sr   Ga   N 
     4     4     4     8
Direct
  0.3812373999081467  0.4081085114926081  0.9015766411587608
  0.6187586520629385  0.9081082876098235  0.5984188591499932
  0.6187586513959376  0.5918946883309838  0.0984198439450044
  0.3812367182394349  0.0918948301376361  0.4015789597472660
  0.0278016283231710  0.1280009446354130  0.7412532292627305
  0.9722013156526080  0.6280040309898408  0.7587472084778227
  0.9722027943673947  0.8719979226751670  0.2587464769114677
  0.0278004771610077  0.3719996203122448  0.2412525918161770
  0.6139669054216156  0.3570551302320610  0.5719128568534053
  0.3860423548725903  0.8570589768279047  0.9280903959807887
  0.3860439298620315  0.6429356441198919  0.4280943853947056
  0.6139608325458189  0.1429434288115094  0.0719109499670258
  0.2790045393935125  0.8592441505535743  0.6027993443076597
  0.7209951165324335  0.3592443647559935  0.8971984647873111
  0.7209948972542611  0.1407554665961575  0.3971972233732639
  0.2790051464048986  0.6407550159214108  0.1027992471302374
  0.2867738768366098  0.3983452892622097  0.5737547139245099
  0.7132213261637663  0.8983469667635535  0.9262463917418781
  0.7132230708830752  0.6016536814846077  0.4262474712427449
  0.2867703667187476  0.1016530484874012  0.0737547448272542
 
  0.00000000E+00  0.00000000E+00  0.00000000E+00
  0.00000000E+00  0.00000000E+00  0.00000000E+00
  0.00000000E+00  0.00000000E+00  0.00000000E+00
  0.00000000E+00  0.00000000E+00  0.00000000E+00
  0.00000000E+00  0.00000000E+00  0.00000000E+00
  0.00000000E+00  0.00000000E+00  0.00000000E+00
  0.00000000E+00  0.00000000E+00  0.00000000E+00
  0.00000000E+00  0.00000000E+00  0.00000000E+00
  0.00000000E+00  0.00000000E+00  0.00000000E+00
  0.00000000E+00  0.00000000E+00  0.00000000E+00
  0.00000000E+00  0.00000000E+00  0.00000000E+00
  0.00000000E+00  0.00000000E+00  0.00000000E+00
  0.00000000E+00  0.00000000E+00  0.00000000E+00
  0.00000000E+00  0.00000000E+00  0.00000000E+00
  0.00000000E+00  0.00000000E+00  0.00000000E+00
  0.00000000E+00  0.00000000E+00  0.00000000E+00
  0.00000000E+00  0.00000000E+00  0.00000000E+00
  0.00000000E+00  0.00000000E+00  0.00000000E+00
  0.00000000E+00  0.00000000E+00  0.00000000E+00
  0.00000000E+00  0.00000000E+00  0.00000000E+00
