Na6 Mg6 In6 P12                         
   1.00000000000000     
    -3.4339341261590093   -7.1650000237773943    0.2997960707139192
    -3.4326418921575126    7.1648492852289785    0.2980406680757219
     0.8731586209654040    0.0016790299303947  -14.6536651649071175
   In   Na   P    Mg
     6     6    12     6
Direct
  0.8464453192728857  0.5419264553378177  0.1736619684529066
  0.5403784418294160  0.8465664660633709  0.1739823933546634
  0.1534335773663551  0.4585973518418184  0.8263072954216353
  0.4593787850623896  0.1535270820875288  0.8259021268600678
  0.4090673646239794  0.4080603896407925  0.5918318134458325
  0.5912089652593648  0.5919348504167178  0.4080579182516704
  0.1426674935144966  0.4767906279792138  0.3148609629961475
  0.4742099735739140  0.1414750491280831  0.3145709849595617
  0.8576512187879386  0.5230773814414575  0.6850075730295685
  0.5256090606072583  0.8577202382592048  0.6861624696258840
  0.2460200796403497  0.2460836174880825  0.0732629533220481
  0.7539470334426183  0.7539837229824277  0.9267144665420193
  0.8907034407288094  0.5958195008608033  0.3567619130335241
  0.5959096621609840  0.8919709234691321  0.3571746241733912
  0.1092966552318936  0.4039358203480634  0.6429939845866571
  0.4039979225126203  0.1077222795120095  0.6427103918465296
  0.1358763225310001  0.5185569997242124  0.1197363469720968
  0.5182739013955835  0.1368361585862427  0.1196881068195867
  0.8638656857551457  0.4817978537047687  0.8802448971247283
  0.4811580923435275  0.8635077609022834  0.8807754717383462
  0.2260608578624172  0.2260651249592494  0.4194859556923895
  0.7744710672903999  0.7736555042727888  0.5803329770659225
  0.8485256022635961  0.8496205177535529  0.1262390223912152
  0.1514081062276183  0.1508630028283028  0.8737240190180867
  0.9268325492653152  0.9268810071683127  0.2983997919615364
  0.0731855212152296  0.0731355113777748  0.7015817975653813
  0.8810634197827046  0.1191117712733044  0.5000308273286892
  0.1199815677719752  0.8799654525241056  0.4994318633165046
  0.7787618275513188  0.2211447810396008 -0.0000149874673283
  0.2206104851289021  0.7796667970289848  0.0003800705707318
 
  0.00000000E+00  0.00000000E+00  0.00000000E+00
  0.00000000E+00  0.00000000E+00  0.00000000E+00
  0.00000000E+00  0.00000000E+00  0.00000000E+00
  0.00000000E+00  0.00000000E+00  0.00000000E+00
  0.00000000E+00  0.00000000E+00  0.00000000E+00
  0.00000000E+00  0.00000000E+00  0.00000000E+00
  0.00000000E+00  0.00000000E+00  0.00000000E+00
  0.00000000E+00  0.00000000E+00  0.00000000E+00
  0.00000000E+00  0.00000000E+00  0.00000000E+00
  0.00000000E+00  0.00000000E+00  0.00000000E+00
  0.00000000E+00  0.00000000E+00  0.00000000E+00
  0.00000000E+00  0.00000000E+00  0.00000000E+00
  0.00000000E+00  0.00000000E+00  0.00000000E+00
  0.00000000E+00  0.00000000E+00  0.00000000E+00
  0.00000000E+00  0.00000000E+00  0.00000000E+00
  0.00000000E+00  0.00000000E+00  0.00000000E+00
  0.00000000E+00  0.00000000E+00  0.00000000E+00
  0.00000000E+00  0.00000000E+00  0.00000000E+00
  0.00000000E+00  0.00000000E+00  0.00000000E+00
  0.00000000E+00  0.00000000E+00  0.00000000E+00
  0.00000000E+00  0.00000000E+00  0.00000000E+00
  0.00000000E+00  0.00000000E+00  0.00000000E+00
  0.00000000E+00  0.00000000E+00  0.00000000E+00
  0.00000000E+00  0.00000000E+00  0.00000000E+00
  0.00000000E+00  0.00000000E+00  0.00000000E+00
  0.00000000E+00  0.00000000E+00  0.00000000E+00
  0.00000000E+00  0.00000000E+00  0.00000000E+00
  0.00000000E+00  0.00000000E+00  0.00000000E+00
  0.00000000E+00  0.00000000E+00  0.00000000E+00
  0.00000000E+00  0.00000000E+00  0.00000000E+00
