Na12 Mg3 P6                             
   1.00000000000000     
     4.9838488589320962   -0.0013414609367542    0.0002900751781809
    -2.4930861443115844    4.3155116631794925   -0.0002278163130057
     0.0015377559064018   -0.0005203620738325   25.5035935717813764
   Na   Mg   P 
    12     3     6
Direct
  0.0000341663440298 -0.0000479913989630  0.7938644670541247
 -0.0000818874559712  0.0000779723112821  0.2061284183479933
  0.6655755229843218  0.3344116536095978  0.1278490950199115
  0.6661622389402100  0.3338130397914125  0.5389337720293027
  0.3338955932211220  0.6660978298398094  0.4610704389623882
  0.3342186390439665  0.6657666346067997  0.8721092583066073
  0.9993247429503507  0.0006259195395158  0.5874545313431908
  0.0010005058251691  0.9990034751530200  0.4125992189038737
  0.6666206795402380  0.3333823713290883  0.9208915637961114
  0.6666724897895435  0.3333227142971305  0.7456303790675153
  0.3332983278411621  0.6666936681525303  0.2543782703075528
  0.3332869124726097  0.6667136713119752  0.0791130039904533
  0.0000840413788339  0.0001168096930260 -0.0000010587420513
  0.6666785727086176  0.3333219676159065  0.3335820661691223
  0.3332973912268653  0.6666945816107424  0.6664177270575899
  0.0000069913390607 -0.0000113105929331  0.9067437407429243
  0.9998351603906849  0.0001628350124184  0.0932486586803282
  0.6665597685577239  0.3334281653662532  0.2404016212490982
  0.6674383141667510  0.3325698379112075  0.4266851314986066
  0.3327686329606619  0.6671960979338151  0.5733160393184428
  0.3333231957740418  0.6666600569063725  0.7595836568969133
 
  0.00000000E+00  0.00000000E+00  0.00000000E+00
  0.00000000E+00  0.00000000E+00  0.00000000E+00
  0.00000000E+00  0.00000000E+00  0.00000000E+00
  0.00000000E+00  0.00000000E+00  0.00000000E+00
  0.00000000E+00  0.00000000E+00  0.00000000E+00
  0.00000000E+00  0.00000000E+00  0.00000000E+00
  0.00000000E+00  0.00000000E+00  0.00000000E+00
  0.00000000E+00  0.00000000E+00  0.00000000E+00
  0.00000000E+00  0.00000000E+00  0.00000000E+00
  0.00000000E+00  0.00000000E+00  0.00000000E+00
  0.00000000E+00  0.00000000E+00  0.00000000E+00
  0.00000000E+00  0.00000000E+00  0.00000000E+00
  0.00000000E+00  0.00000000E+00  0.00000000E+00
  0.00000000E+00  0.00000000E+00  0.00000000E+00
  0.00000000E+00  0.00000000E+00  0.00000000E+00
  0.00000000E+00  0.00000000E+00  0.00000000E+00
  0.00000000E+00  0.00000000E+00  0.00000000E+00
  0.00000000E+00  0.00000000E+00  0.00000000E+00
  0.00000000E+00  0.00000000E+00  0.00000000E+00
  0.00000000E+00  0.00000000E+00  0.00000000E+00
  0.00000000E+00  0.00000000E+00  0.00000000E+00
