Na12 Ca3 N6                             
   1.00000000000000     
     4.3732841875289390   -0.0034050790996432    0.0002199638016604
    -2.1895947411472281    3.7869241756500664   -0.0001514986217839
     0.0016639240591833   -0.0005459157252948   23.5418062303843776
   Na   Ca   N 
    12     3     6
Direct
  0.9995546768959258  0.0002263517013432  0.7974677025001213
  0.0003358408014407  0.0000929492503232  0.2025030835604085
  0.6662912089174355  0.3336851720356293  0.1308138195196022
  0.6670062400763825  0.3330187002474290  0.5358485884521542
  0.3330642668701174  0.6669262543286862  0.4641552359658832
  0.3337715411017825  0.6662363187500731  0.8691965547782772
  0.0000956854690415  0.9999078564144952  0.5747023458053988
  0.9998800786162008  0.9999772989195819  0.4252941183434658
  0.6667911849240653  0.3332486203634346  0.9080469689144977
  0.6665443080363858  0.3333126832896056  0.7586054007545329
  0.3334537993228039  0.6666752080308740  0.2413929444053551
  0.3332222564032961  0.6667067863340748  0.0919490245224424
  0.0000217372096145  0.0000407308761652  0.0000062199918460
  0.6667354961462024  0.3333850024159517  0.3334253051259566
  0.3332808018564251  0.6666114278534323  0.6665747998126292
  0.0001414741477888  0.9995907529594135  0.9034600177967320
  0.9996873081116817  0.0002621386632455  0.0965526802940602
  0.6664732319058473  0.3337972948364509  0.2369195228252678
  0.6670121832587981  0.3342174720237523  0.4299166756498565
  0.3332665229980947  0.6659963139159757  0.5700817933424034
  0.3333701569306555  0.6660846667900486  0.7630871976391447
 
  0.00000000E+00  0.00000000E+00  0.00000000E+00
  0.00000000E+00  0.00000000E+00  0.00000000E+00
  0.00000000E+00  0.00000000E+00  0.00000000E+00
  0.00000000E+00  0.00000000E+00  0.00000000E+00
  0.00000000E+00  0.00000000E+00  0.00000000E+00
  0.00000000E+00  0.00000000E+00  0.00000000E+00
  0.00000000E+00  0.00000000E+00  0.00000000E+00
  0.00000000E+00  0.00000000E+00  0.00000000E+00
  0.00000000E+00  0.00000000E+00  0.00000000E+00
  0.00000000E+00  0.00000000E+00  0.00000000E+00
  0.00000000E+00  0.00000000E+00  0.00000000E+00
  0.00000000E+00  0.00000000E+00  0.00000000E+00
  0.00000000E+00  0.00000000E+00  0.00000000E+00
  0.00000000E+00  0.00000000E+00  0.00000000E+00
  0.00000000E+00  0.00000000E+00  0.00000000E+00
  0.00000000E+00  0.00000000E+00  0.00000000E+00
  0.00000000E+00  0.00000000E+00  0.00000000E+00
  0.00000000E+00  0.00000000E+00  0.00000000E+00
  0.00000000E+00  0.00000000E+00  0.00000000E+00
  0.00000000E+00  0.00000000E+00  0.00000000E+00
  0.00000000E+00  0.00000000E+00  0.00000000E+00
