Li4 Al4 Zn4 P8                          
   1.00000000000000     
     6.7761784339136986    0.0000021886210612   -0.0786799154713078
     0.0000185099660654    7.1013862858892125   -0.0000161919286087
    -0.0347609024930387   -0.0000081883379550    7.5235936403843375
   Li   Zn   Al   P 
     4     4     4     8
Direct
  0.2078633335976926  0.4776415329999057  0.8586849123389229
  0.7921334582047991  0.9776407618826259  0.6413190159663823
  0.7921333207970720  0.5223590863671385  0.1413182054472924
  0.2078639989056807  0.0223574415211872  0.3586817194993154
  0.1589430102392354  0.1413759577379287  0.7528387593937934
  0.8410552097490153  0.6413760632285357  0.7471610625025210
  0.8410573157788054  0.8586237357477267  0.2471609695799472
  0.1589467582857935  0.3586246275112736  0.2528390060972697
  0.6729826774558135  0.3553289695301247  0.5125015396487672
  0.3270185493607248  0.8553286328940517  0.9874977670616912
  0.3270182281913251  0.6446701019466098  0.4874984821480870
  0.6729818807871711  0.1446697603503365  0.0125015101036283
  0.1505807209590833  0.8034457699175057  0.7115874664018788
  0.8494199835967384  0.3034476960977767  0.7884122312309940
  0.8494194877411329  0.1965530200365268  0.2884139576983020
  0.1505792665975093  0.6965530508984621  0.2115889003878703
  0.3315718049684420  0.3134836448354323  0.5364046549513404
  0.6684323749701785  0.8134847329408966  0.9635897658693255
  0.6684321614448273  0.6865171874262154  0.4635903156385383
  0.3315664583689598  0.1865182261297473  0.0364097580341256
 
  0.00000000E+00  0.00000000E+00  0.00000000E+00
  0.00000000E+00  0.00000000E+00  0.00000000E+00
  0.00000000E+00  0.00000000E+00  0.00000000E+00
  0.00000000E+00  0.00000000E+00  0.00000000E+00
  0.00000000E+00  0.00000000E+00  0.00000000E+00
  0.00000000E+00  0.00000000E+00  0.00000000E+00
  0.00000000E+00  0.00000000E+00  0.00000000E+00
  0.00000000E+00  0.00000000E+00  0.00000000E+00
  0.00000000E+00  0.00000000E+00  0.00000000E+00
  0.00000000E+00  0.00000000E+00  0.00000000E+00
  0.00000000E+00  0.00000000E+00  0.00000000E+00
  0.00000000E+00  0.00000000E+00  0.00000000E+00
  0.00000000E+00  0.00000000E+00  0.00000000E+00
  0.00000000E+00  0.00000000E+00  0.00000000E+00
  0.00000000E+00  0.00000000E+00  0.00000000E+00
  0.00000000E+00  0.00000000E+00  0.00000000E+00
  0.00000000E+00  0.00000000E+00  0.00000000E+00
  0.00000000E+00  0.00000000E+00  0.00000000E+00
  0.00000000E+00  0.00000000E+00  0.00000000E+00
  0.00000000E+00  0.00000000E+00  0.00000000E+00
