K4 Ca4 In4 N8                           
   1.00000000000000     
     6.3176533716371024   -0.0000025656412018   -0.8747622555972606
    -0.0000294212235899    9.6051322539451451   -0.0001121634332576
    -0.8777389455461689   -0.0000726314609372    6.2467709231977961
   K    Ca   In   N 
     4     4     4     8
Direct
  0.2822778256509793  0.3775426041521669  0.0022913149919490
  0.7177403081126142  0.8775114934891169  0.4976977087304394
  0.7176992092056641  0.6224909327418456 -0.0023301497321605
  0.2822667060644031  0.1224834229792682  0.5023091964535554
  0.9007192333910343  0.1248182390316806  0.8302667994022415
  0.0992811570134612  0.6248227327347549  0.6697429007475322
  0.0992770905650528  0.8751672416931791  0.1697377569178335
  0.9007266347071136  0.3751805769654293  0.3302583710641803
  0.6036752153293565  0.3730769561671439  0.6267256230304946
  0.3963024215100740  0.8730910884362705  0.8733282352133671
  0.3963217171882712  0.6269077302871570  0.3732892979063003
  0.6036961372580165  0.1269163576129098  0.1266643520634819
  0.2689681279916978  0.8115457893496347  0.5312417986626871
  0.7310406844937789  0.3115452808450381  0.9687704326498869
  0.7310466461275753  0.1884522763775528  0.4687661698553759
  0.2689595447866614  0.6884514836031910  0.0312291946229079
  0.2647667021337951  0.4395298619189598  0.5090181439950642
  0.7352376002674552  0.9395291498257634  0.9910012895121864
  0.7352331461789298  0.5604719139767862  0.4909746202241331
  0.2647638920240599  0.0604648678121518  0.0090169436885579
 
  0.00000000E+00  0.00000000E+00  0.00000000E+00
  0.00000000E+00  0.00000000E+00  0.00000000E+00
  0.00000000E+00  0.00000000E+00  0.00000000E+00
  0.00000000E+00  0.00000000E+00  0.00000000E+00
  0.00000000E+00  0.00000000E+00  0.00000000E+00
  0.00000000E+00  0.00000000E+00  0.00000000E+00
  0.00000000E+00  0.00000000E+00  0.00000000E+00
  0.00000000E+00  0.00000000E+00  0.00000000E+00
  0.00000000E+00  0.00000000E+00  0.00000000E+00
  0.00000000E+00  0.00000000E+00  0.00000000E+00
  0.00000000E+00  0.00000000E+00  0.00000000E+00
  0.00000000E+00  0.00000000E+00  0.00000000E+00
  0.00000000E+00  0.00000000E+00  0.00000000E+00
  0.00000000E+00  0.00000000E+00  0.00000000E+00
  0.00000000E+00  0.00000000E+00  0.00000000E+00
  0.00000000E+00  0.00000000E+00  0.00000000E+00
  0.00000000E+00  0.00000000E+00  0.00000000E+00
  0.00000000E+00  0.00000000E+00  0.00000000E+00
  0.00000000E+00  0.00000000E+00  0.00000000E+00
  0.00000000E+00  0.00000000E+00  0.00000000E+00
