Li6 Ca6 Al6 N12                         
   1.00000000000000     
    -2.8890258290045479   -4.9729107655003224    0.0840796641743102
    -2.8890257992780910    4.9729107469815830    0.0840796448346528
     0.0662297099726994    0.0000000249937763  -11.9401144005827273
   Al   Li   N    Ca
     6     6    12     6
Direct
  0.8137660562826878  0.4895517243165465  0.1859765653415174
  0.4895517226147613  0.8137660612817660  0.1859765646946286
  0.1862337915459018  0.5104485213494311  0.8140237338845526
  0.5104485247033773  0.1862337918003795  0.8140237351120773
  0.3889902301134410  0.3889902202241416  0.5870709553492932
  0.6110093269713688  0.6110093367156044  0.4129288697253162
  0.1824018216850469  0.5426339092422269  0.3230456977830792
  0.5426339098121937  0.1824018259075021  0.3230456970925444
  0.8175970886040902  0.4573666804809547  0.6769545505237154
  0.4573666864152289  0.8175970904670015  0.6769545532550617
  0.3914276619841568  0.3914276621902871  0.0733184623075989
  0.6085733720691823  0.6085733744477505  0.9266806543230081
  0.8623750075175955  0.5542509110309567  0.3440177837380359
  0.5542509129276258  0.8623750024044657  0.3440177872642884
  0.1376245881988725  0.4457482106042508  0.6559824271031641
  0.4457482025531881  0.1376245969180969  0.6559824229268424
  0.1442665012832096  0.5100125790384668  0.1464551212325862
  0.5100125716174788  0.1442665052328876  0.1464551226708520
  0.8557333369371094  0.4899864886483163  0.8535451789708679
  0.4899864878659886  0.8557333333160574  0.8535451770508138
  0.2817696518336694  0.2817696542379088  0.4307645035544910
  0.7182299346497707  0.7182299356438793  0.5692356568460959
  0.7539155483653929  0.7539155484451163  0.1109206638858504
  0.2460847783293392  0.2460847826184549  0.8890793299907740
  0.0542494818209290  0.0542494768070170  0.2546800030109351
  0.9457547653419832  0.9457547518097199  0.7453188101341066
  0.8281392948951799  0.1718594253194588  0.5000000307799323
  0.1718593928312903  0.8281392585151507  0.5000000286088258
  0.8371848590890993  0.1628144519107256  0.9999999638222992
  0.1628144911408335  0.8371848890754640  0.9999999490168604
 
  0.00000000E+00  0.00000000E+00  0.00000000E+00
  0.00000000E+00  0.00000000E+00  0.00000000E+00
  0.00000000E+00  0.00000000E+00  0.00000000E+00
  0.00000000E+00  0.00000000E+00  0.00000000E+00
  0.00000000E+00  0.00000000E+00  0.00000000E+00
  0.00000000E+00  0.00000000E+00  0.00000000E+00
  0.00000000E+00  0.00000000E+00  0.00000000E+00
  0.00000000E+00  0.00000000E+00  0.00000000E+00
  0.00000000E+00  0.00000000E+00  0.00000000E+00
  0.00000000E+00  0.00000000E+00  0.00000000E+00
  0.00000000E+00  0.00000000E+00  0.00000000E+00
  0.00000000E+00  0.00000000E+00  0.00000000E+00
  0.00000000E+00  0.00000000E+00  0.00000000E+00
  0.00000000E+00  0.00000000E+00  0.00000000E+00
  0.00000000E+00  0.00000000E+00  0.00000000E+00
  0.00000000E+00  0.00000000E+00  0.00000000E+00
  0.00000000E+00  0.00000000E+00  0.00000000E+00
  0.00000000E+00  0.00000000E+00  0.00000000E+00
  0.00000000E+00  0.00000000E+00  0.00000000E+00
  0.00000000E+00  0.00000000E+00  0.00000000E+00
  0.00000000E+00  0.00000000E+00  0.00000000E+00
  0.00000000E+00  0.00000000E+00  0.00000000E+00
  0.00000000E+00  0.00000000E+00  0.00000000E+00
  0.00000000E+00  0.00000000E+00  0.00000000E+00
  0.00000000E+00  0.00000000E+00  0.00000000E+00
  0.00000000E+00  0.00000000E+00  0.00000000E+00
  0.00000000E+00  0.00000000E+00  0.00000000E+00
  0.00000000E+00  0.00000000E+00  0.00000000E+00
  0.00000000E+00  0.00000000E+00  0.00000000E+00
  0.00000000E+00  0.00000000E+00  0.00000000E+00
