Strontium Calcium Zinc P                
   1.00000000000000     
     4.2907721862622710    0.0000000000140073    0.0000000552294132
     0.0000000005242336    4.2907722975416371    0.0000000436046869
     0.0000001908909978    0.0000001629993849   15.0608353980304575
   Sr   Ca   Zn   P 
     2     2     2     4
Direct
  0.0000007393675734  0.9999999933733217  0.3435792466325037
  0.0000007560937781  0.0000000092078006  0.6564207527646119
  0.4999995506835220  0.4999999470901178  0.8392089330125064
  0.4999995895721345  0.4999999883628119  0.1607910676139738
  0.0000005310037437  0.0000000316598570 -0.0000000007781921
  0.4999994314440454  0.5000000172762301  0.5000000001018209
  0.0000000013443358 -0.0000000063340444  0.1448588136061344
 -0.0000000347980968  0.0000000167170487  0.8551411869401410
  0.4999997297238786  0.5000000135178446  0.6447688460969302
  0.4999997055650853  0.4999999891290117  0.3552311540095700
 
  0.00000000E+00  0.00000000E+00  0.00000000E+00
  0.00000000E+00  0.00000000E+00  0.00000000E+00
  0.00000000E+00  0.00000000E+00  0.00000000E+00
  0.00000000E+00  0.00000000E+00  0.00000000E+00
  0.00000000E+00  0.00000000E+00  0.00000000E+00
  0.00000000E+00  0.00000000E+00  0.00000000E+00
  0.00000000E+00  0.00000000E+00  0.00000000E+00
  0.00000000E+00  0.00000000E+00  0.00000000E+00
  0.00000000E+00  0.00000000E+00  0.00000000E+00
  0.00000000E+00  0.00000000E+00  0.00000000E+00
