Sr6 Li6 Al6 N12                         
   1.00000000000000     
    -3.0148083805124588   -4.9621654380124021    0.0681967034432772
    -3.0148084155540213    4.9621654597369611    0.0681967071020648
    -0.0148585858034293   -0.0000000076977025  -12.5831227379131061
   Al   Li   N    Sr
     6     6    12     6
Direct
  0.8136961288201121  0.4893693607766565  0.1903839013056725
  0.4893693586262131  0.8136961293898253  0.1903838990984497
  0.1863027289680659  0.5106314060269739  0.8096145437066369
  0.5106314098712019  0.1863027353162607  0.8096145359747808
  0.3973031240086584  0.3973031271375405  0.5880000339815439
  0.6026974868914934  0.6026974738719630  0.4120003196394251
  0.1806615299932588  0.5523121912350746  0.3191972842111213
  0.5523121909997073  0.1806615263245988  0.3191972851198770
  0.8193369115305984  0.4476894328399439  0.6808024906254388
  0.4476894012989590  0.8193368915166843  0.6808024899670926
  0.4097952292183962  0.4097952192166616  0.0849157691024445
  0.5902034000846754  0.5902033864767020  0.9150851306777312
  0.8482237842327365  0.5386106486852213  0.3411600239558297
  0.5386106425578561  0.8482238004231846  0.3411600227954352
  0.1517756613208121  0.4613893243340286  0.6588395418836015
  0.4613893547868884  0.1517756565193622  0.6588395445177540
  0.1509407915949339  0.5238269366118544  0.1535345939698445
  0.5238269496576535  0.1509407945842653  0.1535345998823203
  0.8490586713475281  0.4761729984559864  0.8464650194494325
  0.4761729944658484  0.8490586680456289  0.8464650226718007
  0.2911004317515591  0.2911004396085062  0.4395036434011743
  0.7088994588121693  0.7088994595449023  0.5604974180992812
  0.7423825111936324  0.7423825155652821  0.1168401649859945
  0.2576171929086470  0.2576171939008489  0.8831596156483243
  0.0574342576483957  0.0574342804646335  0.2591632254718945
  0.9425626208621978  0.9425626484029905  0.7408378554805921
  0.8168870907523598  0.1831186527777859  0.5000008962611275
  0.1831186697579383  0.8168870764688947  0.5000008916951515
  0.8347499188262120  0.1652500976203797  0.0000001184692238
  0.1652500972112918  0.8347499278573736  0.0000001179509965
 
  0.00000000E+00  0.00000000E+00  0.00000000E+00
  0.00000000E+00  0.00000000E+00  0.00000000E+00
  0.00000000E+00  0.00000000E+00  0.00000000E+00
  0.00000000E+00  0.00000000E+00  0.00000000E+00
  0.00000000E+00  0.00000000E+00  0.00000000E+00
  0.00000000E+00  0.00000000E+00  0.00000000E+00
  0.00000000E+00  0.00000000E+00  0.00000000E+00
  0.00000000E+00  0.00000000E+00  0.00000000E+00
  0.00000000E+00  0.00000000E+00  0.00000000E+00
  0.00000000E+00  0.00000000E+00  0.00000000E+00
  0.00000000E+00  0.00000000E+00  0.00000000E+00
  0.00000000E+00  0.00000000E+00  0.00000000E+00
  0.00000000E+00  0.00000000E+00  0.00000000E+00
  0.00000000E+00  0.00000000E+00  0.00000000E+00
  0.00000000E+00  0.00000000E+00  0.00000000E+00
  0.00000000E+00  0.00000000E+00  0.00000000E+00
  0.00000000E+00  0.00000000E+00  0.00000000E+00
  0.00000000E+00  0.00000000E+00  0.00000000E+00
  0.00000000E+00  0.00000000E+00  0.00000000E+00
  0.00000000E+00  0.00000000E+00  0.00000000E+00
  0.00000000E+00  0.00000000E+00  0.00000000E+00
  0.00000000E+00  0.00000000E+00  0.00000000E+00
  0.00000000E+00  0.00000000E+00  0.00000000E+00
  0.00000000E+00  0.00000000E+00  0.00000000E+00
  0.00000000E+00  0.00000000E+00  0.00000000E+00
  0.00000000E+00  0.00000000E+00  0.00000000E+00
  0.00000000E+00  0.00000000E+00  0.00000000E+00
  0.00000000E+00  0.00000000E+00  0.00000000E+00
  0.00000000E+00  0.00000000E+00  0.00000000E+00
  0.00000000E+00  0.00000000E+00  0.00000000E+00
