 vasp.6.1.2 22Jul20 (build Apr 14 2021 21:39:43) complex                        
  
 executed on             LinuxIFC date 2024.07.12  15:35:09
 running on   64 total cores
 distrk:  each k-point on   64 cores,    1 groups
 distr:  one band on NCORE=  16 cores,    4 groups


--------------------------------------------------------------------------------------------------------


 INCAR:
 POTCAR:    PAW_PBE Al 04Jan2001                  
 POTCAR:    PAW_PBE Li 17Jan2003                  
 POTCAR:    PAW_PBE N 08Apr2002                   
 POTCAR:    PAW_PBE Sr_sv 07Sep2000               
 POTCAR:    PAW_PBE Al 04Jan2001                  
   SHA256 =  17880443556af62b473fe41b62a467bd001ad55d2cabe504a3f22e34d4e9db96 Al/POTCAR             
   COPYR  = (c) Copyright 04Jan2001 Georg Kresse                                                    
   COPYR  = This file is part of the software VASP. Any use, copying, and all other rights are regul
   COPYR  = If you do not have a valid VASP license, you may not use, copy or distribute this file. 
   VRHFIN =Al: s2p1                                                                                 
   LEXCH  = PE                                                                                      
   EATOM  =    53.5387 eV,    3.9350 Ry                                                             
                                                                                                    
   TITEL  = PAW_PBE Al 04Jan2001                                                                    
   LULTRA =        F    use ultrasoft PP ?                                                          
   IUNSCR =        1    unscreen: 0-lin 1-nonlin 2-no                                               
   RPACOR =    1.500    partial core radius                                                         
   POMASS =   26.981; ZVAL   =    3.000    mass and valenz                                          
   RCORE  =    1.900    outmost cutoff radius                                                       
   RWIGS  =    2.650; RWIGS  =    1.402    wigner-seitz radius (au A)                               
   ENMAX  =  240.300; ENMIN  =  180.225 eV                                                          
   ICORE  =        2    local potential                                                             
   LCOR   =        T    correct aug charges                                                         
   LPAW   =        T    paw PP                                                                      
   EAUG   =  291.052                                                                                
   DEXC   =    0.000                                                                                
   RMAX   =    1.939    core radius for proj-oper                                                   
   RAUG   =    1.300    factor for augmentation sphere                                              
   RDEP   =    1.966    radius for radial grids                                                     
   RDEPT  =    1.856    core radius for aug-charge                                                  
                                                                                                    
   Atomic configuration                                                                             
    6 entries                                                                                       
     n  l   j            E        occ.                                                              
     1  0  0.50     -1511.1048   2.0000                                                             
     2  0  0.50      -108.1629   2.0000                                                             
     2  1  1.50       -69.6402   6.0000                                                             
     3  0  0.50        -7.7528   2.0000                                                             
     3  1  1.50        -2.7121   1.0000                                                             
     3  2  2.50        -2.7212   0.0000                                                             
   Description                                                                                      
     l       E           TYP  RCUT    TYP  RCUT                                                     
     0     -7.7528455     23  1.900                                                                 
     0     -3.3096929     23  1.900                                                                 
     1     -2.7120682     23  1.900                                                                 
     1     13.6058260     23  1.900                                                                 
     2     -2.7211652      7  1.900                                                                 
  local pseudopotential read in
  partial core-charges read in
  partial kinetic energy density read in
  atomic valenz-charges read in
  non local Contribution for L=           0  read in
    real space projection operators read in
  non local Contribution for L=           0  read in
    real space projection operators read in
  non local Contribution for L=           1  read in
    real space projection operators read in
  non local Contribution for L=           1  read in
    real space projection operators read in
    PAW grid and wavefunctions read in
 
   number of l-projection  operators is LMAX  =           4
   number of lm-projection operators is LMMAX =           8
 
 POTCAR:    PAW_PBE Li 17Jan2003                  
   SHA256 =  3d9d9bfd1dd25b20a3b919cb3191e6ef627605783dc2e149b9290ff31c32aa6e Li/POTCAR             
   COPYR  = (c) Copyright 17Jan2003 Georg Kresse                                                    
   COPYR  = This file is part of the software VASP. Any use, copying, and all other rights are regul
   COPYR  = If you do not have a valid VASP license, you may not use, copy or distribute this file. 
   VRHFIN =Li: s1p0                                                                                 
   LEXCH  = PE                                                                                      
   EATOM  =     5.3001 eV,    0.3895 Ry                                                             
                                                                                                    
   TITEL  = PAW_PBE Li 17Jan2003                                                                    
   LULTRA =        F    use ultrasoft PP ?                                                          
   IUNSCR =        1    unscreen: 0-lin 1-nonlin 2-no                                               
   RPACOR =    1.500    partial core radius                                                         
   POMASS =    7.010; ZVAL   =    1.000    mass and valenz                                          
   RCORE  =    2.050    outmost cutoff radius                                                       
   RWIGS  =    2.600; RWIGS  =    1.376    wigner-seitz radius (au A)                               
   ENMAX  =  140.000; ENMIN  =  100.000 eV                                                          
   ICORE  =        2    local potential                                                             
   LCOR   =        T    correct aug charges                                                         
   LPAW   =        T    paw PP                                                                      
   EAUG   =  331.638                                                                                
   DEXC   =    0.000                                                                                
   RMAX   =    2.098    core radius for proj-oper                                                   
   RAUG   =    1.300    factor for augmentation sphere                                              
   RDEP   =    2.094    radius for radial grids                                                     
   RDEPT  =    1.810    core radius for aug-charge                                                  
                                                                                                    
   Atomic configuration                                                                             
    4 entries                                                                                       
     n  l   j            E        occ.                                                              
     1  0  0.50       -51.8549   2.0000                                                             
     2  0  0.50        -2.8742   1.0000                                                             
     2  1  0.50        -1.3606   0.0000                                                             
     3  2  1.50        -1.3606   0.0000                                                             
   Description                                                                                      
     l       E           TYP  RCUT    TYP  RCUT                                                     
     0     -2.8742052     23  2.050                                                                 
     0     27.2116520     23  2.050                                                                 
     1     -1.3605826     23  2.050                                                                 
     2     -1.3605826     23  2.050                                                                 
  local pseudopotential read in
  partial core-charges read in
  partial kinetic energy density read in
  atomic valenz-charges read in
  non local Contribution for L=           0  read in
    real space projection operators read in
  non local Contribution for L=           0  read in
    real space projection operators read in
  non local Contribution for L=           1  read in
    real space projection operators read in
    PAW grid and wavefunctions read in
 
   number of l-projection  operators is LMAX  =           3
   number of lm-projection operators is LMMAX =           5
 
 POTCAR:    PAW_PBE N 08Apr2002                   
   SHA256 =  e053789ff3a61a86a1b75d8a110fcc91f86041011e7b0817c7c99e4e8a6349d7 N/POTCAR              
   COPYR  = (c) Copyright 08Apr2002 Georg Kresse                                                    
   COPYR  = This file is part of the software VASP. Any use, copying, and all other rights are regul
   COPYR  = If you do not have a valid VASP license, you may not use, copy or distribute this file. 
   VRHFIN =N: s2p3                                                                                  
   LEXCH  = PE                                                                                      
   EATOM  =   264.5486 eV,   19.4438 Ry                                                             
                                                                                                    
   TITEL  = PAW_PBE N 08Apr2002                                                                     
   LULTRA =        F    use ultrasoft PP ?                                                          
   IUNSCR =        1    unscreen: 0-lin 1-nonlin 2-no                                               
   RPACOR =    1.200    partial core radius                                                         
   POMASS =   14.001; ZVAL   =    5.000    mass and valenz                                          
   RCORE  =    1.500    outmost cutoff radius                                                       
   RWIGS  =    1.400; RWIGS  =    0.741    wigner-seitz radius (au A)                               
   ENMAX  =  400.000; ENMIN  =  300.000 eV                                                          
   ICORE  =        2    local potential                                                             
   LCOR   =        T    correct aug charges                                                         
   LPAW   =        T    paw PP                                                                      
   EAUG   =  627.112                                                                                
   DEXC   =    0.000                                                                                
   RMAX   =    1.529    core radius for proj-oper                                                   
   RAUG   =    1.300    factor for augmentation sphere                                              
   RDEP   =    1.514    radius for radial grids                                                     
   RDEPT  =    1.338    core radius for aug-charge                                                  
                                                                                                    
   Atomic configuration                                                                             
    4 entries                                                                                       
     n  l   j            E        occ.                                                              
     1  0  0.50      -384.7179   2.0000                                                             
     2  0  0.50       -18.5828   2.0000                                                             
     2  1  0.50        -7.0898   3.0000                                                             
     3  2  1.50        -6.8029   0.0000                                                             
   Description                                                                                      
     l       E           TYP  RCUT    TYP  RCUT                                                     
     0    -18.5828119     23  1.200                                                                 
     0    -13.5018863     23  1.200                                                                 
     1     -7.0897853     23  1.500                                                                 
     1      9.5240782     23  1.500                                                                 
     2     -6.8029130      7  1.500                                                                 
  local pseudopotential read in
  partial core-charges read in
  partial kinetic energy density read in
  atomic valenz-charges read in
  non local Contribution for L=           0  read in
    real space projection operators read in
  non local Contribution for L=           0  read in
    real space projection operators read in
  non local Contribution for L=           1  read in
    real space projection operators read in
  non local Contribution for L=           1  read in
    real space projection operators read in
    PAW grid and wavefunctions read in
 
   number of l-projection  operators is LMAX  =           4
   number of lm-projection operators is LMMAX =           8
 
 POTCAR:    PAW_PBE Sr_sv 07Sep2000               
   SHA256 =  a8389d3481648516ee67182ee030b298d280b37e29cbbf2d8595f040d757c710 Sr_sv/POTCAR          
   COPYR  = (c) Copyright 07Sep2000 Georg Kresse                                                    
   COPYR  = This file is part of the software VASP. Any use, copying, and all other rights are regul
   COPYR  = If you do not have a valid VASP license, you may not use, copy or distribute this file. 
   VRHFIN =Sr: 4s4p5s                                                                               
   LEXCH  = PE                                                                                      
   EATOM  =   843.0319 eV,   61.9611 Ry                                                             
                                                                                                    
   TITEL  = PAW_PBE Sr_sv 07Sep2000                                                                 
   LULTRA =        F    use ultrasoft PP ?                                                          
   IUNSCR =        1    unscreen: 0-lin 1-nonlin 2-no                                               
   RPACOR =    2.200    partial core radius                                                         
   POMASS =   87.620; ZVAL   =   10.000    mass and valenz                                          
   RCORE  =    2.500    outmost cutoff radius                                                       
   RWIGS  =    4.040; RWIGS  =    2.138    wigner-seitz radius (au A)                               
   ENMAX  =  229.353; ENMIN  =  172.014 eV                                                          
   RCLOC  =    2.201    cutoff for local pot                                                        
   LCOR   =        T    correct aug charges                                                         
   LPAW   =        T    paw PP                                                                      
   EAUG   =  366.804                                                                                
   DEXC   =    0.000                                                                                
   RMAX   =    2.547    core radius for proj-oper                                                   
   RAUG   =    1.300    factor for augmentation sphere                                              
   RDEP   =    2.562    radius for radial grids                                                     
   RDEPT  =    2.128    core radius for aug-charge                                                  
                                                                                                    
   Atomic configuration                                                                             
   10 entries                                                                                       
     n  l   j            E        occ.                                                              
     1  0  0.50    -15934.8930   2.0000                                                             
     2  0  0.50     -2157.6250   2.0000                                                             
     2  1  1.50     -1917.0034   6.0000                                                             
     3  0  0.50      -333.7288   2.0000                                                             
     3  1  1.50      -256.0992   6.0000                                                             
     3  2  2.50      -127.9971  10.0000                                                             
     4  0  0.50       -40.8953   2.0000                                                             
     5  0  0.50        -3.5257   1.9990                                                             
     4  1  1.50       -22.8179   6.0000                                                             
     4  2  1.50        -1.2815   0.0010                                                             
   Description                                                                                      
     l       E           TYP  RCUT    TYP  RCUT                                                     
     0    -40.8953213     23  2.480                                                                 
     0     -3.5257161     23  2.480                                                                 
     1    -22.8178632     23  2.500                                                                 
     1    -24.1784458     23  2.500                                                                 
     2     -1.2814598     23  2.500                                                                 
     2      0.2279365     23  2.500                                                                 
  local pseudopotential read in
  partial core-charges read in
  partial kinetic energy density read in
  atomic valenz-charges read in
  non local Contribution for L=           0  read in
    real space projection operators read in
  non local Contribution for L=           0  read in
    real space projection operators read in
  non local Contribution for L=           1  read in
    real space projection operators read in
  non local Contribution for L=           1  read in
    real space projection operators read in
  non local Contribution for L=           2  read in
    real space projection operators read in
  non local Contribution for L=           2  read in
    real space projection operators read in
    PAW grid and wavefunctions read in
 
   number of l-projection  operators is LMAX  =           6
   number of lm-projection operators is LMMAX =          18
 
 Optimization of the real space projectors (new method)

 maximal supplied QI-value         = 19.84
 optimisation between [QCUT,QGAM] = [ 11.51, 23.22] = [ 37.09,150.92] Ry 
 Optimized for a Real-space Cutoff    1.18 Angstroem

   l    n(q)    QCUT    max X(q) W(low)/X(q) W(high)/X(q)  e(spline) 
   0      8    11.508   176.870    0.11E-03    0.16E-03    0.40E-07
   0      8    11.508   105.762    0.11E-03    0.16E-03    0.39E-07
   1      8    11.508    55.370    0.23E-03    0.10E-03    0.75E-07
   1      8    11.508    20.208    0.21E-03    0.91E-04    0.68E-07
 Optimization of the real space projectors (new method)

 maximal supplied QI-value         = 18.33
 optimisation between [QCUT,QGAM] = [ 11.55, 23.28] = [ 37.34,151.76] Ry 
 Optimized for a Real-space Cutoff    1.14 Angstroem

   l    n(q)    QCUT    max X(q) W(low)/X(q) W(high)/X(q)  e(spline) 
   0      8    11.548    33.825    0.19E-03    0.87E-04    0.75E-07
   0      8    11.548     8.944    0.15E-03    0.55E-04    0.54E-07
   1      7    11.548     4.214    0.21E-03    0.27E-03    0.42E-07
 Optimization of the real space projectors (new method)

 maximal supplied QI-value         = 25.13
 optimisation between [QCUT,QGAM] = [ 11.56, 23.12] = [ 37.43,149.72] Ry 
 Optimized for a Real-space Cutoff    1.40 Angstroem

   l    n(q)    QCUT    max X(q) W(low)/X(q) W(high)/X(q)  e(spline) 
   0     10    11.561    79.467    0.46E-04    0.78E-04    0.61E-06
   0     10    11.561    66.151    0.45E-04    0.77E-04    0.61E-06
   1      9    11.561    18.886    0.22E-03    0.13E-03    0.12E-05
   1      9    11.561    13.488    0.23E-03    0.13E-03    0.12E-05
 Optimization of the real space projectors (new method)

 maximal supplied QI-value         = 15.12
 optimisation between [QCUT,QGAM] = [ 11.64, 23.28] = [ 37.95,151.78] Ry 
 Optimized for a Real-space Cutoff    1.58 Angstroem

   l    n(q)    QCUT    max X(q) W(low)/X(q) W(high)/X(q)  e(spline) 
   0     11    11.641    11.565    0.25E-04    0.45E-05    0.87E-07
   0     11    11.641    10.214    0.38E-04    0.85E-05    0.18E-06
   1     11    11.641   189.983    0.18E-03    0.75E-04    0.37E-06
   1     11    11.641   193.105    0.18E-03    0.75E-04    0.37E-06
   2     10    11.641   115.941    0.51E-04    0.22E-03    0.56E-06
   2     10    11.641    76.444    0.49E-04    0.21E-03    0.55E-06
  PAW_PBE Al 04Jan2001                  :
 energy of atom  1       EATOM=  -53.5387
 kinetic energy error for atom=    0.0002 (will be added to EATOM!!)
  PAW_PBE Li 17Jan2003                  :
 energy of atom  2       EATOM=   -5.3001
 kinetic energy error for atom=    0.0000 (will be added to EATOM!!)
  PAW_PBE N 08Apr2002                   :
 energy of atom  3       EATOM= -264.5486
 kinetic energy error for atom=    0.0125 (will be added to EATOM!!)
  PAW_PBE Sr_sv 07Sep2000               :
 energy of atom  4       EATOM= -843.0319
 kinetic energy error for atom=    0.0010 (will be added to EATOM!!)
 
 
 POSCAR: Sr6 Li6 Al6 N12
  positions in direct lattice
  velocities in cartesian coordinates

 METAGGA = SCAN     LMAXTAU =  6    LMIXTAU =  F

 exchange correlation table for  LEXCH =        8
   RHO(1)=    0.500       N(1)  =     2000
   RHO(2)=  100.500       N(2)  =     4000
 


--------------------------------------------------------------------------------------------------------


 ion  position               nearest neighbor table
   1  0.814  0.489  0.190-  13 1.91  17 1.94  23 1.94  18 1.96   8 2.40  11 2.53   7 2.55  25 3.04
                            29 3.07   2 3.22  30 3.22   6 3.24  25 3.51  25 4.04
   2  0.489  0.814  0.190-  14 1.91  18 1.94  23 1.94  17 1.96   7 2.40  11 2.53   8 2.55  25 3.04
                            30 3.07   1 3.22  29 3.22   6 3.24  25 3.51  25 4.04
   3  0.186  0.511  0.810-  15 1.91  19 1.94  24 1.94  20 1.96  10 2.40  12 2.53   9 2.55  26 3.04
                            30 3.07   4 3.22  29 3.22   5 3.24  26 3.51  26 4.04
   4  0.511  0.186  0.810-  16 1.91  20 1.94  24 1.94  19 1.96   9 2.40  12 2.53  10 2.55  26 3.04
                            29 3.07   3 3.22  30 3.22   5 3.24  26 3.51  26 4.04
   5  0.397  0.397  0.588-  15 1.86  16 1.86  22 1.92  21 1.96   6 2.56  10 2.59   9 2.59  27 3.19
                            28 3.19   4 3.24   3 3.24  26 3.38  28 3.40  27 3.40  26 3.77  27 4.23
   6  0.603  0.603  0.412-  13 1.86  14 1.86  21 1.92  22 1.96   5 2.56   8 2.59   7 2.59  28 3.19
                            27 3.19   1 3.24   2 3.24  25 3.38  28 3.40  27 3.40  25 3.77  27 4.23
   7  0.181  0.552  0.319-  13 1.92  14 2.01  17 2.09   2 2.40  21 2.43   1 2.55   6 2.59  25 2.72
                            28 2.73  27 3.21   8 3.27   8 3.27  25 3.41
   8  0.552  0.181  0.319-  14 1.92  13 2.01  18 2.09   1 2.40  21 2.43   2 2.55   6 2.59  25 2.72
                            27 2.73  28 3.21   7 3.27   7 3.27  25 3.41
   9  0.819  0.448  0.681-  15 1.92  16 2.01  19 2.09   4 2.40  22 2.43   3 2.55   5 2.59  26 2.72
                            27 2.73  28 3.21  10 3.27  10 3.27  26 3.41
  10  0.448  0.819  0.681-  16 1.92  15 2.01  20 2.09   3 2.40  22 2.43   4 2.55   5 2.59  26 2.72
                            28 2.73  27 3.21   9 3.27   9 3.27  26 3.41
  11  0.410  0.410  0.085-  23 2.04  18 2.09  17 2.09  12 2.42   1 2.53   2 2.53  25 3.09  30 3.13
                            29 3.13  29 3.54  30 3.54  30 4.08  29 4.08
  12  0.590  0.590  0.915-  24 2.04  19 2.09  20 2.09  11 2.42   4 2.53   3 2.53  26 3.09  30 3.13
                            29 3.13  29 3.54  30 3.54  30 4.08  29 4.08
  13  0.848  0.539  0.341-   6 1.86   1 1.91   7 1.92   8 2.01  28 2.71  27 2.84  25 2.89
  14  0.539  0.848  0.341-   6 1.86   2 1.91   8 1.92   7 2.01  27 2.71  28 2.84  25 2.89
  15  0.152  0.461  0.659-   5 1.86   3 1.91   9 1.92  10 2.01  27 2.71  28 2.84  26 2.89
  16  0.461  0.152  0.659-   5 1.86   4 1.91  10 1.92   9 2.01  28 2.71  27 2.84  26 2.89
  17  0.151  0.524  0.154-   1 1.94   2 1.96   7 2.09  11 2.09  30 2.63  29 2.78  25 2.85
  18  0.524  0.151  0.154-   2 1.94   1 1.96   8 2.09  11 2.09  29 2.63  30 2.78  25 2.85
  19  0.849  0.476  0.846-   3 1.94   4 1.96   9 2.09  12 2.09  29 2.63  30 2.78  26 2.85
  20  0.476  0.849  0.846-   4 1.94   3 1.96  10 2.09  12 2.09  30 2.63  29 2.78  26 2.85
  21  0.291  0.291  0.440-   6 1.92   5 1.96   7 2.43   8 2.43  25 2.65  27 2.65  28 2.65
  22  0.709  0.709  0.560-   5 1.92   6 1.96   9 2.43  10 2.43  26 2.65  27 2.65  28 2.65
  23  0.742  0.742  0.117-   2 1.94   1 1.94  11 2.04  25 2.58  29 2.71  30 2.71
  24  0.258  0.258  0.883-   3 1.94   4 1.94  12 2.04  26 2.58  30 2.71  29 2.71
  25  0.057  0.057  0.259-  23 2.58  21 2.65   7 2.72   8 2.72  17 2.85  18 2.85  14 2.89  13 2.89
                             2 3.04   1 3.04  11 3.09   6 3.38   8 3.41   7 3.41   1 3.51   2 3.51
  26  0.943  0.943  0.741-  24 2.58  22 2.65  10 2.72   9 2.72  20 2.85  19 2.85  15 2.89  16 2.89
                             3 3.04   4 3.04  12 3.09   5 3.38   9 3.41  10 3.41   4 3.51   3 3.51
  27  0.817  0.183  0.500-  21 2.65  22 2.65  15 2.71  14 2.71   9 2.73   8 2.73  16 2.84  13 2.84
                             5 3.19   6 3.19   7 3.21  10 3.21  28 3.29  28 3.29   5 3.40   6 3.40
  28  0.183  0.817  0.500-  21 2.65  22 2.65  16 2.71  13 2.71  10 2.73   7 2.73  15 2.84  14 2.84
                             5 3.19   6 3.19   8 3.21   9 3.21  27 3.29  27 3.29   5 3.40   6 3.40
  29  0.835  0.165  0.000-  18 2.63  19 2.63  23 2.71  24 2.71  17 2.78  20 2.78   1 3.07   4 3.07
                            11 3.13  12 3.13   2 3.22   3 3.22  30 3.28  30 3.45  30 3.45  12 3.54
  30  0.165  0.835  0.000-  17 2.63  20 2.63  23 2.71  24 2.71  18 2.78  19 2.78   2 3.07   3 3.07
                            11 3.13  12 3.13   1 3.22   4 3.22  29 3.28  29 3.45  29 3.45  12 3.54
 

IMPORTANT INFORMATION: All symmetrisations will be switched off!
NOSYMM: (Re-)initialisation of all symmetry stuff for point group C_1.


----------------------------------------------------------------------------------------

                                     Primitive cell                                     

  volume of cell :     376.4965

  direct lattice vectors                    reciprocal lattice vectors
    -3.014808381 -4.962165438  0.068196703    -0.165843589 -0.100762461  0.000195834
    -3.014808416  4.962165460  0.068196707    -0.165843589  0.100762460  0.000195834
    -0.014858586 -0.000000008-12.583122738    -0.001797644  0.000000000 -0.079469406

  length of vectors
     5.806617449  5.806617486 12.583131511     0.194054652  0.194054651  0.079489735

  position of ions in fractional coordinates (direct lattice)
     0.813696129  0.489369361  0.190383901
     0.489369359  0.813696129  0.190383899
     0.186302729  0.510631406  0.809614544
     0.510631410  0.186302735  0.809614536
     0.397303124  0.397303127  0.588000034
     0.602697487  0.602697474  0.412000320
     0.180661530  0.552312191  0.319197284
     0.552312191  0.180661526  0.319197285
     0.819336912  0.447689433  0.680802491
     0.447689401  0.819336892  0.680802490
     0.409795229  0.409795219  0.084915769
     0.590203400  0.590203386  0.915085131
     0.848223784  0.538610649  0.341160024
     0.538610643  0.848223800  0.341160023
     0.151775661  0.461389324  0.658839542
     0.461389355  0.151775657  0.658839545
     0.150940792  0.523826937  0.153534594
     0.523826950  0.150940795  0.153534600
     0.849058671  0.476172998  0.846465019
     0.476172994  0.849058668  0.846465023
     0.291100432  0.291100440  0.439503643
     0.708899459  0.708899460  0.560497418
     0.742382511  0.742382516  0.116840165
     0.257617193  0.257617194  0.883159616
     0.057434258  0.057434280  0.259163225
     0.942562621  0.942562648  0.740837855
     0.816887091  0.183118653  0.500000896
     0.183118670  0.816887076  0.500000892
     0.834749919  0.165250098  0.000000118
     0.165250097  0.834749928  0.000000118

  ion indices of the primitive-cell ions
   primitive index   ion index
                 1           1
                 2           2
                 3           3
                 4           4
                 5           5
                 6           6
                 7           7
                 8           8
                 9           9
                10          10
                11          11
                12          12
                13          13
                14          14
                15          15
                16          16
                17          17
                18          18
                19          19
                20          20
                21          21
                22          22
                23          23
                24          24
                25          25
                26          26
                27          27
                28          28
                29          29
                30          30

----------------------------------------------------------------------------------------

 
 
 KPOINTS: Regular k-point mesh                    

Automatic generation of k-mesh.
Space group operators:
 irot       det(A)        alpha          n_x          n_y          n_z        tau_x        tau_y        tau_z
    1     1.000000     0.000000     1.000000     0.000000     0.000000     0.000000     0.000000     0.000000
 
 Subroutine IBZKPT returns following result:
 ===========================================
 
 Found     56 irreducible k-points:
 
 Following reciprocal coordinates:
            Coordinates               Weight
  0.000000  0.000000  0.000000      1.000000
  0.166667  0.000000  0.000000      2.000000
  0.000000 -0.166667 -0.000000      2.000000
  0.333333  0.000000 -0.000000      2.000000
  0.000000 -0.333333 -0.000000      2.000000
  0.500000 -0.000000  0.000000      1.000000
 -0.000000  0.500000 -0.000000      1.000000
  0.166667  0.166667 -0.000000      2.000000
  0.333333  0.166667  0.000000      2.000000
 -0.166667 -0.333333  0.000000      2.000000
  0.500000  0.166667  0.000000      2.000000
 -0.166667  0.500000  0.000000      2.000000
 -0.333333  0.166667 -0.000000      2.000000
 -0.166667  0.333333 -0.000000      2.000000
 -0.166667  0.166667  0.000000      2.000000
  0.333333  0.333333 -0.000000      2.000000
  0.500000  0.333333  0.000000      2.000000
 -0.333333  0.500000  0.000000      2.000000
 -0.333333  0.333333  0.000000      2.000000
  0.500000  0.500000  0.000000      1.000000
  0.000000  0.000000  0.333333      2.000000
  0.166667  0.000000  0.333333      2.000000
  0.000000 -0.166667 -0.333333      2.000000
  0.333333  0.000000  0.333333      2.000000
 -0.000000 -0.333333 -0.333333      2.000000
  0.500000 -0.000000  0.333333      2.000000
 -0.000000  0.500000 -0.333333      2.000000
 -0.333333 -0.000000  0.333333      2.000000
 -0.000000  0.333333 -0.333333      2.000000
 -0.166667 -0.000000  0.333333      2.000000
 -0.000000  0.166667 -0.333333      2.000000
  0.166667  0.166667  0.333333      2.000000
  0.333333  0.166667  0.333333      2.000000
 -0.166667 -0.333333 -0.333333      2.000000
  0.500000  0.166667  0.333333      2.000000
 -0.166667  0.500000 -0.333333      2.000000
 -0.333333  0.166667  0.333333      2.000000
 -0.166667  0.333333 -0.333333      2.000000
 -0.166667  0.166667  0.333333      2.000000
 -0.166667  0.166667 -0.333333      2.000000
  0.333333  0.333333  0.333333      2.000000
  0.500000  0.333333  0.333333      2.000000
 -0.333333  0.500000 -0.333333      2.000000
 -0.333333  0.333333  0.333333      2.000000
 -0.333333  0.333333 -0.333333      2.000000
 -0.166667  0.333333  0.333333      2.000000
 -0.333333  0.166667 -0.333333      2.000000
  0.500000  0.500000  0.333333      2.000000
 -0.333333  0.500000  0.333333      2.000000
  0.500000  0.333333 -0.333333      2.000000
 -0.166667  0.500000  0.333333      2.000000
  0.500000  0.166667 -0.333333      2.000000
 -0.333333 -0.333333  0.333333      2.000000
 -0.166667 -0.333333  0.333333      2.000000
  0.333333  0.166667 -0.333333      2.000000
 -0.166667 -0.166667  0.333333      2.000000
 
 Following cartesian coordinates:
            Coordinates               Weight
  0.000000  0.000000  0.000000      1.000000
 -0.027641 -0.016794  0.000033      2.000000
  0.027641 -0.016794 -0.000033      2.000000
 -0.055281 -0.033587  0.000065      2.000000
  0.055281 -0.033587 -0.000065      2.000000
 -0.082922 -0.050381  0.000098      1.000000
 -0.082922  0.050381  0.000098      1.000000
 -0.055281 -0.000000  0.000065      2.000000
 -0.082922 -0.016794  0.000098      2.000000
  0.082922 -0.016794 -0.000098      2.000000
 -0.110562 -0.033587  0.000131      2.000000
 -0.055281  0.067175  0.000065      2.000000
  0.027641  0.050381 -0.000033      2.000000
 -0.027641  0.050381  0.000033      2.000000
  0.000000  0.033587 -0.000000      2.000000
 -0.110562 -0.000000  0.000131      2.000000
 -0.138203 -0.016794  0.000163      2.000000
 -0.027641  0.083969  0.000033      2.000000
  0.000000  0.067175 -0.000000      2.000000
 -0.165844 -0.000000  0.000196      1.000000
 -0.000599  0.000000 -0.026490      2.000000
 -0.028240 -0.016794 -0.026457      2.000000
  0.028240 -0.016794  0.026457      2.000000
 -0.055880 -0.033587 -0.026425      2.000000
  0.055880 -0.033587  0.026425      2.000000
 -0.083521 -0.050381 -0.026392      2.000000
 -0.082323  0.050381  0.026588      2.000000
  0.054682  0.033587 -0.026555      2.000000
 -0.054682  0.033587  0.026555      2.000000
  0.027041  0.016794 -0.026522      2.000000
 -0.027041  0.016794  0.026522      2.000000
 -0.055880 -0.000000 -0.026425      2.000000
 -0.083521 -0.016794 -0.026392      2.000000
  0.083521 -0.016794  0.026392      2.000000
 -0.111162 -0.033587 -0.026359      2.000000
 -0.054682  0.067175  0.026555      2.000000
  0.027041  0.050381 -0.026522      2.000000
 -0.027041  0.050381  0.026522      2.000000
 -0.000599  0.033587 -0.026490      2.000000
  0.000599  0.033587  0.026490      2.000000
 -0.111162 -0.000000 -0.026359      2.000000
 -0.138802 -0.016794 -0.026327      2.000000
 -0.027041  0.083969  0.026522      2.000000
 -0.000599  0.067175 -0.026490      2.000000
  0.000599  0.067175  0.026490      2.000000
 -0.028240  0.050381 -0.026457      2.000000
  0.028240  0.050381  0.026457      2.000000
 -0.166443 -0.000000 -0.026294      2.000000
 -0.028240  0.083969 -0.026457      2.000000
 -0.137604 -0.016794  0.026653      2.000000
 -0.055880  0.067175 -0.026425      2.000000
 -0.109963 -0.033587  0.026620      2.000000
  0.109963  0.000000 -0.026620      2.000000
  0.082323 -0.016794 -0.026588      2.000000
 -0.082323 -0.016794  0.026588      2.000000
  0.054682  0.000000 -0.026555      2.000000
 


--------------------------------------------------------------------------------------------------------




 Dimension of arrays:
   k-points           NKPTS =     56   k-points in BZ     NKDIM =     56   number of bands    NBANDS=     92
   number of dos      NEDOS =    301   number of ions     NIONS =     30
   non local maximal  LDIM  =      6   non local SUM 2l+1 LMDIM =     18
   total plane-waves  NPLWV = 221184
   max r-space proj   IRMAX =   9753   max aug-charges    IRDMAX=  34643
   dimension x,y,z NGX =    48 NGY =   48 NGZ =   96
   dimension x,y,z NGXF=    96 NGYF=   96 NGZF=  192
   support grid    NGXF=    96 NGYF=   96 NGZF=  192
   ions per type =               6   6  12   6
   NGX,Y,Z   is equivalent  to a cutoff of  13.74, 13.74, 12.68 a.u.
   NGXF,Y,Z  is equivalent  to a cutoff of  27.49, 27.49, 25.37 a.u.

 SYSTEM =  unknown system                          
 POSCAR =  Sr6 Li6 Al6 N12                         

 Startparameter for this run:
   NWRITE =      2    write-flag & timer
   PREC   = accura    normal or accurate (medium, high low for compatibility)
   ISTART =      0    job   : 0-new  1-cont  2-samecut
   ICHARG =      1    charge: 1-file 2-atom 10-const
   ISPIN  =      2    spin polarized calculation?
   LNONCOLLINEAR =      F non collinear calculations
   LSORBIT =      F    spin-orbit coupling
   INIWAV =      1    electr: 0-lowe 1-rand  2-diag
   LASPH  =      T    aspherical Exc in radial PAW
   METAGGA=      F    non-selfconsistent MetaGGA calc.

 Electronic Relaxation 1
   ENCUT  =  520.0 eV  38.22 Ry    6.18 a.u.  10.80 10.80 23.40*2*pi/ulx,y,z
   ENINI  =  520.0     initial cutoff
   ENAUG  =  627.1 eV  augmentation charge cutoff
   NELM   =    100;   NELMIN=  6; NELMDL= -5     # of ELM steps 
   EDIFF  = 0.1E-04   stopping-criterion for ELM
   LREAL  =      T    real-space projection
   NLSPLINE    = F    spline interpolate recip. space projectors
   LCOMPAT=      F    compatible to vasp.4.4
   GGA_COMPAT  = T    GGA compatible to vasp.4.4-vasp.4.6
   LMAXPAW     = -100 max onsite density
   LMAXMIX     =    2 max onsite mixed and CHGCAR
   VOSKOWN=      0    Vosko Wilk Nusair interpolation
   ROPT   =   -0.00025  -0.00025  -0.00025  -0.00025
 Ionic relaxation
   EDIFFG = -.1E-01   stopping-criterion for IOM
   NSW    =     99    number of steps for IOM
   NBLOCK =      1;   KBLOCK =     99    inner block; outer block 
   IBRION =      2    ionic relax: 0-MD 1-quasi-New 2-CG
   NFREE  =      1    steps in history (QN), initial steepest desc. (CG)
   ISIF   =      3    stress and relaxation
   IWAVPR =     11    prediction:  0-non 1-charg 2-wave 3-comb
   ISYM   =      0    0-nonsym 1-usesym 2-fastsym
   LCORR  =      T    Harris-Foulkes like correction to forces

   POTIM  = 0.5000    time-step for ionic-motion
   TEIN   =    0.0    initial temperature
   TEBEG  =    0.0;   TEEND  =   0.0 temperature during run
   SMASS  =  -3.00    Nose mass-parameter (am)
   estimated Nose-frequenzy (Omega)   =  0.10E-29 period in steps = 0.13E+47 mass=  -0.771E-27a.u.
   SCALEE = 1.0000    scale energy and forces
   NPACO  =    256;   APACO  = 16.0  distance and # of slots for P.C.
   PSTRESS=    0.0 pullay stress

  Mass of Ions in am
   POMASS =  26.98  7.01 14.00 87.62
  Ionic Valenz
   ZVAL   =   3.00  1.00  5.00 10.00
  Atomic Wigner-Seitz radii
   RWIGS  =  -1.00 -1.00 -1.00 -1.00
  virtual crystal weights 
   VCA    =   1.00  1.00  1.00  1.00
   NELECT =     144.0000    total number of electrons
   NUPDOWN=      -1.0000    fix difference up-down

 DOS related values:
   EMIN   =  10.00;   EMAX   =-10.00  energy-range for DOS
   EFERMI =   0.00
   ISMEAR =     0;   SIGMA  =   0.05  broadening in eV -4-tet -1-fermi 0-gaus

 Electronic relaxation 2 (details)
   IALGO  =     38    algorithm
   LDIAG  =      T    sub-space diagonalisation (order eigenvalues)
   LSUBROT=      F    optimize rotation matrix (better conditioning)
   TURBO    =      0    0=normal 1=particle mesh
   IRESTART =      0    0=no restart 2=restart with 2 vectors
   NREBOOT  =      0    no. of reboots
   NMIN     =      0    reboot dimension
   EREF     =   0.00    reference energy to select bands
   IMIX   =      4    mixing-type and parameters
     AMIX     =   0.40;   BMIX     =  1.00
     AMIX_MAG =   1.60;   BMIX_MAG =  1.00
     AMIN     =   0.10
     WC   =   100.;   INIMIX=   1;  MIXPRE=   1;  MAXMIX= -45

 Intra band minimization:
   WEIMIN = 0.0010     energy-eigenvalue tresh-hold
   EBREAK =  0.27E-07  absolut break condition
   DEPER  =   0.30     relativ break condition  

   TIME   =   0.40     timestep for ELM

  volume/ion in A,a.u.               =      12.55        84.69
  Fermi-wavevector in a.u.,A,eV,Ry     =   1.188344  2.245644 19.213607  1.412160
  Thomas-Fermi vector in A             =   2.324475
 
 Write flags
   LWAVE        =      F    write WAVECAR
   LDOWNSAMPLE  =      F    k-point downsampling of WAVECAR
   LCHARG       =      T    write CHGCAR
   LVTOT        =      F    write LOCPOT, total local potential
   LVHAR        =      F    write LOCPOT, Hartree potential only
   LELF         =      F    write electronic localiz. function (ELF)
   LORBIT       =     11    0 simple, 1 ext, 2 COOP (PROOUT), +10 PAW based schemes


 Dipole corrections
   LMONO  =      F    monopole corrections only (constant potential shift)
   LDIPOL =      F    correct potential (dipole corrections)
   IDIPOL =      0    1-x, 2-y, 3-z, 4-all directions 
   EPSILON=  1.0000000 bulk dielectric constant

 Exchange correlation treatment:
   GGA     =    --    GGA type
   LEXCH   =     8    internal setting for exchange type
   VOSKOWN=      0    Vosko Wilk Nusair interpolation
   LHFCALC =     F    Hartree Fock is set to
   LHFONE  =     F    Hartree Fock one center treatment
   AEXX    =    0.0000 exact exchange contribution

 Linear response parameters
   LEPSILON=     F    determine dielectric tensor
   LRPA    =     F    only Hartree local field effects (RPA)
   LNABLA  =     F    use nabla operator in PAW spheres
   LVEL    =     F    velocity operator in full k-point grid
   LINTERFAST=   F  fast interpolation
   KINTER  =     0    interpolate to denser k-point grid
   CSHIFT  =0.1000    complex shift for real part using Kramers Kronig
   OMEGAMAX=  -1.0    maximum frequency
   DEG_THRESHOLD= 0.2000000E-02 threshold for treating states as degnerate
   RTIME   =   -0.100 relaxation time in fs
  (WPLASMAI=    0.000 imaginary part of plasma frequency in eV, 0.658/RTIME)
   DFIELD  = 0.0000000 0.0000000 0.0000000 field for delta impulse in time
 
 Orbital magnetization related:
   ORBITALMAG=     F  switch on orbital magnetization
   LCHIMAG   =     F  perturbation theory with respect to B field
   DQ        =  0.001000  dq finite difference perturbation B field
   LLRAUG    =     F  two centre corrections for induced B field



--------------------------------------------------------------------------------------------------------


 conjugate gradient relaxation of ions
 charge density and potential will be updated during run
 spin polarized calculation
 Variant of blocked Davidson
 Davidson routine will perform the subspace rotation
 perform sub-space diagonalisation
    after iterative eigenvector-optimisation
 modified Broyden-mixing scheme, WC =      100.0
 initial mixing is a Kerker type mixing with AMIX =  0.4000 and BMIX =      1.0000
 Hartree-type preconditioning will be used
 using additional bands           20
 real space projection scheme for non local part
 use partial core corrections
 calculate Harris-corrections to forces 
   (improved forces if not selfconsistent)
 use gradient corrections 
 use of overlap-Matrix (Vanderbilt PP)
 Gauss-broadening in eV      SIGMA  =   0.05


--------------------------------------------------------------------------------------------------------


  energy-cutoff  :      520.00
  volume of cell :      376.50
      direct lattice vectors                 reciprocal lattice vectors
    -3.014808381 -4.962165438  0.068196703    -0.165843589 -0.100762461  0.000195834
    -3.014808416  4.962165460  0.068196707    -0.165843589  0.100762460  0.000195834
    -0.014858586 -0.000000008-12.583122738    -0.001797644  0.000000000 -0.079469406

  length of vectors
     5.806617449  5.806617486 12.583131511     0.194054652  0.194054651  0.079489735


 
 k-points in units of 2pi/SCALE and weight: Regular k-point mesh                    
   0.00000000  0.00000000  0.00000000       0.009
  -0.02764060 -0.01679374  0.00003264       0.019
   0.02764060 -0.01679374 -0.00003264       0.019
  -0.05528120 -0.03358749  0.00006528       0.019
   0.05528120 -0.03358749 -0.00006528       0.019
  -0.08292179 -0.05038123  0.00009792       0.009
  -0.08292179  0.05038123  0.00009792       0.009
  -0.05528120 -0.00000000  0.00006528       0.019
  -0.08292179 -0.01679374  0.00009792       0.019
   0.08292179 -0.01679374 -0.00009792       0.019
  -0.11056239 -0.03358749  0.00013056       0.019
  -0.05528120  0.06717497  0.00006528       0.019
   0.02764060  0.05038123 -0.00003264       0.019
  -0.02764060  0.05038123  0.00003264       0.019
   0.00000000  0.03358749 -0.00000000       0.019
  -0.11056239 -0.00000000  0.00013056       0.019
  -0.13820299 -0.01679374  0.00016319       0.019
  -0.02764060  0.08396872  0.00003264       0.019
   0.00000000  0.06717497 -0.00000000       0.019
  -0.16584359 -0.00000000  0.00019583       0.009
  -0.00059921  0.00000000 -0.02648980       0.019
  -0.02823981 -0.01679374 -0.02645716       0.019
   0.02823981 -0.01679374  0.02645716       0.019
  -0.05588041 -0.03358749 -0.02642452       0.019
   0.05588041 -0.03358749  0.02642452       0.019
  -0.08352101 -0.05038123 -0.02639189       0.019
  -0.08232258  0.05038123  0.02658772       0.019
   0.05468198  0.03358749 -0.02655508       0.019
  -0.05468198  0.03358749  0.02655508       0.019
   0.02704138  0.01679374 -0.02652244       0.019
  -0.02704138  0.01679374  0.02652244       0.019
  -0.05588041 -0.00000000 -0.02642452       0.019
  -0.08352101 -0.01679374 -0.02639189       0.019
   0.08352101 -0.01679374  0.02639189       0.019
  -0.11116161 -0.03358749 -0.02635925       0.019
  -0.05468198  0.06717497  0.02655508       0.019
   0.02704138  0.05038123 -0.02652244       0.019
  -0.02704138  0.05038123  0.02652244       0.019
  -0.00059921  0.03358749 -0.02648980       0.019
   0.00059921  0.03358749  0.02648980       0.019
  -0.11116161 -0.00000000 -0.02635925       0.019
  -0.13880221 -0.01679374 -0.02632661       0.019
  -0.02704138  0.08396872  0.02652244       0.019
  -0.00059921  0.06717497 -0.02648980       0.019
   0.00059921  0.06717497  0.02648980       0.019
  -0.02823981  0.05038123 -0.02645716       0.019
   0.02823981  0.05038123  0.02645716       0.019
  -0.16644280 -0.00000000 -0.02629397       0.019
  -0.02823981  0.08396872 -0.02645716       0.019
  -0.13760378 -0.01679374  0.02665300       0.019
  -0.05588041  0.06717497 -0.02642452       0.019
  -0.10996318 -0.03358749  0.02662036       0.019
   0.10996318  0.00000000 -0.02662036       0.019
   0.08232258 -0.01679374 -0.02658772       0.019
  -0.08232258 -0.01679374  0.02658772       0.019
   0.05468198  0.00000000 -0.02655508       0.019
 
 k-points in reciprocal lattice and weights: Regular k-point mesh                    
   0.00000000  0.00000000  0.00000000       0.009
   0.16666667  0.00000000  0.00000000       0.019
   0.00000000 -0.16666667 -0.00000000       0.019
   0.33333333  0.00000000 -0.00000000       0.019
   0.00000000 -0.33333333 -0.00000000       0.019
   0.50000000 -0.00000000  0.00000000       0.009
  -0.00000000  0.50000000 -0.00000000       0.009
   0.16666667  0.16666667 -0.00000000       0.019
   0.33333333  0.16666667  0.00000000       0.019
  -0.16666667 -0.33333333  0.00000000       0.019
   0.50000000  0.16666667  0.00000000       0.019
  -0.16666667  0.50000000  0.00000000       0.019
  -0.33333333  0.16666667 -0.00000000       0.019
  -0.16666667  0.33333333 -0.00000000       0.019
  -0.16666667  0.16666667  0.00000000       0.019
   0.33333333  0.33333333 -0.00000000       0.019
   0.50000000  0.33333333  0.00000000       0.019
  -0.33333333  0.50000000  0.00000000       0.019
  -0.33333333  0.33333333  0.00000000       0.019
   0.50000000  0.50000000  0.00000000       0.009
   0.00000000  0.00000000  0.33333333       0.019
   0.16666667  0.00000000  0.33333333       0.019
   0.00000000 -0.16666667 -0.33333333       0.019
   0.33333333  0.00000000  0.33333333       0.019
  -0.00000000 -0.33333333 -0.33333333       0.019
   0.50000000 -0.00000000  0.33333333       0.019
  -0.00000000  0.50000000 -0.33333333       0.019
  -0.33333333 -0.00000000  0.33333333       0.019
  -0.00000000  0.33333333 -0.33333333       0.019
  -0.16666667 -0.00000000  0.33333333       0.019
  -0.00000000  0.16666667 -0.33333333       0.019
   0.16666667  0.16666667  0.33333333       0.019
   0.33333333  0.16666667  0.33333333       0.019
  -0.16666667 -0.33333333 -0.33333333       0.019
   0.50000000  0.16666667  0.33333333       0.019
  -0.16666667  0.50000000 -0.33333333       0.019
  -0.33333333  0.16666667  0.33333333       0.019
  -0.16666667  0.33333333 -0.33333333       0.019
  -0.16666667  0.16666667  0.33333333       0.019
  -0.16666667  0.16666667 -0.33333333       0.019
   0.33333333  0.33333333  0.33333333       0.019
   0.50000000  0.33333333  0.33333333       0.019
  -0.33333333  0.50000000 -0.33333333       0.019
  -0.33333333  0.33333333  0.33333333       0.019
  -0.33333333  0.33333333 -0.33333333       0.019
  -0.16666667  0.33333333  0.33333333       0.019
  -0.33333333  0.16666667 -0.33333333       0.019
   0.50000000  0.50000000  0.33333333       0.019
  -0.33333333  0.50000000  0.33333333       0.019
   0.50000000  0.33333333 -0.33333333       0.019
  -0.16666667  0.50000000  0.33333333       0.019
   0.50000000  0.16666667 -0.33333333       0.019
  -0.33333333 -0.33333333  0.33333333       0.019
  -0.16666667 -0.33333333  0.33333333       0.019
   0.33333333  0.16666667 -0.33333333       0.019
  -0.16666667 -0.16666667  0.33333333       0.019
 
 position of ions in fractional coordinates (direct lattice) 
   0.81369613  0.48936936  0.19038390
   0.48936936  0.81369613  0.19038390
   0.18630273  0.51063141  0.80961454
   0.51063141  0.18630274  0.80961454
   0.39730312  0.39730313  0.58800003
   0.60269749  0.60269747  0.41200032
   0.18066153  0.55231219  0.31919728
   0.55231219  0.18066153  0.31919729
   0.81933691  0.44768943  0.68080249
   0.44768940  0.81933689  0.68080249
   0.40979523  0.40979522  0.08491577
   0.59020340  0.59020339  0.91508513
   0.84822378  0.53861065  0.34116002
   0.53861064  0.84822380  0.34116002
   0.15177566  0.46138932  0.65883954
   0.46138935  0.15177566  0.65883954
   0.15094079  0.52382694  0.15353459
   0.52382695  0.15094079  0.15353460
   0.84905867  0.47617300  0.84646502
   0.47617299  0.84905867  0.84646502
   0.29110043  0.29110044  0.43950364
   0.70889946  0.70889946  0.56049742
   0.74238251  0.74238252  0.11684016
   0.25761719  0.25761719  0.88315962
   0.05743426  0.05743428  0.25916323
   0.94256262  0.94256265  0.74083786
   0.81688709  0.18311865  0.50000090
   0.18311867  0.81688708  0.50000089
   0.83474992  0.16525010  0.00000012
   0.16525010  0.83474993  0.00000012
 
 position of ions in cartesian coordinates  (Angst):
  -3.93132161 -1.60936307 -2.30675922
  -3.93132162  1.60936311 -2.30675920
  -2.11315262  1.60937256-10.13995056
  -2.11315264 -1.60937254-10.13995046
  -2.40432245  0.00000002 -7.34468707
  -3.64015659 -0.00000005 -5.10204663
  -2.21451816  1.84419208 -3.96651221
  -2.21451813 -1.84419208 -3.96651222
  -3.82995742 -1.84417627 -8.48021428
  -3.82995728  1.84417634 -8.48021427
  -2.47216990 -0.00000004 -1.01261218
  -3.57229716 -0.00000006-11.43412866
  -4.18610925 -1.53635159 -4.19828092
  -4.18610929  1.53635173 -4.19828090
  -1.85836438  1.53635422 -8.24844299
  -1.85836444 -1.53635439 -8.24844302
  -2.03657673  1.85032275 -1.88592770
  -2.03657676 -1.85032279 -1.88592778
  -4.00789683 -1.85032039-10.56079680
  -4.00789683  1.85032041-10.56079684
  -1.76175448  0.00000004 -5.49062411
  -4.28272028  0.00000001 -6.95611859
  -4.47801815  0.00000004 -1.36895805
  -1.56645546  0.00000000-11.07776855
  -0.35015743  0.00000011 -3.25324902
  -5.69429930  0.00000015 -9.19349433
  -3.02225501 -3.14486384 -6.22337555
  -3.02225504  3.14486370 -6.22337549
  -3.01480844 -3.32216887  0.06819521
  -3.01480849  3.32216894  0.06819522
 


--------------------------------------------------------------------------------------------------------


 k-point   1 :   0.0000 0.0000 0.0000  plane waves:   10115
 k-point   2 :   0.1667 0.0000 0.0000  plane waves:   10133
 k-point   3 :   0.0000-0.1667-0.0000  plane waves:   10133
 k-point   4 :   0.3333 0.0000-0.0000  plane waves:   10140
 k-point   5 :   0.0000-0.3333-0.0000  plane waves:   10140
 k-point   6 :   0.5000-0.0000 0.0000  plane waves:   10132
 k-point   7 :  -0.0000 0.5000-0.0000  plane waves:   10132
 k-point   8 :   0.1667 0.1667-0.0000  plane waves:   10147
 k-point   9 :   0.3333 0.1667 0.0000  plane waves:   10139
 k-point  10 :  -0.1667-0.3333 0.0000  plane waves:   10139
 k-point  11 :   0.5000 0.1667 0.0000  plane waves:   10138
 k-point  12 :  -0.1667 0.5000 0.0000  plane waves:   10138
 k-point  13 :  -0.3333 0.1667-0.0000  plane waves:   10136
 k-point  14 :  -0.1667 0.3333-0.0000  plane waves:   10136
 k-point  15 :  -0.1667 0.1667 0.0000  plane waves:   10121
 k-point  16 :   0.3333 0.3333-0.0000  plane waves:   10154
 k-point  17 :   0.5000 0.3333 0.0000  plane waves:   10142
 k-point  18 :  -0.3333 0.5000 0.0000  plane waves:   10142
 k-point  19 :  -0.3333 0.3333 0.0000  plane waves:   10154
 k-point  20 :   0.5000 0.5000 0.0000  plane waves:   10154
 k-point  21 :   0.0000 0.0000 0.3333  plane waves:   10146
 k-point  22 :   0.1667 0.0000 0.3333  plane waves:   10128
 k-point  23 :   0.0000-0.1667-0.3333  plane waves:   10128
 k-point  24 :   0.3333 0.0000 0.3333  plane waves:   10143
 k-point  25 :  -0.0000-0.3333-0.3333  plane waves:   10143
 k-point  26 :   0.5000-0.0000 0.3333  plane waves:   10141
 k-point  27 :  -0.0000 0.5000-0.3333  plane waves:   10141
 k-point  28 :  -0.3333-0.0000 0.3333  plane waves:   10140
 k-point  29 :  -0.0000 0.3333-0.3333  plane waves:   10140
 k-point  30 :  -0.1667-0.0000 0.3333  plane waves:   10128
 k-point  31 :  -0.0000 0.1667-0.3333  plane waves:   10128
 k-point  32 :   0.1667 0.1667 0.3333  plane waves:   10123
 k-point  33 :   0.3333 0.1667 0.3333  plane waves:   10134
 k-point  34 :  -0.1667-0.3333-0.3333  plane waves:   10134
 k-point  35 :   0.5000 0.1667 0.3333  plane waves:   10132
 k-point  36 :  -0.1667 0.5000-0.3333  plane waves:   10132
 k-point  37 :  -0.3333 0.1667 0.3333  plane waves:   10117
 k-point  38 :  -0.1667 0.3333-0.3333  plane waves:   10117
 k-point  39 :  -0.1667 0.1667 0.3333  plane waves:   10127
 k-point  40 :  -0.1667 0.1667-0.3333  plane waves:   10127
 k-point  41 :   0.3333 0.3333 0.3333  plane waves:   10148
 k-point  42 :   0.5000 0.3333 0.3333  plane waves:   10151
 k-point  43 :  -0.3333 0.5000-0.3333  plane waves:   10151
 k-point  44 :  -0.3333 0.3333 0.3333  plane waves:   10133
 k-point  45 :  -0.3333 0.3333-0.3333  plane waves:   10133
 k-point  46 :  -0.1667 0.3333 0.3333  plane waves:   10130
 k-point  47 :  -0.3333 0.1667-0.3333  plane waves:   10130
 k-point  48 :   0.5000 0.5000 0.3333  plane waves:   10139
 k-point  49 :  -0.3333 0.5000 0.3333  plane waves:   10138
 k-point  50 :   0.5000 0.3333-0.3333  plane waves:   10138
 k-point  51 :  -0.1667 0.5000 0.3333  plane waves:   10124
 k-point  52 :   0.5000 0.1667-0.3333  plane waves:   10124
 k-point  53 :  -0.3333-0.3333 0.3333  plane waves:   10120
 k-point  54 :  -0.1667-0.3333 0.3333  plane waves:   10149
 k-point  55 :   0.3333 0.1667-0.3333  plane waves:   10149
 k-point  56 :  -0.1667-0.1667 0.3333  plane waves:   10144

 maximum and minimum number of plane-waves per node :       658      609

 maximum number of plane-waves:     10154
 maximum index in each direction: 
   IXMAX=   11   IYMAX=   11   IZMAX=   23
   IXMIN=  -11   IYMIN=  -11   IZMIN=  -23


 real space projection operators:
  total allocation   :      15183.33 KBytes
  max/ min on nodes  :       1003.44        896.73


 parallel 3D FFT for wavefunctions:
    minimum data exchange during FFTs selected (reduces bandwidth)
 parallel 3D FFT for charge:
    minimum data exchange during FFTs selected (reduces bandwidth)


 total amount of memory used by VASP MPI-rank0    71882. kBytes
=======================================================================

   base      :      30000. kBytes
   nonlr-proj:       6210. kBytes
   fftplans  :       1588. kBytes
   grid      :       6160. kBytes
   one-center:         62. kBytes
   wavefun   :      27862. kBytes
 
     INWAV:  cpu time    0.0000: real time    0.0000
 Broyden mixing: mesh for mixing (old mesh)
   NGX = 21   NGY = 21   NGZ = 47
  (NGX  = 96   NGY  = 96   NGZ  =192)
  gives a total of  20727 points

 initial charge density was supplied:
 number of electron     144.0000008 magnetization       0.0000000
 keeping initial charge density in first step


--------------------------------------------------------------------------------------------------------


 Maximum index for non-local projection operator          676
 Maximum index for augmentation-charges         1083 (set IRDMAX)


--------------------------------------------------------------------------------------------------------


 First call to EWALD:  gamma=   0.245
 Maximum number of real-space cells 4x 4x 2
 Maximum number of reciprocal cells 2x 2x 4

    FEWALD:  cpu time    0.0014: real time    0.0014


--------------------------------------- Iteration      1(   1)  ---------------------------------------


    POTLOK:  cpu time    0.0961: real time    0.1112
    SETDIJ:  cpu time    0.8240: real time    0.8244
     EDDAV:  cpu time   15.8663: real time   15.8718
       DOS:  cpu time    0.0102: real time    0.0102
    --------------------------------------------
      LOOP:  cpu time   16.7967: real time   16.8177

 eigenvalue-minimisations  : 20608
 total energy-change (2. order) : 0.5831848E+03  (-0.7068701E+04)
 number of electron     144.0000008 magnetization       0.0000000
 augmentation part      144.0000008 magnetization       0.0000000

 Free energy of the ion-electron system (eV)
  ---------------------------------------------------
  alpha Z        PSCENC =       532.56482867
  Ewald energy   TEWEN  =     -7275.95645519
  -Hartree energ DENC   =     -1752.13616840
  -exchange      EXHF   =         0.00000000
  -V(xc)+E(xc)   XCENC  =       397.70832763
  PAW double counting   =     19133.90475605   -19077.69727787
  entropy T*S    EENTRO =        -0.00549803
  eigenvalues    EBANDS =        39.15281567
  atomic energy  EATOM  =      8585.64943488
  Solvation  Ediel_sol  =         0.00000000
  ---------------------------------------------------
  free energy    TOTEN  =       583.18476341 eV

  energy without entropy =      583.19026144  energy(sigma->0) =      583.18751242


--------------------------------------------------------------------------------------------------------




--------------------------------------- Iteration      1(   2)  ---------------------------------------


     EDDAV:  cpu time   17.7621: real time   17.7836
       DOS:  cpu time    0.0086: real time    0.0086
    --------------------------------------------
      LOOP:  cpu time   17.7707: real time   17.7922

 eigenvalue-minimisations  : 24648
 total energy-change (2. order) :-0.8846018E+03  (-0.8434059E+03)
 number of electron     144.0000008 magnetization       0.0000000
 augmentation part      144.0000008 magnetization       0.0000000

 Free energy of the ion-electron system (eV)
  ---------------------------------------------------
  alpha Z        PSCENC =       532.56482867
  Ewald energy   TEWEN  =     -7275.95645519
  -Hartree energ DENC   =     -1752.13616840
  -exchange      EXHF   =         0.00000000
  -V(xc)+E(xc)   XCENC  =       397.70832763
  PAW double counting   =     19133.90475605   -19077.69727787
  entropy T*S    EENTRO =        -0.00000076
  eigenvalues    EBANDS =      -845.45451379
  atomic energy  EATOM  =      8585.64943488
  Solvation  Ediel_sol  =         0.00000000
  ---------------------------------------------------
  free energy    TOTEN  =      -301.41706879 eV

  energy without entropy =     -301.41706803  energy(sigma->0) =     -301.41706841


--------------------------------------------------------------------------------------------------------




--------------------------------------- Iteration      1(   3)  ---------------------------------------


     EDDAV:  cpu time   18.9053: real time   18.9447
       DOS:  cpu time    0.0061: real time    0.0061
    --------------------------------------------
      LOOP:  cpu time   18.9114: real time   18.9509

 eigenvalue-minimisations  : 27144
 total energy-change (2. order) :-0.8420669E+02  (-0.8295752E+02)
 number of electron     144.0000008 magnetization       0.0000000
 augmentation part      144.0000008 magnetization       0.0000000

 Free energy of the ion-electron system (eV)
  ---------------------------------------------------
  alpha Z        PSCENC =       532.56482867
  Ewald energy   TEWEN  =     -7275.95645519
  -Hartree energ DENC   =     -1752.13616840
  -exchange      EXHF   =         0.00000000
  -V(xc)+E(xc)   XCENC  =       397.70832763
  PAW double counting   =     19133.90475605   -19077.69727787
  entropy T*S    EENTRO =        -0.00000000
  eigenvalues    EBANDS =      -929.66120668
  atomic energy  EATOM  =      8585.64943488
  Solvation  Ediel_sol  =         0.00000000
  ---------------------------------------------------
  free energy    TOTEN  =      -385.62376091 eV

  energy without entropy =     -385.62376091  energy(sigma->0) =     -385.62376091


--------------------------------------------------------------------------------------------------------




--------------------------------------- Iteration      1(   4)  ---------------------------------------


     EDDAV:  cpu time   23.0062: real time   23.0226
       DOS:  cpu time    0.0050: real time    0.0050
    --------------------------------------------
      LOOP:  cpu time   23.0112: real time   23.0276

 eigenvalue-minimisations  : 36032
 total energy-change (2. order) :-0.6301477E+01  (-0.6245384E+01)
 number of electron     144.0000008 magnetization       0.0000000
 augmentation part      144.0000008 magnetization       0.0000000

 Free energy of the ion-electron system (eV)
  ---------------------------------------------------
  alpha Z        PSCENC =       532.56482867
  Ewald energy   TEWEN  =     -7275.95645519
  -Hartree energ DENC   =     -1752.13616840
  -exchange      EXHF   =         0.00000000
  -V(xc)+E(xc)   XCENC  =       397.70832763
  PAW double counting   =     19133.90475605   -19077.69727787
  entropy T*S    EENTRO =        -0.00000000
  eigenvalues    EBANDS =      -935.96268386
  atomic energy  EATOM  =      8585.64943488
  Solvation  Ediel_sol  =         0.00000000
  ---------------------------------------------------
  free energy    TOTEN  =      -391.92523809 eV

  energy without entropy =     -391.92523809  energy(sigma->0) =     -391.92523809


--------------------------------------------------------------------------------------------------------




--------------------------------------- Iteration      1(   5)  ---------------------------------------


     EDDAV:  cpu time   19.4285: real time   19.4342
       DOS:  cpu time    0.0058: real time    0.0058
    CHARGE:  cpu time    2.0912: real time    2.0914
    MIXING:  cpu time    0.0024: real time    0.0028
    --------------------------------------------
      LOOP:  cpu time   21.5280: real time   21.5342

 eigenvalue-minimisations  : 28352
 total energy-change (2. order) :-0.2729156E+00  (-0.2727202E+00)
 number of electron     144.0000007 magnetization      -0.0000000
 augmentation part        3.1714676 magnetization      -0.0007077

 Broyden mixing:
  rms(total) = 0.11124E+01    rms(broyden)= 0.11123E+01
  rms(prec ) = 0.11755E+01
  weight for this iteration     100.00

 Free energy of the ion-electron system (eV)
  ---------------------------------------------------
  alpha Z        PSCENC =       532.56482867
  Ewald energy   TEWEN  =     -7275.95645519
  -Hartree energ DENC   =     -1752.13616840
  -exchange      EXHF   =         0.00000000
  -V(xc)+E(xc)   XCENC  =       397.70832763
  PAW double counting   =     19133.90475605   -19077.69727787
  entropy T*S    EENTRO =        -0.00000000
  eigenvalues    EBANDS =      -936.23559941
  atomic energy  EATOM  =      8585.64943488
  Solvation  Ediel_sol  =         0.00000000
  ---------------------------------------------------
  free energy    TOTEN  =      -392.19815365 eV

  energy without entropy =     -392.19815365  energy(sigma->0) =     -392.19815365


--------------------------------------------------------------------------------------------------------




--------------------------------------- Iteration      1(   6)  ---------------------------------------


    POTLOK:  cpu time    0.0910: real time    0.1051
    SETDIJ:  cpu time    0.8236: real time    0.8237
     EDDAV:  cpu time   20.5315: real time   20.5337
       DOS:  cpu time    0.0059: real time    0.0059
    CHARGE:  cpu time    2.0624: real time    2.0626
    MIXING:  cpu time    0.0021: real time    0.0022
    --------------------------------------------
      LOOP:  cpu time   23.5166: real time   23.5332

 eigenvalue-minimisations  : 30584
 total energy-change (2. order) : 0.5112527E+02  (-0.2770762E+01)
 number of electron     144.0000009 magnetization       0.0000000
 augmentation part        5.8973851 magnetization       0.0003162

 Broyden mixing:
  rms(total) = 0.86970E+00    rms(broyden)= 0.86959E+00
  rms(prec ) = 0.92204E+00
  weight for this iteration     100.00

 eigenvalues of (default mixing * dielectric matrix)
  average eigenvalue GAMMA=   0.5646
  0.5646

 Free energy of the ion-electron system (eV)
  ---------------------------------------------------
  alpha Z        PSCENC =       532.56482867
  Ewald energy   TEWEN  =     -7275.95645519
  -Hartree energ DENC   =     -1742.13156196
  -exchange      EXHF   =         0.00000000
  -V(xc)+E(xc)   XCENC  =       426.13501752
  PAW double counting   =     20129.20372751   -20064.91206370
  entropy T*S    EENTRO =        -0.00000000
  eigenvalues    EBANDS =      -931.62581393
  atomic energy  EATOM  =      8585.64943488
  Solvation  Ediel_sol  =         0.00000000
  ---------------------------------------------------
  free energy    TOTEN  =      -341.07288622 eV

  energy without entropy =     -341.07288622  energy(sigma->0) =     -341.07288622


--------------------------------------------------------------------------------------------------------




--------------------------------------- Iteration      1(   7)  ---------------------------------------


    POTLOK:  cpu time    0.0892: real time    0.0953
    SETDIJ:  cpu time    0.8262: real time    0.8263
     EDDAV:  cpu time   20.1457: real time   20.1470
       DOS:  cpu time    0.0031: real time    0.0031
    CHARGE:  cpu time    2.0973: real time    2.0975
    MIXING:  cpu time    0.0010: real time    0.0010
    --------------------------------------------
      LOOP:  cpu time   23.1625: real time   23.1702

 eigenvalue-minimisations  : 29920
 total energy-change (2. order) : 0.3066906E+00  (-0.3359900E+00)
 number of electron     144.0000008 magnetization       0.0000000
 augmentation part        5.8654164 magnetization       0.0012635

 Broyden mixing:
  rms(total) = 0.42792E+00    rms(broyden)= 0.42792E+00
  rms(prec ) = 0.45414E+00
  weight for this iteration     100.00

 eigenvalues of (default mixing * dielectric matrix)
  average eigenvalue GAMMA=   0.7393
  0.7393  0.7393

 Free energy of the ion-electron system (eV)
  ---------------------------------------------------
  alpha Z        PSCENC =       532.56482867
  Ewald energy   TEWEN  =     -7275.95645519
  -Hartree energ DENC   =     -1752.64210035
  -exchange      EXHF   =         0.00000000
  -V(xc)+E(xc)   XCENC  =       425.11365832
  PAW double counting   =     19853.09113790   -19790.56705191
  entropy T*S    EENTRO =        -0.00000000
  eigenvalues    EBANDS =      -918.01964791
  atomic energy  EATOM  =      8585.64943488
  Solvation  Ediel_sol  =         0.00000000
  ---------------------------------------------------
  free energy    TOTEN  =      -340.76619560 eV

  energy without entropy =     -340.76619560  energy(sigma->0) =     -340.76619560


--------------------------------------------------------------------------------------------------------




--------------------------------------- Iteration      1(   8)  ---------------------------------------


    POTLOK:  cpu time    0.0964: real time    0.1082
    SETDIJ:  cpu time    0.8257: real time    0.8258
     EDDAV:  cpu time   18.9488: real time   18.9500
       DOS:  cpu time    0.0035: real time    0.0035
    CHARGE:  cpu time    2.0869: real time    2.0871
    MIXING:  cpu time    0.0008: real time    0.0008
    --------------------------------------------
      LOOP:  cpu time   21.9622: real time   21.9754

 eigenvalue-minimisations  : 27336
 total energy-change (2. order) : 0.5300121E-01  (-0.2106960E-01)
 number of electron     144.0000008 magnetization       0.0000000
 augmentation part        5.8016846 magnetization      -0.0001902

 Broyden mixing:
  rms(total) = 0.23756E+00    rms(broyden)= 0.23756E+00
  rms(prec ) = 0.25131E+00
  weight for this iteration     100.00

 eigenvalues of (default mixing * dielectric matrix)
  average eigenvalue GAMMA=   0.7806
  0.6066  0.8676  0.8676

 Free energy of the ion-electron system (eV)
  ---------------------------------------------------
  alpha Z        PSCENC =       532.56482867
  Ewald energy   TEWEN  =     -7275.95645519
  -Hartree energ DENC   =     -1753.90075187
  -exchange      EXHF   =         0.00000000
  -V(xc)+E(xc)   XCENC  =       424.67323907
  PAW double counting   =     19650.46464883   -19589.96209577
  entropy T*S    EENTRO =        -0.00000000
  eigenvalues    EBANDS =      -914.24604300
  atomic energy  EATOM  =      8585.64943488
  Solvation  Ediel_sol  =         0.00000000
  ---------------------------------------------------
  free energy    TOTEN  =      -340.71319439 eV

  energy without entropy =     -340.71319439  energy(sigma->0) =     -340.71319439


--------------------------------------------------------------------------------------------------------




--------------------------------------- Iteration      1(   9)  ---------------------------------------


    POTLOK:  cpu time    0.0881: real time    0.0881
    SETDIJ:  cpu time    0.8242: real time    0.8243
     EDDAV:  cpu time   19.5895: real time   19.5929
       DOS:  cpu time    0.0063: real time    0.0063
    CHARGE:  cpu time    2.0826: real time    2.0828
    MIXING:  cpu time    0.0021: real time    0.0021
    --------------------------------------------
      LOOP:  cpu time   22.5930: real time   22.5966

 eigenvalue-minimisations  : 28504
 total energy-change (2. order) : 0.3771256E-02  (-0.1539402E-02)
 number of electron     144.0000008 magnetization      -0.0000000
 augmentation part        5.7973917 magnetization      -0.0001386

 Broyden mixing:
  rms(total) = 0.19797E+00    rms(broyden)= 0.19797E+00
  rms(prec ) = 0.20894E+00
  weight for this iteration     100.00

 eigenvalues of (default mixing * dielectric matrix)
  average eigenvalue GAMMA=   0.7608
  0.9452  0.9452  0.5763  0.5763

 Free energy of the ion-electron system (eV)
  ---------------------------------------------------
  alpha Z        PSCENC =       532.56482867
  Ewald energy   TEWEN  =     -7275.95645519
  -Hartree energ DENC   =     -1753.27479703
  -exchange      EXHF   =         0.00000000
  -V(xc)+E(xc)   XCENC  =       424.53887374
  PAW double counting   =     19547.76572060   -19488.08496491
  entropy T*S    EENTRO =        -0.00000000
  eigenvalues    EBANDS =      -913.91206389
  atomic energy  EATOM  =      8585.64943488
  Solvation  Ediel_sol  =         0.00000000
  ---------------------------------------------------
  free energy    TOTEN  =      -340.70942313 eV

  energy without entropy =     -340.70942313  energy(sigma->0) =     -340.70942313


--------------------------------------------------------------------------------------------------------




--------------------------------------- Iteration      1(  10)  ---------------------------------------


    POTLOK:  cpu time    0.0889: real time    0.1048
    SETDIJ:  cpu time    0.8211: real time    0.8238
     EDDAV:  cpu time   19.4328: real time   19.5671
       DOS:  cpu time    0.0059: real time    0.0059
    CHARGE:  cpu time    2.0403: real time    2.0422
    MIXING:  cpu time    0.0018: real time    0.0018
    --------------------------------------------
      LOOP:  cpu time   22.3906: real time   22.5455

 eigenvalue-minimisations  : 28368
 total energy-change (2. order) : 0.1235554E-02  (-0.1343417E-03)
 number of electron     144.0000008 magnetization      -0.0000000
 augmentation part        5.7971694 magnetization      -0.0000320

 Broyden mixing:
  rms(total) = 0.17562E+00    rms(broyden)= 0.17562E+00
  rms(prec ) = 0.18549E+00
  weight for this iteration     100.00

 eigenvalues of (default mixing * dielectric matrix)
  average eigenvalue GAMMA=   0.9272
  1.3164  1.3164  0.7053  0.7053  0.5923

 Free energy of the ion-electron system (eV)
  ---------------------------------------------------
  alpha Z        PSCENC =       532.56482867
  Ewald energy   TEWEN  =     -7275.95645519
  -Hartree energ DENC   =     -1753.19960078
  -exchange      EXHF   =         0.00000000
  -V(xc)+E(xc)   XCENC  =       424.56044069
  PAW double counting   =     19496.49316582   -19437.18897367
  entropy T*S    EENTRO =        -0.00000000
  eigenvalues    EBANDS =      -913.63102799
  atomic energy  EATOM  =      8585.64943488
  Solvation  Ediel_sol  =         0.00000000
  ---------------------------------------------------
  free energy    TOTEN  =      -340.70818758 eV

  energy without entropy =     -340.70818758  energy(sigma->0) =     -340.70818758


--------------------------------------------------------------------------------------------------------




--------------------------------------- Iteration      1(  11)  ---------------------------------------


    POTLOK:  cpu time    0.0878: real time    0.0933
    SETDIJ:  cpu time    0.8256: real time    0.8257
     EDDAV:  cpu time   17.8619: real time   17.9020
       DOS:  cpu time    0.0061: real time    0.0061
    CHARGE:  cpu time    2.0883: real time    2.0885
    MIXING:  cpu time    0.0008: real time    0.0008
    --------------------------------------------
      LOOP:  cpu time   20.8705: real time   20.9163

 eigenvalue-minimisations  : 24912
 total energy-change (2. order) : 0.2262681E-02  (-0.4722623E-03)
 number of electron     144.0000008 magnetization      -0.0000000
 augmentation part        5.7977557 magnetization      -0.0001063

 Broyden mixing:
  rms(total) = 0.12261E+00    rms(broyden)= 0.12261E+00
  rms(prec ) = 0.13001E+00
  weight for this iteration     100.00

 eigenvalues of (default mixing * dielectric matrix)
  average eigenvalue GAMMA=   0.9622
  1.5358  1.5358  0.7694  0.7694  0.5814  0.5814

 Free energy of the ion-electron system (eV)
  ---------------------------------------------------
  alpha Z        PSCENC =       532.56482867
  Ewald energy   TEWEN  =     -7275.95645519
  -Hartree energ DENC   =     -1752.90460943
  -exchange      EXHF   =         0.00000000
  -V(xc)+E(xc)   XCENC  =       424.57372657
  PAW double counting   =     19386.37243570   -19327.95191879
  entropy T*S    EENTRO =        -0.00000000
  eigenvalues    EBANDS =      -913.05336730
  atomic energy  EATOM  =      8585.64943488
  Solvation  Ediel_sol  =         0.00000000
  ---------------------------------------------------
  free energy    TOTEN  =      -340.70592490 eV

  energy without entropy =     -340.70592490  energy(sigma->0) =     -340.70592490


--------------------------------------------------------------------------------------------------------




--------------------------------------- Iteration      1(  12)  ---------------------------------------


    POTLOK:  cpu time    0.0888: real time    0.1021
    SETDIJ:  cpu time    0.8248: real time    0.8248
     EDDAV:  cpu time   18.2039: real time   18.2061
       DOS:  cpu time    0.0036: real time    0.0035
    CHARGE:  cpu time    2.0873: real time    2.0874
    MIXING:  cpu time    0.0009: real time    0.0009
    --------------------------------------------
      LOOP:  cpu time   21.2093: real time   21.2249

 eigenvalue-minimisations  : 26008
 total energy-change (2. order) : 0.9643938E-03  (-0.1686093E-03)
 number of electron     144.0000008 magnetization      -0.0000000
 augmentation part        5.7974991 magnetization      -0.0000718

 Broyden mixing:
  rms(total) = 0.10256E+00    rms(broyden)= 0.10256E+00
  rms(prec ) = 0.10846E+00
  weight for this iteration     100.00

 eigenvalues of (default mixing * dielectric matrix)
  average eigenvalue GAMMA=   0.9832
  1.7189  1.7189  0.8425  0.8425  0.6146  0.6146  0.5302

 Free energy of the ion-electron system (eV)
  ---------------------------------------------------
  alpha Z        PSCENC =       532.56482867
  Ewald energy   TEWEN  =     -7275.95645519
  -Hartree energ DENC   =     -1752.81508052
  -exchange      EXHF   =         0.00000000
  -V(xc)+E(xc)   XCENC  =       424.55464380
  PAW double counting   =     19346.22985201   -19288.16954095
  entropy T*S    EENTRO =        -0.00000000
  eigenvalues    EBANDS =      -912.76264319
  atomic energy  EATOM  =      8585.64943488
  Solvation  Ediel_sol  =         0.00000000
  ---------------------------------------------------
  free energy    TOTEN  =      -340.70496050 eV

  energy without entropy =     -340.70496050  energy(sigma->0) =     -340.70496050


--------------------------------------------------------------------------------------------------------




--------------------------------------- Iteration      1(  13)  ---------------------------------------


    POTLOK:  cpu time    0.0876: real time    0.0876
    SETDIJ:  cpu time    0.8352: real time    0.8353
     EDDAV:  cpu time   18.9435: real time   18.9448
       DOS:  cpu time    0.0034: real time    0.0034
    CHARGE:  cpu time    2.0940: real time    2.0941
    MIXING:  cpu time    0.0020: real time    0.0020
    --------------------------------------------
      LOOP:  cpu time   21.9657: real time   21.9672

 eigenvalue-minimisations  : 27368
 total energy-change (2. order) : 0.1548554E-03  (-0.1798715E-04)
 number of electron     144.0000008 magnetization      -0.0000000
 augmentation part        5.7980732 magnetization      -0.0000222

 Broyden mixing:
  rms(total) = 0.94566E-01    rms(broyden)= 0.94566E-01
  rms(prec ) = 0.99964E-01
  weight for this iteration     100.00

 eigenvalues of (default mixing * dielectric matrix)
  average eigenvalue GAMMA=   1.0063
  1.9667  1.9667  0.9078  0.9078  0.6361  0.6361  0.5146  0.5146

 Free energy of the ion-electron system (eV)
  ---------------------------------------------------
  alpha Z        PSCENC =       532.56482867
  Ewald energy   TEWEN  =     -7275.95645519
  -Hartree energ DENC   =     -1752.72882459
  -exchange      EXHF   =         0.00000000
  -V(xc)+E(xc)   XCENC  =       424.54070637
  PAW double counting   =     19328.08287389   -19270.19154981
  entropy T*S    EENTRO =        -0.00000000
  eigenvalues    EBANDS =      -912.66581986
  atomic energy  EATOM  =      8585.64943488
  Solvation  Ediel_sol  =         0.00000000
  ---------------------------------------------------
  free energy    TOTEN  =      -340.70480565 eV

  energy without entropy =     -340.70480565  energy(sigma->0) =     -340.70480565


--------------------------------------------------------------------------------------------------------




--------------------------------------- Iteration      1(  14)  ---------------------------------------


    POTLOK:  cpu time    0.0899: real time    0.1060
    SETDIJ:  cpu time    0.8291: real time    0.8292
     EDDAV:  cpu time   17.9424: real time   17.9475
       DOS:  cpu time    0.0059: real time    0.0059
    CHARGE:  cpu time    2.0849: real time    2.0867
    MIXING:  cpu time    0.0010: real time    0.0010
    --------------------------------------------
      LOOP:  cpu time   20.9532: real time   20.9764

 eigenvalue-minimisations  : 24944
 total energy-change (2. order) : 0.3469000E-03  (-0.5746846E-04)
 number of electron     144.0000008 magnetization      -0.0000000
 augmentation part        5.7984075 magnetization      -0.0000389

 Broyden mixing:
  rms(total) = 0.76491E-01    rms(broyden)= 0.76491E-01
  rms(prec ) = 0.80951E-01
  weight for this iteration     100.00

 eigenvalues of (default mixing * dielectric matrix)
  average eigenvalue GAMMA=   1.0881
  2.3434  2.3434  1.0282  1.0282  0.7083  0.7083  0.5742  0.5742  0.4851

 Free energy of the ion-electron system (eV)
  ---------------------------------------------------
  alpha Z        PSCENC =       532.56482867
  Ewald energy   TEWEN  =     -7275.95645519
  -Hartree energ DENC   =     -1752.60157362
  -exchange      EXHF   =         0.00000000
  -V(xc)+E(xc)   XCENC  =       424.54269936
  PAW double counting   =     19291.56675015   -19234.00028838
  entropy T*S    EENTRO =        -0.00000000
  eigenvalues    EBANDS =      -912.46985462
  atomic energy  EATOM  =      8585.64943488
  Solvation  Ediel_sol  =         0.00000000
  ---------------------------------------------------
  free energy    TOTEN  =      -340.70445875 eV

  energy without entropy =     -340.70445875  energy(sigma->0) =     -340.70445875


--------------------------------------------------------------------------------------------------------




--------------------------------------- Iteration      1(  15)  ---------------------------------------


    POTLOK:  cpu time    0.0835: real time    0.0835
    SETDIJ:  cpu time    0.8255: real time    0.8256
     EDDAV:  cpu time   17.5263: real time   17.5298
       DOS:  cpu time    0.0060: real time    0.0060
    CHARGE:  cpu time    2.0861: real time    2.0863
    MIXING:  cpu time    0.0011: real time    0.0011
    --------------------------------------------
      LOOP:  cpu time   20.5286: real time   20.5323

 eigenvalue-minimisations  : 24248
 total energy-change (2. order) : 0.4548085E-03  (-0.1403431E-03)
 number of electron     144.0000008 magnetization      -0.0000000
 augmentation part        5.7986724 magnetization      -0.0000507

 Broyden mixing:
  rms(total) = 0.52056E-01    rms(broyden)= 0.52056E-01
  rms(prec ) = 0.55052E-01
  weight for this iteration     100.00

 eigenvalues of (default mixing * dielectric matrix)
  average eigenvalue GAMMA=   1.0724
  2.4880  2.4880  1.0829  1.0829  0.7273  0.7273  0.5769  0.5769  0.4871  0.4871

 Free energy of the ion-electron system (eV)
  ---------------------------------------------------
  alpha Z        PSCENC =       532.56482867
  Ewald energy   TEWEN  =     -7275.95645519
  -Hartree energ DENC   =     -1752.45918775
  -exchange      EXHF   =         0.00000000
  -V(xc)+E(xc)   XCENC  =       424.54125756
  PAW double counting   =     19244.45183580   -19187.31906315
  entropy T*S    EENTRO =        -0.00000000
  eigenvalues    EBANDS =      -912.17665475
  atomic energy  EATOM  =      8585.64943488
  Solvation  Ediel_sol  =         0.00000000
  ---------------------------------------------------
  free energy    TOTEN  =      -340.70400394 eV

  energy without entropy =     -340.70400394  energy(sigma->0) =     -340.70400394


--------------------------------------------------------------------------------------------------------




--------------------------------------- Iteration      1(  16)  ---------------------------------------


    POTLOK:  cpu time    0.0896: real time    0.1056
    SETDIJ:  cpu time    0.8292: real time    0.8298
     EDDAV:  cpu time   17.6532: real time   17.7106
       DOS:  cpu time    0.0060: real time    0.0060
    CHARGE:  cpu time    2.0862: real time    2.0863
    MIXING:  cpu time    0.0022: real time    0.0022
    --------------------------------------------
      LOOP:  cpu time   20.6664: real time   20.7406

 eigenvalue-minimisations  : 24424
 total energy-change (2. order) : 0.5069528E-04  (-0.1028240E-04)
 number of electron     144.0000008 magnetization      -0.0000000
 augmentation part        5.7988344 magnetization      -0.0000395

 Broyden mixing:
  rms(total) = 0.51871E-01    rms(broyden)= 0.51871E-01
  rms(prec ) = 0.54690E-01
  weight for this iteration     100.00

 eigenvalues of (default mixing * dielectric matrix)
  average eigenvalue GAMMA=   1.1374
  2.8407  2.8407  1.2568  1.2568  0.8135  0.8135  0.6087  0.6087  0.5033  0.5033
  0.4657

 Free energy of the ion-electron system (eV)
  ---------------------------------------------------
  alpha Z        PSCENC =       532.56482867
  Ewald energy   TEWEN  =     -7275.95645519
  -Hartree energ DENC   =     -1752.45401472
  -exchange      EXHF   =         0.00000000
  -V(xc)+E(xc)   XCENC  =       424.52330862
  PAW double counting   =     19243.44055935   -19186.32539835
  entropy T*S    EENTRO =        -0.00000000
  eigenvalues    EBANDS =      -912.14621650
  atomic energy  EATOM  =      8585.64943488
  Solvation  Ediel_sol  =         0.00000000
  ---------------------------------------------------
  free energy    TOTEN  =      -340.70395324 eV

  energy without entropy =     -340.70395324  energy(sigma->0) =     -340.70395324


--------------------------------------------------------------------------------------------------------




--------------------------------------- Iteration      1(  17)  ---------------------------------------


    POTLOK:  cpu time    0.0924: real time    0.0956
    SETDIJ:  cpu time    0.8266: real time    0.8267
     EDDAV:  cpu time   17.7012: real time   17.7043
       DOS:  cpu time    0.0060: real time    0.0060
    CHARGE:  cpu time    2.1065: real time    2.1066
    MIXING:  cpu time    0.0015: real time    0.0015
    --------------------------------------------
      LOOP:  cpu time   20.7341: real time   20.7406

 eigenvalue-minimisations  : 24448
 total energy-change (2. order) : 0.1424317E-03  (-0.4313383E-04)
 number of electron     144.0000008 magnetization      -0.0000000
 augmentation part        5.7995072 magnetization      -0.0000287

 Broyden mixing:
  rms(total) = 0.36630E-01    rms(broyden)= 0.36630E-01
  rms(prec ) = 0.38708E-01
  weight for this iteration     100.00

 eigenvalues of (default mixing * dielectric matrix)
  average eigenvalue GAMMA=   1.1996
  3.2767  3.2767  1.4017  1.4017  0.8585  0.8585  0.6311  0.6311  0.5612  0.5612
  0.4836  0.4536

 Free energy of the ion-electron system (eV)
  ---------------------------------------------------
  alpha Z        PSCENC =       532.56482867
  Ewald energy   TEWEN  =     -7275.95645519
  -Hartree energ DENC   =     -1752.36281653
  -exchange      EXHF   =         0.00000000
  -V(xc)+E(xc)   XCENC  =       424.52722802
  PAW double counting   =     19213.41654675   -19156.55931782
  entropy T*S    EENTRO =        -0.00000000
  eigenvalues    EBANDS =      -911.98325958
  atomic energy  EATOM  =      8585.64943488
  Solvation  Ediel_sol  =         0.00000000
  ---------------------------------------------------
  free energy    TOTEN  =      -340.70381081 eV

  energy without entropy =     -340.70381081  energy(sigma->0) =     -340.70381081


--------------------------------------------------------------------------------------------------------




--------------------------------------- Iteration      1(  18)  ---------------------------------------


    POTLOK:  cpu time    0.0888: real time    0.1019
    SETDIJ:  cpu time    0.8235: real time    0.8263
     EDDAV:  cpu time   17.8656: real time   17.9260
       DOS:  cpu time    0.0059: real time    0.0058
    CHARGE:  cpu time    2.0824: real time    2.0825
    MIXING:  cpu time    0.0022: real time    0.0022
    --------------------------------------------
      LOOP:  cpu time   20.8683: real time   20.9448

 eigenvalue-minimisations  : 25200
 total energy-change (2. order) : 0.1301561E-03  (-0.8703735E-04)
 number of electron     144.0000008 magnetization      -0.0000000
 augmentation part        5.8004498 magnetization      -0.0000198

 Broyden mixing:
  rms(total) = 0.17317E-01    rms(broyden)= 0.17317E-01
  rms(prec ) = 0.18296E-01
  weight for this iteration     100.00

 eigenvalues of (default mixing * dielectric matrix)
  average eigenvalue GAMMA=   1.3453
  4.1430  4.1430  1.5875  1.5875  0.9321  0.9321  0.7205  0.7205  0.5879  0.5879
  0.5372  0.5372  0.4728

 Free energy of the ion-electron system (eV)
  ---------------------------------------------------
  alpha Z        PSCENC =       532.56482867
  Ewald energy   TEWEN  =     -7275.95645519
  -Hartree energ DENC   =     -1752.24708951
  -exchange      EXHF   =         0.00000000
  -V(xc)+E(xc)   XCENC  =       424.52199284
  PAW double counting   =     19174.94918036   -19118.43071378
  entropy T*S    EENTRO =        -0.00000000
  eigenvalues    EBANDS =      -911.75485892
  atomic energy  EATOM  =      8585.64943488
  Solvation  Ediel_sol  =         0.00000000
  ---------------------------------------------------
  free energy    TOTEN  =      -340.70368066 eV

  energy without entropy =     -340.70368066  energy(sigma->0) =     -340.70368066


--------------------------------------------------------------------------------------------------------




--------------------------------------- Iteration      1(  19)  ---------------------------------------


    POTLOK:  cpu time    0.0879: real time    0.0879
    SETDIJ:  cpu time    0.8344: real time    0.8345
     EDDAV:  cpu time   18.4206: real time   18.4219
       DOS:  cpu time    0.0047: real time    0.0047
    CHARGE:  cpu time    2.0808: real time    2.0810
    MIXING:  cpu time    0.0017: real time    0.0017
    --------------------------------------------
      LOOP:  cpu time   21.4301: real time   21.4316

 eigenvalue-minimisations  : 26600
 total energy-change (2. order) : 0.1441927E-04  (-0.1151399E-04)
 number of electron     144.0000008 magnetization      -0.0000000
 augmentation part        5.8007771 magnetization      -0.0000166

 Broyden mixing:
  rms(total) = 0.12247E-01    rms(broyden)= 0.12247E-01
  rms(prec ) = 0.12919E-01
  weight for this iteration     100.00

 eigenvalues of (default mixing * dielectric matrix)
  average eigenvalue GAMMA=   1.3368
  4.1548  4.1548  1.7104  1.7104  1.0143  1.0143  0.7885  0.7885  0.6255  0.6255
  0.5651  0.5651  0.5256  0.4730

 Free energy of the ion-electron system (eV)
  ---------------------------------------------------
  alpha Z        PSCENC =       532.56482867
  Ewald energy   TEWEN  =     -7275.95645519
  -Hartree energ DENC   =     -1752.20892138
  -exchange      EXHF   =         0.00000000
  -V(xc)+E(xc)   XCENC  =       424.50731117
  PAW double counting   =     19164.80671473   -19108.37836561
  entropy T*S    EENTRO =        -0.00000000
  eigenvalues    EBANDS =      -911.68821351
  atomic energy  EATOM  =      8585.64943488
  Solvation  Ediel_sol  =         0.00000000
  ---------------------------------------------------
  free energy    TOTEN  =      -340.70366624 eV

  energy without entropy =     -340.70366624  energy(sigma->0) =     -340.70366624


--------------------------------------------------------------------------------------------------------




--------------------------------------- Iteration      1(  20)  ---------------------------------------


    POTLOK:  cpu time    0.0914: real time    0.1083
    SETDIJ:  cpu time    0.8251: real time    0.8251
     EDDAV:  cpu time   17.3785: real time   17.3824
       DOS:  cpu time    0.0032: real time    0.0031
    CHARGE:  cpu time    2.0660: real time    2.0662
    MIXING:  cpu time    0.0013: real time    0.0013
    --------------------------------------------
      LOOP:  cpu time   20.3653: real time   20.3864

 eigenvalue-minimisations  : 23936
 total energy-change (2. order) : 0.3084512E-04  (-0.1383295E-04)
 number of electron     144.0000008 magnetization      -0.0000000
 augmentation part        5.8012674 magnetization       0.0000171

 Broyden mixing:
  rms(total) = 0.41378E-02    rms(broyden)= 0.41375E-02
  rms(prec ) = 0.43510E-02
  weight for this iteration     100.00

 eigenvalues of (default mixing * dielectric matrix)
  average eigenvalue GAMMA=   1.3607
  4.3764  4.3764  1.8930  1.8930  1.1347  1.1347  0.8393  0.8393  0.6729  0.6729
  0.5688  0.5688  0.5138  0.4631  0.4631

 Free energy of the ion-electron system (eV)
  ---------------------------------------------------
  alpha Z        PSCENC =       532.56482867
  Ewald energy   TEWEN  =     -7275.95645519
  -Hartree energ DENC   =     -1752.15724034
  -exchange      EXHF   =         0.00000000
  -V(xc)+E(xc)   XCENC  =       424.50568497
  PAW double counting   =     19147.75528840   -19091.47596606
  entropy T*S    EENTRO =        -0.00000000
  eigenvalues    EBANDS =      -911.58921072
  atomic energy  EATOM  =      8585.64943488
  Solvation  Ediel_sol  =         0.00000000
  ---------------------------------------------------
  free energy    TOTEN  =      -340.70363539 eV

  energy without entropy =     -340.70363539  energy(sigma->0) =     -340.70363539


--------------------------------------------------------------------------------------------------------




--------------------------------------- Iteration      1(  21)  ---------------------------------------


    POTLOK:  cpu time    0.0885: real time    0.0885
    SETDIJ:  cpu time    0.8276: real time    0.8276
     EDDAV:  cpu time   13.5254: real time   13.5268
       DOS:  cpu time    0.0057: real time    0.0057
    --------------------------------------------
      LOOP:  cpu time   14.4472: real time   14.4486

 eigenvalue-minimisations  : 15464
 total energy-change (2. order) : 0.1555352E-05  (-0.1564313E-05)
 number of electron     144.0000008 magnetization      -0.0000000
 augmentation part        5.8012674 magnetization       0.0000171

 Free energy of the ion-electron system (eV)
  ---------------------------------------------------
  alpha Z        PSCENC =       532.56482867
  Ewald energy   TEWEN  =     -7275.95645519
  -Hartree energ DENC   =     -1752.14738170
  -exchange      EXHF   =         0.00000000
  -V(xc)+E(xc)   XCENC  =       424.49966965
  PAW double counting   =     19144.81616746   -19088.56357711
  entropy T*S    EENTRO =        -0.00000000
  eigenvalues    EBANDS =      -911.56632049
  atomic energy  EATOM  =      8585.64943488
  Solvation  Ediel_sol  =         0.00000000
  ---------------------------------------------------
  free energy    TOTEN  =      -340.70363384 eV

  energy without entropy =     -340.70363384  energy(sigma->0) =     -340.70363384


--------------------------------------------------------------------------------------------------------




 average (electrostatic) potential at core
  the test charge radii are     1.0406  0.9748  0.7089  1.1929
  (the norm of the test charge is              1.0000)
       1 -76.9997       2 -76.9997       3 -76.9997       4 -76.9997       5 -76.6233
       6 -76.6233       7 -25.6997       8 -25.6997       9 -25.6997      10 -25.6997
      11 -25.9006      12 -25.9006      13 -64.8861      14 -64.8861      15 -64.8862
      16 -64.8862      17 -65.0612      18 -65.0612      19 -65.0612      20 -65.0612
      21 -65.0824      22 -65.0824      23 -65.0468      24 -65.0467      25 -40.4854
      26 -40.4854      27 -40.3084      28 -40.3084      29 -40.1903      30 -40.1903
 
 
 
 E-fermi :   4.2090     XC(G=0): -10.8107     alpha+bet :-14.3988


 spin component 1

 k-point     1 :       0.0000    0.0000    0.0000
  band No.  band energies     occupation 
      1     -31.3525      1.00000
      2     -31.3448      1.00000
      3     -31.2398      1.00000
      4     -31.1367      1.00000
      5     -31.1091      1.00000
      6     -31.0050      1.00000
      7     -13.2378      1.00000
      8     -13.1870      1.00000
      9     -13.1748      1.00000
     10     -13.0193      1.00000
     11     -13.0093      1.00000
     12     -13.0018      1.00000
     13     -12.9379      1.00000
     14     -12.8770      1.00000
     15     -12.8466      1.00000
     16     -12.8304      1.00000
     17     -12.6854      1.00000
     18     -12.5657      1.00000
     19     -12.4896      1.00000
     20     -12.4854      1.00000
     21     -12.3725      1.00000
     22     -12.3680      1.00000
     23     -12.3654      1.00000
     24     -12.3107      1.00000
     25     -10.5088      1.00000
     26      -9.8401      1.00000
     27      -9.8018      1.00000
     28      -9.2409      1.00000
     29      -9.1199      1.00000
     30      -9.0315      1.00000
     31      -8.9696      1.00000
     32      -8.9554      1.00000
     33      -8.8164      1.00000
     34      -8.8063      1.00000
     35      -8.6515      1.00000
     36      -8.6351      1.00000
     37      -1.2454      1.00000
     38      -1.0141      1.00000
     39      -0.6223      1.00000
     40      -0.4537      1.00000
     41       0.0177      1.00000
     42       0.6409      1.00000
     43       0.8427      1.00000
     44       0.9030      1.00000
     45       0.9743      1.00000
     46       1.3194      1.00000
     47       1.3671      1.00000
     48       1.3691      1.00000
     49       1.4088      1.00000
     50       1.7217      1.00000
     51       1.8055      1.00000
     52       1.9152      1.00000
     53       2.2388      1.00000
     54       2.3430      1.00000
     55       2.3680      1.00000
     56       2.3815      1.00000
     57       2.6277      1.00000
     58       2.7038      1.00000
     59       2.7103      1.00000
     60       2.8237      1.00000
     61       2.8973      1.00000
     62       2.9745      1.00000
     63       3.1122      1.00000
     64       3.2388      1.00000
     65       3.3028      1.00000
     66       3.3481      1.00000
     67       3.4319      1.00000
     68       3.4589      1.00000
     69       3.5914      1.00000
     70       3.7542      1.00000
     71       3.7822      1.00000
     72       3.8018      1.00000
     73       7.3638      0.00000
     74       7.7613      0.00000
     75       7.8419      0.00000
     76       8.0902      0.00000
     77       8.7946      0.00000
     78       8.9516      0.00000
     79       8.9749      0.00000
     80       9.0634      0.00000
     81       9.2926      0.00000
     82       9.3473      0.00000
     83       9.4484      0.00000
     84       9.6119      0.00000
     85       9.7320      0.00000
     86       9.7388      0.00000
     87       9.7447      0.00000
     88      10.1130      0.00000
     89      10.1536      0.00000
     90      10.6209      0.00000
     91      10.6264      0.00000
     92      10.7147      0.00000

 k-point     2 :       0.1667    0.0000    0.0000
  band No.  band energies     occupation 
      1     -31.3518      1.00000
      2     -31.3447      1.00000
      3     -31.2316      1.00000
      4     -31.1301      1.00000
      5     -31.1180      1.00000
      6     -31.0120      1.00000
      7     -13.2231      1.00000
      8     -13.1978      1.00000
      9     -13.1533      1.00000
     10     -13.0697      1.00000
     11     -13.0335      1.00000
     12     -12.9516      1.00000
     13     -12.9408      1.00000
     14     -12.8890      1.00000
     15     -12.8590      1.00000
     16     -12.7891      1.00000
     17     -12.7109      1.00000
     18     -12.5503      1.00000
     19     -12.5380      1.00000
     20     -12.4551      1.00000
     21     -12.4014      1.00000
     22     -12.3821      1.00000
     23     -12.3518      1.00000
     24     -12.3328      1.00000
     25     -10.3775      1.00000
     26      -9.8302      1.00000
     27      -9.7242      1.00000
     28      -9.2878      1.00000
     29      -9.1914      1.00000
     30      -9.1271      1.00000
     31      -8.9348      1.00000
     32      -8.8962      1.00000
     33      -8.8421      1.00000
     34      -8.7845      1.00000
     35      -8.6933      1.00000
     36      -8.6253      1.00000
     37      -1.1251      1.00000
     38      -0.9533      1.00000
     39      -0.6240      1.00000
     40      -0.3994      1.00000
     41       0.1145      1.00000
     42       0.5559      1.00000
     43       0.7981      1.00000
     44       0.9534      1.00000
     45       1.0199      1.00000
     46       1.2067      1.00000
     47       1.3353      1.00000
     48       1.3983      1.00000
     49       1.4959      1.00000
     50       1.6231      1.00000
     51       1.7753      1.00000
     52       2.0089      1.00000
     53       2.2310      1.00000
     54       2.3271      1.00000
     55       2.4154      1.00000
     56       2.4951      1.00000
     57       2.5645      1.00000
     58       2.6449      1.00000
     59       2.7634      1.00000
     60       2.8112      1.00000
     61       2.8579      1.00000
     62       3.0677      1.00000
     63       3.1182      1.00000
     64       3.1594      1.00000
     65       3.2718      1.00000
     66       3.3344      1.00000
     67       3.3794      1.00000
     68       3.4179      1.00000
     69       3.4575      1.00000
     70       3.6296      1.00000
     71       3.7315      1.00000
     72       3.7974      1.00000
     73       7.5650      0.00000
     74       7.7332      0.00000
     75       7.8325      0.00000
     76       8.1163      0.00000
     77       8.6887      0.00000
     78       8.7324      0.00000
     79       8.8967      0.00000
     80       9.0286      0.00000
     81       9.0714      0.00000
     82       9.1966      0.00000
     83       9.4373      0.00000
     84       9.5614      0.00000
     85       9.6168      0.00000
     86       9.7162      0.00000
     87       9.8550      0.00000
     88      10.0476      0.00000
     89      10.1313      0.00000
     90      10.4902      0.00000
     91      10.5347      0.00000
     92      10.7138      0.00000

 k-point     3 :       0.0000   -0.1667   -0.0000
  band No.  band energies     occupation 
      1     -31.3518      1.00000
      2     -31.3447      1.00000
      3     -31.2316      1.00000
      4     -31.1301      1.00000
      5     -31.1180      1.00000
      6     -31.0120      1.00000
      7     -13.2231      1.00000
      8     -13.1978      1.00000
      9     -13.1533      1.00000
     10     -13.0697      1.00000
     11     -13.0335      1.00000
     12     -12.9516      1.00000
     13     -12.9408      1.00000
     14     -12.8890      1.00000
     15     -12.8590      1.00000
     16     -12.7891      1.00000
     17     -12.7109      1.00000
     18     -12.5503      1.00000
     19     -12.5380      1.00000
     20     -12.4551      1.00000
     21     -12.4014      1.00000
     22     -12.3821      1.00000
     23     -12.3518      1.00000
     24     -12.3328      1.00000
     25     -10.3775      1.00000
     26      -9.8302      1.00000
     27      -9.7242      1.00000
     28      -9.2878      1.00000
     29      -9.1914      1.00000
     30      -9.1271      1.00000
     31      -8.9348      1.00000
     32      -8.8962      1.00000
     33      -8.8421      1.00000
     34      -8.7845      1.00000
     35      -8.6933      1.00000
     36      -8.6253      1.00000
     37      -1.1251      1.00000
     38      -0.9533      1.00000
     39      -0.6240      1.00000
     40      -0.3994      1.00000
     41       0.1145      1.00000
     42       0.5559      1.00000
     43       0.7981      1.00000
     44       0.9534      1.00000
     45       1.0199      1.00000
     46       1.2067      1.00000
     47       1.3353      1.00000
     48       1.3983      1.00000
     49       1.4959      1.00000
     50       1.6231      1.00000
     51       1.7753      1.00000
     52       2.0089      1.00000
     53       2.2310      1.00000
     54       2.3271      1.00000
     55       2.4154      1.00000
     56       2.4951      1.00000
     57       2.5645      1.00000
     58       2.6449      1.00000
     59       2.7634      1.00000
     60       2.8112      1.00000
     61       2.8579      1.00000
     62       3.0677      1.00000
     63       3.1182      1.00000
     64       3.1594      1.00000
     65       3.2718      1.00000
     66       3.3344      1.00000
     67       3.3794      1.00000
     68       3.4179      1.00000
     69       3.4575      1.00000
     70       3.6296      1.00000
     71       3.7315      1.00000
     72       3.7974      1.00000
     73       7.5650      0.00000
     74       7.7332      0.00000
     75       7.8325      0.00000
     76       8.1163      0.00000
     77       8.6887      0.00000
     78       8.7324      0.00000
     79       8.8967      0.00000
     80       9.0286      0.00000
     81       9.0714      0.00000
     82       9.1966      0.00000
     83       9.4373      0.00000
     84       9.5614      0.00000
     85       9.6168      0.00000
     86       9.7162      0.00000
     87       9.8550      0.00000
     88      10.0476      0.00000
     89      10.1313      0.00000
     90      10.4902      0.00000
     91      10.5347      0.00000
     92      10.7136      0.00000

 k-point     4 :       0.3333    0.0000   -0.0000
  band No.  band energies     occupation 
      1     -31.3506      1.00000
      2     -31.3447      1.00000
      3     -31.2092      1.00000
      4     -31.1420      1.00000
      5     -31.1134      1.00000
      6     -31.0291      1.00000
      7     -13.2252      1.00000
      8     -13.2037      1.00000
      9     -13.1191      1.00000
     10     -13.1015      1.00000
     11     -13.0678      1.00000
     12     -12.9662      1.00000
     13     -12.9275      1.00000
     14     -12.8841      1.00000
     15     -12.8258      1.00000
     16     -12.7738      1.00000
     17     -12.7154      1.00000
     18     -12.6012      1.00000
     19     -12.5277      1.00000
     20     -12.4649      1.00000
     21     -12.4306      1.00000
     22     -12.4222      1.00000
     23     -12.3702      1.00000
     24     -12.3091      1.00000
     25     -10.0931      1.00000
     26      -9.8013      1.00000
     27      -9.6016      1.00000
     28      -9.3872      1.00000
     29      -9.3065      1.00000
     30      -9.2180      1.00000
     31      -8.9558      1.00000
     32      -8.9082      1.00000
     33      -8.8145      1.00000
     34      -8.7571      1.00000
     35      -8.7465      1.00000
     36      -8.6191      1.00000
     37      -0.8685      1.00000
     38      -0.7602      1.00000
     39      -0.6043      1.00000
     40      -0.3345      1.00000
     41       0.3301      1.00000
     42       0.4073      1.00000
     43       0.7672      1.00000
     44       0.8760      1.00000
     45       1.0986      1.00000
     46       1.1908      1.00000
     47       1.2686      1.00000
     48       1.3636      1.00000
     49       1.5784      1.00000
     50       1.5923      1.00000
     51       1.9007      1.00000
     52       1.9143      1.00000
     53       2.1227      1.00000
     54       2.2565      1.00000
     55       2.3513      1.00000
     56       2.4527      1.00000
     57       2.5243      1.00000
     58       2.5923      1.00000
     59       2.7655      1.00000
     60       2.8574      1.00000
     61       2.9594      1.00000
     62       3.0381      1.00000
     63       3.0484      1.00000
     64       3.1558      1.00000
     65       3.2104      1.00000
     66       3.2718      1.00000
     67       3.3248      1.00000
     68       3.4493      1.00000
     69       3.4627      1.00000
     70       3.5532      1.00000
     71       3.6375      1.00000
     72       3.7101      1.00000
     73       7.1643      0.00000
     74       7.8015      0.00000
     75       8.1077      0.00000
     76       8.2567      0.00000
     77       8.3765      0.00000
     78       8.5171      0.00000
     79       8.5364      0.00000
     80       8.7757      0.00000
     81       8.8945      0.00000
     82       9.1726      0.00000
     83       9.3341      0.00000
     84       9.3546      0.00000
     85       9.5631      0.00000
     86       9.7883      0.00000
     87      10.0219      0.00000
     88      10.0432      0.00000
     89      10.2075      0.00000
     90      10.3016      0.00000
     91      10.3892      0.00000
     92      10.5794      0.00000

 k-point     5 :       0.0000   -0.3333   -0.0000
  band No.  band energies     occupation 
      1     -31.3506      1.00000
      2     -31.3447      1.00000
      3     -31.2092      1.00000
      4     -31.1420      1.00000
      5     -31.1134      1.00000
      6     -31.0291      1.00000
      7     -13.2252      1.00000
      8     -13.2037      1.00000
      9     -13.1191      1.00000
     10     -13.1015      1.00000
     11     -13.0678      1.00000
     12     -12.9662      1.00000
     13     -12.9275      1.00000
     14     -12.8841      1.00000
     15     -12.8258      1.00000
     16     -12.7738      1.00000
     17     -12.7154      1.00000
     18     -12.6012      1.00000
     19     -12.5277      1.00000
     20     -12.4649      1.00000
     21     -12.4306      1.00000
     22     -12.4222      1.00000
     23     -12.3702      1.00000
     24     -12.3091      1.00000
     25     -10.0931      1.00000
     26      -9.8013      1.00000
     27      -9.6016      1.00000
     28      -9.3872      1.00000
     29      -9.3065      1.00000
     30      -9.2180      1.00000
     31      -8.9558      1.00000
     32      -8.9082      1.00000
     33      -8.8145      1.00000
     34      -8.7571      1.00000
     35      -8.7465      1.00000
     36      -8.6191      1.00000
     37      -0.8685      1.00000
     38      -0.7602      1.00000
     39      -0.6043      1.00000
     40      -0.3345      1.00000
     41       0.3301      1.00000
     42       0.4073      1.00000
     43       0.7672      1.00000
     44       0.8760      1.00000
     45       1.0986      1.00000
     46       1.1908      1.00000
     47       1.2686      1.00000
     48       1.3636      1.00000
     49       1.5784      1.00000
     50       1.5923      1.00000
     51       1.9007      1.00000
     52       1.9143      1.00000
     53       2.1227      1.00000
     54       2.2565      1.00000
     55       2.3513      1.00000
     56       2.4527      1.00000
     57       2.5243      1.00000
     58       2.5923      1.00000
     59       2.7655      1.00000
     60       2.8574      1.00000
     61       2.9594      1.00000
     62       3.0381      1.00000
     63       3.0484      1.00000
     64       3.1558      1.00000
     65       3.2104      1.00000
     66       3.2718      1.00000
     67       3.3248      1.00000
     68       3.4493      1.00000
     69       3.4627      1.00000
     70       3.5532      1.00000
     71       3.6375      1.00000
     72       3.7101      1.00000
     73       7.1643      0.00000
     74       7.8015      0.00000
     75       8.1077      0.00000
     76       8.2567      0.00000
     77       8.3765      0.00000
     78       8.5171      0.00000
     79       8.5364      0.00000
     80       8.7757      0.00000
     81       8.8945      0.00000
     82       9.1726      0.00000
     83       9.3341      0.00000
     84       9.3546      0.00000
     85       9.5631      0.00000
     86       9.7883      0.00000
     87      10.0219      0.00000
     88      10.0432      0.00000
     89      10.2075      0.00000
     90      10.3016      0.00000
     91      10.3892      0.00000
     92      10.5792      0.00000

 k-point     6 :       0.5000   -0.0000    0.0000
  band No.  band energies     occupation 
      1     -31.3500      1.00000
      2     -31.3446      1.00000
      3     -31.1843      1.00000
      4     -31.1676      1.00000
      5     -31.1018      1.00000
      6     -31.0410      1.00000
      7     -13.2347      1.00000
      8     -13.2125      1.00000
      9     -13.1193      1.00000
     10     -13.0872      1.00000
     11     -13.0816      1.00000
     12     -12.9837      1.00000
     13     -12.9158      1.00000
     14     -12.8858      1.00000
     15     -12.8001      1.00000
     16     -12.7798      1.00000
     17     -12.6752      1.00000
     18     -12.6417      1.00000
     19     -12.5249      1.00000
     20     -12.5030      1.00000
     21     -12.4338      1.00000
     22     -12.4220      1.00000
     23     -12.3864      1.00000
     24     -12.2924      1.00000
     25      -9.8979      1.00000
     26      -9.8179      1.00000
     27      -9.5369      1.00000
     28      -9.4417      1.00000
     29      -9.3862      1.00000
     30      -9.2512      1.00000
     31      -8.9767      1.00000
     32      -8.9286      1.00000
     33      -8.8305      1.00000
     34      -8.7775      1.00000
     35      -8.6821      1.00000
     36      -8.6369      1.00000
     37      -0.6890      1.00000
     38      -0.6884      1.00000
     39      -0.5167      1.00000
     40      -0.3703      1.00000
     41       0.3669      1.00000
     42       0.4813      1.00000
     43       0.7605      1.00000
     44       0.7724      1.00000
     45       1.0672      1.00000
     46       1.2472      1.00000
     47       1.2484      1.00000
     48       1.3210      1.00000
     49       1.4740      1.00000
     50       1.7260      1.00000
     51       1.7777      1.00000
     52       1.9061      1.00000
     53       2.1245      1.00000
     54       2.1965      1.00000
     55       2.2737      1.00000
     56       2.4604      1.00000
     57       2.5701      1.00000
     58       2.6734      1.00000
     59       2.7222      1.00000
     60       2.7747      1.00000
     61       2.8246      1.00000
     62       3.0038      1.00000
     63       3.1228      1.00000
     64       3.1996      1.00000
     65       3.2184      1.00000
     66       3.2687      1.00000
     67       3.3795      1.00000
     68       3.4112      1.00000
     69       3.4767      1.00000
     70       3.5129      1.00000
     71       3.5732      1.00000
     72       3.7625      1.00000
     73       6.9523      0.00000
     74       7.8368      0.00000
     75       8.0697      0.00000
     76       8.1264      0.00000
     77       8.3016      0.00000
     78       8.4082      0.00000
     79       8.4675      0.00000
     80       8.7708      0.00000
     81       8.7726      0.00000
     82       9.1992      0.00000
     83       9.3124      0.00000
     84       9.4163      0.00000
     85       9.4849      0.00000
     86       9.7231      0.00000
     87       9.7939      0.00000
     88      10.1438      0.00000
     89      10.2374      0.00000
     90      10.2429      0.00000
     91      10.4249      0.00000
     92      10.7847      0.00000

 k-point     7 :      -0.0000    0.5000   -0.0000
  band No.  band energies     occupation 
      1     -31.3500      1.00000
      2     -31.3446      1.00000
      3     -31.1843      1.00000
      4     -31.1676      1.00000
      5     -31.1018      1.00000
      6     -31.0410      1.00000
      7     -13.2347      1.00000
      8     -13.2125      1.00000
      9     -13.1193      1.00000
     10     -13.0872      1.00000
     11     -13.0816      1.00000
     12     -12.9837      1.00000
     13     -12.9158      1.00000
     14     -12.8858      1.00000
     15     -12.8001      1.00000
     16     -12.7798      1.00000
     17     -12.6752      1.00000
     18     -12.6417      1.00000
     19     -12.5249      1.00000
     20     -12.5030      1.00000
     21     -12.4338      1.00000
     22     -12.4220      1.00000
     23     -12.3864      1.00000
     24     -12.2924      1.00000
     25      -9.8979      1.00000
     26      -9.8179      1.00000
     27      -9.5369      1.00000
     28      -9.4417      1.00000
     29      -9.3862      1.00000
     30      -9.2512      1.00000
     31      -8.9767      1.00000
     32      -8.9286      1.00000
     33      -8.8305      1.00000
     34      -8.7775      1.00000
     35      -8.6821      1.00000
     36      -8.6369      1.00000
     37      -0.6890      1.00000
     38      -0.6884      1.00000
     39      -0.5167      1.00000
     40      -0.3703      1.00000
     41       0.3669      1.00000
     42       0.4813      1.00000
     43       0.7605      1.00000
     44       0.7724      1.00000
     45       1.0672      1.00000
     46       1.2472      1.00000
     47       1.2484      1.00000
     48       1.3210      1.00000
     49       1.4740      1.00000
     50       1.7260      1.00000
     51       1.7777      1.00000
     52       1.9061      1.00000
     53       2.1245      1.00000
     54       2.1965      1.00000
     55       2.2737      1.00000
     56       2.4604      1.00000
     57       2.5701      1.00000
     58       2.6734      1.00000
     59       2.7222      1.00000
     60       2.7747      1.00000
     61       2.8246      1.00000
     62       3.0038      1.00000
     63       3.1228      1.00000
     64       3.1996      1.00000
     65       3.2184      1.00000
     66       3.2687      1.00000
     67       3.3795      1.00000
     68       3.4112      1.00000
     69       3.4767      1.00000
     70       3.5129      1.00000
     71       3.5732      1.00000
     72       3.7625      1.00000
     73       6.9523      0.00000
     74       7.8368      0.00000
     75       8.0697      0.00000
     76       8.1264      0.00000
     77       8.3016      0.00000
     78       8.4082      0.00000
     79       8.4675      0.00000
     80       8.7708      0.00000
     81       8.7726      0.00000
     82       9.1992      0.00000
     83       9.3124      0.00000
     84       9.4163      0.00000
     85       9.4849      0.00000
     86       9.7231      0.00000
     87       9.7939      0.00000
     88      10.1438      0.00000
     89      10.2374      0.00000
     90      10.2429      0.00000
     91      10.4249      0.00000
     92      10.7824      0.00000

 k-point     8 :       0.1667    0.1667   -0.0000
  band No.  band energies     occupation 
      1     -31.3510      1.00000
      2     -31.3447      1.00000
      3     -31.2123      1.00000
      4     -31.1384      1.00000
      5     -31.1193      1.00000
      6     -31.0231      1.00000
      7     -13.2195      1.00000
      8     -13.2026      1.00000
      9     -13.1348      1.00000
     10     -13.0639      1.00000
     11     -13.0193      1.00000
     12     -12.9502      1.00000
     13     -12.9446      1.00000
     14     -12.9010      1.00000
     15     -12.8240      1.00000
     16     -12.8045      1.00000
     17     -12.7371      1.00000
     18     -12.5541      1.00000
     19     -12.4892      1.00000
     20     -12.4686      1.00000
     21     -12.4480      1.00000
     22     -12.4336      1.00000
     23     -12.4096      1.00000
     24     -12.3066      1.00000
     25     -10.1544      1.00000
     26      -9.8437      1.00000
     27      -9.6003      1.00000
     28      -9.3632      1.00000
     29      -9.2796      1.00000
     30      -9.2336      1.00000
     31      -8.9094      1.00000
     32      -8.8650      1.00000
     33      -8.8381      1.00000
     34      -8.7947      1.00000
     35      -8.7547      1.00000
     36      -8.6121      1.00000
     37      -0.8703      1.00000
     38      -0.7798      1.00000
     39      -0.6863      1.00000
     40      -0.3880      1.00000
     41       0.2333      1.00000
     42       0.3889      1.00000
     43       0.8921      1.00000
     44       0.9203      1.00000
     45       1.1807      1.00000
     46       1.3134      1.00000
     47       1.3445      1.00000
     48       1.3546      1.00000
     49       1.4474      1.00000
     50       1.5098      1.00000
     51       1.8499      1.00000
     52       2.0062      1.00000
     53       2.1625      1.00000
     54       2.2352      1.00000
     55       2.2693      1.00000
     56       2.3721      1.00000
     57       2.5979      1.00000
     58       2.5979      1.00000
     59       2.6673      1.00000
     60       2.8819      1.00000
     61       2.9167      1.00000
     62       3.0503      1.00000
     63       3.1564      1.00000
     64       3.1900      1.00000
     65       3.2867      1.00000
     66       3.3093      1.00000
     67       3.3401      1.00000
     68       3.3441      1.00000
     69       3.4944      1.00000
     70       3.5218      1.00000
     71       3.6600      1.00000
     72       3.7882      1.00000
     73       7.3168      0.00000
     74       7.6975      0.00000
     75       8.0895      0.00000
     76       8.1196      0.00000
     77       8.3636      0.00000
     78       8.6124      0.00000
     79       8.7967      0.00000
     80       8.8106      0.00000
     81       8.9271      0.00000
     82       9.2559      0.00000
     83       9.3098      0.00000
     84       9.5182      0.00000
     85       9.5292      0.00000
     86       9.7631      0.00000
     87       9.8525      0.00000
     88      10.0789      0.00000
     89      10.1195      0.00000
     90      10.4222      0.00000
     91      10.4774      0.00000
     92      10.7258      0.00000

 k-point     9 :       0.3333    0.1667    0.0000
  band No.  band energies     occupation 
      1     -31.3500      1.00000
      2     -31.3446      1.00000
      3     -31.1843      1.00000
      4     -31.1675      1.00000
      5     -31.1018      1.00000
      6     -31.0410      1.00000
      7     -13.2790      1.00000
      8     -13.2282      1.00000
      9     -13.1232      1.00000
     10     -13.0800      1.00000
     11     -12.9816      1.00000
     12     -12.9624      1.00000
     13     -12.9205      1.00000
     14     -12.8910      1.00000
     15     -12.8443      1.00000
     16     -12.7641      1.00000
     17     -12.6769      1.00000
     18     -12.6251      1.00000
     19     -12.5559      1.00000
     20     -12.5151      1.00000
     21     -12.4793      1.00000
     22     -12.4104      1.00000
     23     -12.3789      1.00000
     24     -12.2632      1.00000
     25      -9.9091      1.00000
     26      -9.8379      1.00000
     27      -9.4822      1.00000
     28      -9.4294      1.00000
     29      -9.3983      1.00000
     30      -9.2745      1.00000
     31      -8.9623      1.00000
     32      -8.9285      1.00000
     33      -8.8280      1.00000
     34      -8.7923      1.00000
     35      -8.6909      1.00000
     36      -8.6329      1.00000
     37      -0.7112      1.00000
     38      -0.5942      1.00000
     39      -0.4876      1.00000
     40      -0.3979      1.00000
     41       0.2280      1.00000
     42       0.4211      1.00000
     43       0.8042      1.00000
     44       0.8841      1.00000
     45       1.0736      1.00000
     46       1.1718      1.00000
     47       1.2253      1.00000
     48       1.3128      1.00000
     49       1.5522      1.00000
     50       1.7050      1.00000
     51       1.8279      1.00000
     52       1.9240      1.00000
     53       2.0532      1.00000
     54       2.0919      1.00000
     55       2.2744      1.00000
     56       2.3646      1.00000
     57       2.5541      1.00000
     58       2.6658      1.00000
     59       2.7699      1.00000
     60       2.8354      1.00000
     61       2.9965      1.00000
     62       3.0424      1.00000
     63       3.0792      1.00000
     64       3.2188      1.00000
     65       3.2222      1.00000
     66       3.3194      1.00000
     67       3.3480      1.00000
     68       3.4083      1.00000
     69       3.4466      1.00000
     70       3.5611      1.00000
     71       3.6448      1.00000
     72       3.6688      1.00000
     73       7.0547      0.00000
     74       7.7328      0.00000
     75       7.7926      0.00000
     76       8.0044      0.00000
     77       8.1946      0.00000
     78       8.2878      0.00000
     79       8.5160      0.00000
     80       8.6790      0.00000
     81       9.0937      0.00000
     82       9.1088      0.00000
     83       9.3448      0.00000
     84       9.4573      0.00000
     85       9.7330      0.00000
     86       9.8546      0.00000
     87       9.9017      0.00000
     88      10.1341      0.00000
     89      10.2429      0.00000
     90      10.3829      0.00000
     91      10.4964      0.00000
     92      10.6122      0.00000

 k-point    10 :      -0.1667   -0.3333    0.0000
  band No.  band energies     occupation 
      1     -31.3500      1.00000
      2     -31.3446      1.00000
      3     -31.1843      1.00000
      4     -31.1675      1.00000
      5     -31.1018      1.00000
      6     -31.0410      1.00000
      7     -13.2790      1.00000
      8     -13.2282      1.00000
      9     -13.1232      1.00000
     10     -13.0800      1.00000
     11     -12.9816      1.00000
     12     -12.9624      1.00000
     13     -12.9205      1.00000
     14     -12.8910      1.00000
     15     -12.8443      1.00000
     16     -12.7641      1.00000
     17     -12.6769      1.00000
     18     -12.6251      1.00000
     19     -12.5559      1.00000
     20     -12.5151      1.00000
     21     -12.4793      1.00000
     22     -12.4104      1.00000
     23     -12.3789      1.00000
     24     -12.2632      1.00000
     25      -9.9091      1.00000
     26      -9.8379      1.00000
     27      -9.4822      1.00000
     28      -9.4294      1.00000
     29      -9.3983      1.00000
     30      -9.2745      1.00000
     31      -8.9623      1.00000
     32      -8.9285      1.00000
     33      -8.8280      1.00000
     34      -8.7923      1.00000
     35      -8.6909      1.00000
     36      -8.6329      1.00000
     37      -0.7112      1.00000
     38      -0.5942      1.00000
     39      -0.4876      1.00000
     40      -0.3979      1.00000
     41       0.2280      1.00000
     42       0.4211      1.00000
     43       0.8042      1.00000
     44       0.8841      1.00000
     45       1.0736      1.00000
     46       1.1718      1.00000
     47       1.2253      1.00000
     48       1.3128      1.00000
     49       1.5522      1.00000
     50       1.7050      1.00000
     51       1.8279      1.00000
     52       1.9240      1.00000
     53       2.0532      1.00000
     54       2.0919      1.00000
     55       2.2744      1.00000
     56       2.3646      1.00000
     57       2.5541      1.00000
     58       2.6658      1.00000
     59       2.7699      1.00000
     60       2.8354      1.00000
     61       2.9965      1.00000
     62       3.0424      1.00000
     63       3.0792      1.00000
     64       3.2188      1.00000
     65       3.2222      1.00000
     66       3.3194      1.00000
     67       3.3480      1.00000
     68       3.4083      1.00000
     69       3.4466      1.00000
     70       3.5611      1.00000
     71       3.6448      1.00000
     72       3.6688      1.00000
     73       7.0547      0.00000
     74       7.7328      0.00000
     75       7.7926      0.00000
     76       8.0044      0.00000
     77       8.1946      0.00000
     78       8.2878      0.00000
     79       8.5160      0.00000
     80       8.6790      0.00000
     81       9.0937      0.00000
     82       9.1088      0.00000
     83       9.3448      0.00000
     84       9.4573      0.00000
     85       9.7330      0.00000
     86       9.8546      0.00000
     87       9.9017      0.00000
     88      10.1341      0.00000
     89      10.2429      0.00000
     90      10.3829      0.00000
     91      10.4968      0.00000
     92      10.6138      0.00000

 k-point    11 :       0.5000    0.1667    0.0000
  band No.  band energies     occupation 
      1     -31.3497      1.00000
      2     -31.3446      1.00000
      3     -31.2014      1.00000
      4     -31.1504      1.00000
      5     -31.0979      1.00000
      6     -31.0450      1.00000
      7     -13.3178      1.00000
      8     -13.2208      1.00000
      9     -13.1159      1.00000
     10     -13.1022      1.00000
     11     -13.0051      1.00000
     12     -12.9877      1.00000
     13     -12.9439      1.00000
     14     -12.8882      1.00000
     15     -12.7619      1.00000
     16     -12.7532      1.00000
     17     -12.6808      1.00000
     18     -12.6538      1.00000
     19     -12.5944      1.00000
     20     -12.5179      1.00000
     21     -12.4795      1.00000
     22     -12.3887      1.00000
     23     -12.3154      1.00000
     24     -12.2538      1.00000
     25      -9.9756      1.00000
     26      -9.7200      1.00000
     27      -9.6012      1.00000
     28      -9.4250      1.00000
     29      -9.3132      1.00000
     30      -9.2396      1.00000
     31      -8.9889      1.00000
     32      -8.9372      1.00000
     33      -8.8603      1.00000
     34      -8.7481      1.00000
     35      -8.7001      1.00000
     36      -8.6266      1.00000
     37      -0.7941      1.00000
     38      -0.6859      1.00000
     39      -0.4162      1.00000
     40      -0.2234      1.00000
     41       0.3175      1.00000
     42       0.3775      1.00000
     43       0.6385      1.00000
     44       0.7910      1.00000
     45       0.9146      1.00000
     46       1.2110      1.00000
     47       1.2487      1.00000
     48       1.3474      1.00000
     49       1.5456      1.00000
     50       1.7458      1.00000
     51       1.8262      1.00000
     52       1.9142      1.00000
     53       2.0981      1.00000
     54       2.1371      1.00000
     55       2.3040      1.00000
     56       2.4876      1.00000
     57       2.5541      1.00000
     58       2.6428      1.00000
     59       2.7952      1.00000
     60       2.8787      1.00000
     61       2.9677      1.00000
     62       3.0203      1.00000
     63       3.0570      1.00000
     64       3.1422      1.00000
     65       3.2205      1.00000
     66       3.2807      1.00000
     67       3.3537      1.00000
     68       3.4299      1.00000
     69       3.4869      1.00000
     70       3.5356      1.00000
     71       3.6418      1.00000
     72       3.6625      1.00000
     73       7.0468      0.00000
     74       7.5967      0.00000
     75       7.8081      0.00000
     76       8.0907      0.00000
     77       8.1558      0.00000
     78       8.2779      0.00000
     79       8.4861      0.00000
     80       8.6432      0.00000
     81       8.9820      0.00000
     82       9.0712      0.00000
     83       9.3111      0.00000
     84       9.4200      0.00000
     85       9.8138      0.00000
     86       9.8778      0.00000
     87       9.9465      0.00000
     88      10.1573      0.00000
     89      10.2596      0.00000
     90      10.4100      0.00000
     91      10.5202      0.00000
     92      10.7859      0.00000

 k-point    12 :      -0.1667    0.5000    0.0000
  band No.  band energies     occupation 
      1     -31.3497      1.00000
      2     -31.3446      1.00000
      3     -31.2014      1.00000
      4     -31.1504      1.00000
      5     -31.0979      1.00000
      6     -31.0450      1.00000
      7     -13.3178      1.00000
      8     -13.2208      1.00000
      9     -13.1159      1.00000
     10     -13.1022      1.00000
     11     -13.0051      1.00000
     12     -12.9877      1.00000
     13     -12.9439      1.00000
     14     -12.8882      1.00000
     15     -12.7619      1.00000
     16     -12.7532      1.00000
     17     -12.6808      1.00000
     18     -12.6538      1.00000
     19     -12.5944      1.00000
     20     -12.5179      1.00000
     21     -12.4795      1.00000
     22     -12.3887      1.00000
     23     -12.3154      1.00000
     24     -12.2538      1.00000
     25      -9.9756      1.00000
     26      -9.7200      1.00000
     27      -9.6012      1.00000
     28      -9.4250      1.00000
     29      -9.3132      1.00000
     30      -9.2396      1.00000
     31      -8.9889      1.00000
     32      -8.9372      1.00000
     33      -8.8603      1.00000
     34      -8.7481      1.00000
     35      -8.7001      1.00000
     36      -8.6266      1.00000
     37      -0.7941      1.00000
     38      -0.6859      1.00000
     39      -0.4162      1.00000
     40      -0.2234      1.00000
     41       0.3175      1.00000
     42       0.3775      1.00000
     43       0.6385      1.00000
     44       0.7910      1.00000
     45       0.9146      1.00000
     46       1.2110      1.00000
     47       1.2487      1.00000
     48       1.3474      1.00000
     49       1.5456      1.00000
     50       1.7458      1.00000
     51       1.8262      1.00000
     52       1.9142      1.00000
     53       2.0981      1.00000
     54       2.1371      1.00000
     55       2.3040      1.00000
     56       2.4876      1.00000
     57       2.5541      1.00000
     58       2.6428      1.00000
     59       2.7952      1.00000
     60       2.8787      1.00000
     61       2.9677      1.00000
     62       3.0203      1.00000
     63       3.0570      1.00000
     64       3.1422      1.00000
     65       3.2205      1.00000
     66       3.2807      1.00000
     67       3.3537      1.00000
     68       3.4299      1.00000
     69       3.4869      1.00000
     70       3.5356      1.00000
     71       3.6418      1.00000
     72       3.6625      1.00000
     73       7.0468      0.00000
     74       7.5967      0.00000
     75       7.8081      0.00000
     76       8.0907      0.00000
     77       8.1558      0.00000
     78       8.2779      0.00000
     79       8.4861      0.00000
     80       8.6432      0.00000
     81       8.9820      0.00000
     82       9.0712      0.00000
     83       9.3111      0.00000
     84       9.4200      0.00000
     85       9.8138      0.00000
     86       9.8778      0.00000
     87       9.9465      0.00000
     88      10.1573      0.00000
     89      10.2596      0.00000
     90      10.4100      0.00000
     91      10.5201      0.00000
     92      10.7612      0.00000

 k-point    13 :      -0.3333    0.1667   -0.0000
  band No.  band energies     occupation 
      1     -31.3504      1.00000
      2     -31.3447      1.00000
      3     -31.2257      1.00000
      4     -31.1253      1.00000
      5     -31.1144      1.00000
      6     -31.0281      1.00000
      7     -13.2898      1.00000
      8     -13.2052      1.00000
      9     -13.1426      1.00000
     10     -13.1123      1.00000
     11     -13.0403      1.00000
     12     -12.9959      1.00000
     13     -12.9463      1.00000
     14     -12.8702      1.00000
     15     -12.8333      1.00000
     16     -12.7194      1.00000
     17     -12.6862      1.00000
     18     -12.6383      1.00000
     19     -12.5947      1.00000
     20     -12.4551      1.00000
     21     -12.4395      1.00000
     22     -12.3804      1.00000
     23     -12.2892      1.00000
     24     -12.2754      1.00000
     25     -10.1973      1.00000
     26      -9.7501      1.00000
     27      -9.6647      1.00000
     28      -9.3370      1.00000
     29      -9.2602      1.00000
     30      -9.1497      1.00000
     31      -8.9916      1.00000
     32      -8.9258      1.00000
     33      -8.8192      1.00000
     34      -8.7880      1.00000
     35      -8.6804      1.00000
     36      -8.6246      1.00000
     37      -1.0243      1.00000
     38      -0.8803      1.00000
     39      -0.4338      1.00000
     40      -0.2539      1.00000
     41       0.1910      1.00000
     42       0.4808      1.00000
     43       0.7256      1.00000
     44       0.7375      1.00000
     45       1.0072      1.00000
     46       1.1283      1.00000
     47       1.2071      1.00000
     48       1.3906      1.00000
     49       1.5308      1.00000
     50       1.7258      1.00000
     51       1.9141      1.00000
     52       1.9975      1.00000
     53       2.0347      1.00000
     54       2.3113      1.00000
     55       2.3914      1.00000
     56       2.4499      1.00000
     57       2.6759      1.00000
     58       2.7073      1.00000
     59       2.8111      1.00000
     60       2.9142      1.00000
     61       2.9570      1.00000
     62       3.0026      1.00000
     63       3.0444      1.00000
     64       3.0820      1.00000
     65       3.1381      1.00000
     66       3.3047      1.00000
     67       3.3969      1.00000
     68       3.4452      1.00000
     69       3.4754      1.00000
     70       3.5668      1.00000
     71       3.6433      1.00000
     72       3.6596      1.00000
     73       7.3245      0.00000
     74       7.7387      0.00000
     75       7.9564      0.00000
     76       8.0705      0.00000
     77       8.2812      0.00000
     78       8.4210      0.00000
     79       8.5704      0.00000
     80       8.7893      0.00000
     81       8.8771      0.00000
     82       9.2783      0.00000
     83       9.3381      0.00000
     84       9.5075      0.00000
     85       9.5522      0.00000
     86       9.7976      0.00000
     87       9.9554      0.00000
     88      10.1993      0.00000
     89      10.3517      0.00000
     90      10.4425      0.00000
     91      10.6158      0.00000
     92      10.7221      0.00000

 k-point    14 :      -0.1667    0.3333   -0.0000
  band No.  band energies     occupation 
      1     -31.3504      1.00000
      2     -31.3447      1.00000
      3     -31.2257      1.00000
      4     -31.1253      1.00000
      5     -31.1144      1.00000
      6     -31.0281      1.00000
      7     -13.2898      1.00000
      8     -13.2052      1.00000
      9     -13.1426      1.00000
     10     -13.1123      1.00000
     11     -13.0403      1.00000
     12     -12.9959      1.00000
     13     -12.9463      1.00000
     14     -12.8702      1.00000
     15     -12.8333      1.00000
     16     -12.7194      1.00000
     17     -12.6862      1.00000
     18     -12.6383      1.00000
     19     -12.5947      1.00000
     20     -12.4551      1.00000
     21     -12.4395      1.00000
     22     -12.3804      1.00000
     23     -12.2892      1.00000
     24     -12.2754      1.00000
     25     -10.1973      1.00000
     26      -9.7501      1.00000
     27      -9.6647      1.00000
     28      -9.3370      1.00000
     29      -9.2602      1.00000
     30      -9.1497      1.00000
     31      -8.9916      1.00000
     32      -8.9258      1.00000
     33      -8.8192      1.00000
     34      -8.7880      1.00000
     35      -8.6804      1.00000
     36      -8.6246      1.00000
     37      -1.0243      1.00000
     38      -0.8803      1.00000
     39      -0.4338      1.00000
     40      -0.2539      1.00000
     41       0.1910      1.00000
     42       0.4808      1.00000
     43       0.7256      1.00000
     44       0.7375      1.00000
     45       1.0072      1.00000
     46       1.1283      1.00000
     47       1.2071      1.00000
     48       1.3906      1.00000
     49       1.5308      1.00000
     50       1.7258      1.00000
     51       1.9141      1.00000
     52       1.9975      1.00000
     53       2.0347      1.00000
     54       2.3113      1.00000
     55       2.3914      1.00000
     56       2.4499      1.00000
     57       2.6759      1.00000
     58       2.7073      1.00000
     59       2.8111      1.00000
     60       2.9142      1.00000
     61       2.9570      1.00000
     62       3.0026      1.00000
     63       3.0444      1.00000
     64       3.0820      1.00000
     65       3.1381      1.00000
     66       3.3047      1.00000
     67       3.3969      1.00000
     68       3.4452      1.00000
     69       3.4754      1.00000
     70       3.5668      1.00000
     71       3.6433      1.00000
     72       3.6596      1.00000
     73       7.3245      0.00000
     74       7.7387      0.00000
     75       7.9564      0.00000
     76       8.0705      0.00000
     77       8.2812      0.00000
     78       8.4210      0.00000
     79       8.5704      0.00000
     80       8.7893      0.00000
     81       8.8771      0.00000
     82       9.2783      0.00000
     83       9.3381      0.00000
     84       9.5075      0.00000
     85       9.5522      0.00000
     86       9.7976      0.00000
     87       9.9554      0.00000
     88      10.1993      0.00000
     89      10.3517      0.00000
     90      10.4425      0.00000
     91      10.6158      0.00000
     92      10.7267      0.00000

 k-point    15 :      -0.1667    0.1667    0.0000
  band No.  band energies     occupation 
      1     -31.3515      1.00000
      2     -31.3447      1.00000
      3     -31.2365      1.00000
      4     -31.1283      1.00000
      5     -31.1131      1.00000
      6     -31.0140      1.00000
      7     -13.2504      1.00000
      8     -13.1925      1.00000
      9     -13.1829      1.00000
     10     -13.0957      1.00000
     11     -13.0354      1.00000
     12     -12.9599      1.00000
     13     -12.9400      1.00000
     14     -12.8877      1.00000
     15     -12.8543      1.00000
     16     -12.7709      1.00000
     17     -12.6743      1.00000
     18     -12.5844      1.00000
     19     -12.5838      1.00000
     20     -12.4248      1.00000
     21     -12.4053      1.00000
     22     -12.3869      1.00000
     23     -12.3153      1.00000
     24     -12.2856      1.00000
     25     -10.3900      1.00000
     26      -9.8030      1.00000
     27      -9.7359      1.00000
     28      -9.2630      1.00000
     29      -9.2004      1.00000
     30      -9.0427      1.00000
     31      -9.0031      1.00000
     32      -8.9608      1.00000
     33      -8.8455      1.00000
     34      -8.7089      1.00000
     35      -8.7058      1.00000
     36      -8.6259      1.00000
     37      -1.1930      1.00000
     38      -0.9612      1.00000
     39      -0.5200      1.00000
     40      -0.3620      1.00000
     41       0.0983      1.00000
     42       0.5877      1.00000
     43       0.7301      1.00000
     44       0.7753      1.00000
     45       1.1600      1.00000
     46       1.1936      1.00000
     47       1.2077      1.00000
     48       1.3363      1.00000
     49       1.3965      1.00000
     50       1.7284      1.00000
     51       1.9267      1.00000
     52       1.9827      1.00000
     53       2.0884      1.00000
     54       2.2856      1.00000
     55       2.4614      1.00000
     56       2.5985      1.00000
     57       2.6482      1.00000
     58       2.7377      1.00000
     59       2.8324      1.00000
     60       2.8539      1.00000
     61       2.9217      1.00000
     62       2.9954      1.00000
     63       3.0736      1.00000
     64       3.1021      1.00000
     65       3.1726      1.00000
     66       3.3518      1.00000
     67       3.3849      1.00000
     68       3.4131      1.00000
     69       3.5625      1.00000
     70       3.5817      1.00000
     71       3.6854      1.00000
     72       3.7697      1.00000
     73       7.6582      0.00000
     74       7.7071      0.00000
     75       7.8892      0.00000
     76       7.9865      0.00000
     77       8.4491      0.00000
     78       8.6223      0.00000
     79       8.7660      0.00000
     80       9.0197      0.00000
     81       9.2061      0.00000
     82       9.2130      0.00000
     83       9.4051      0.00000
     84       9.5240      0.00000
     85       9.6366      0.00000
     86       9.6892      0.00000
     87       9.8152      0.00000
     88      10.1267      0.00000
     89      10.3641      0.00000
     90      10.6201      0.00000
     91      10.6322      0.00000
     92      10.9007      0.00000

 k-point    16 :       0.3333    0.3333   -0.0000
  band No.  band energies     occupation 
      1     -31.3492      1.00000
      2     -31.3446      1.00000
      3     -31.1964      1.00000
      4     -31.1558      1.00000
      5     -31.0842      1.00000
      6     -31.0589      1.00000
      7     -13.3679      1.00000
      8     -13.2366      1.00000
      9     -13.1235      1.00000
     10     -13.0879      1.00000
     11     -12.9746      1.00000
     12     -12.9709      1.00000
     13     -12.9237      1.00000
     14     -12.8901      1.00000
     15     -12.7901      1.00000
     16     -12.7035      1.00000
     17     -12.6996      1.00000
     18     -12.6309      1.00000
     19     -12.6035      1.00000
     20     -12.5753      1.00000
     21     -12.5359      1.00000
     22     -12.3766      1.00000
     23     -12.2900      1.00000
     24     -12.2207      1.00000
     25      -9.9273      1.00000
     26      -9.6915      1.00000
     27      -9.5675      1.00000
     28      -9.4351      1.00000
     29      -9.3139      1.00000
     30      -9.2695      1.00000
     31      -8.9983      1.00000
     32      -8.9492      1.00000
     33      -8.8874      1.00000
     34      -8.7464      1.00000
     35      -8.6826      1.00000
     36      -8.6334      1.00000
     37      -0.7537      1.00000
     38      -0.6153      1.00000
     39      -0.2166      1.00000
     40      -0.1254      1.00000
     41       0.1014      1.00000
     42       0.2849      1.00000
     43       0.6782      1.00000
     44       0.7211      1.00000
     45       0.8959      1.00000
     46       1.1158      1.00000
     47       1.2064      1.00000
     48       1.4049      1.00000
     49       1.5883      1.00000
     50       1.6863      1.00000
     51       1.8419      1.00000
     52       1.9381      1.00000
     53       2.0045      1.00000
     54       2.2460      1.00000
     55       2.2756      1.00000
     56       2.3162      1.00000
     57       2.6287      1.00000
     58       2.6760      1.00000
     59       2.7157      1.00000
     60       2.9715      1.00000
     61       3.0400      1.00000
     62       3.0462      1.00000
     63       3.1067      1.00000
     64       3.1426      1.00000
     65       3.2352      1.00000
     66       3.3012      1.00000
     67       3.3170      1.00000
     68       3.3360      1.00000
     69       3.4389      1.00000
     70       3.5143      1.00000
     71       3.6519      1.00000
     72       3.8267      1.00000
     73       7.0561      0.00000
     74       7.2251      0.00000
     75       7.7776      0.00000
     76       7.8400      0.00000
     77       7.9101      0.00000
     78       8.2555      0.00000
     79       8.4760      0.00000
     80       8.5701      0.00000
     81       8.9029      0.00000
     82       9.1166      0.00000
     83       9.5016      0.00000
     84       9.6394      0.00000
     85       9.7973      0.00000
     86       9.9189      0.00000
     87      10.0012      0.00000
     88      10.2382      0.00000
     89      10.2634      0.00000
     90      10.4542      0.00000
     91      10.5539      0.00000
     92      10.8752      0.00000

 k-point    17 :       0.5000    0.3333    0.0000
  band No.  band energies     occupation 
      1     -31.3490      1.00000
      2     -31.3446      1.00000
      3     -31.2186      1.00000
      4     -31.1333      1.00000
      5     -31.0874      1.00000
      6     -31.0557      1.00000
      7     -13.3696      1.00000
      8     -13.2221      1.00000
      9     -13.1568      1.00000
     10     -13.0748      1.00000
     11     -13.0664      1.00000
     12     -12.9871      1.00000
     13     -12.9630      1.00000
     14     -12.8774      1.00000
     15     -12.7918      1.00000
     16     -12.7548      1.00000
     17     -12.6423      1.00000
     18     -12.6190      1.00000
     19     -12.6092      1.00000
     20     -12.5337      1.00000
     21     -12.5122      1.00000
     22     -12.3490      1.00000
     23     -12.2399      1.00000
     24     -12.2180      1.00000
     25      -9.9843      1.00000
     26      -9.6767      1.00000
     27      -9.6514      1.00000
     28      -9.4089      1.00000
     29      -9.2355      1.00000
     30      -9.1909      1.00000
     31      -9.0221      1.00000
     32      -8.9464      1.00000
     33      -8.9307      1.00000
     34      -8.7265      1.00000
     35      -8.6809      1.00000
     36      -8.6199      1.00000
     37      -0.8684      1.00000
     38      -0.8128      1.00000
     39      -0.1090      1.00000
     40      -0.0693      1.00000
     41       0.0679      1.00000
     42       0.3770      1.00000
     43       0.5473      1.00000
     44       0.7190      1.00000
     45       0.8795      1.00000
     46       1.1017      1.00000
     47       1.1930      1.00000
     48       1.4874      1.00000
     49       1.6217      1.00000
     50       1.6901      1.00000
     51       1.8154      1.00000
     52       1.8321      1.00000
     53       2.0690      1.00000
     54       2.2362      1.00000
     55       2.3455      1.00000
     56       2.4104      1.00000
     57       2.5717      1.00000
     58       2.7675      1.00000
     59       2.8262      1.00000
     60       2.8652      1.00000
     61       2.9472      1.00000
     62       3.0060      1.00000
     63       3.0610      1.00000
     64       3.1007      1.00000
     65       3.1527      1.00000
     66       3.3127      1.00000
     67       3.3654      1.00000
     68       3.3794      1.00000
     69       3.5025      1.00000
     70       3.5317      1.00000
     71       3.7597      1.00000
     72       3.8286      1.00000
     73       6.9942      0.00000
     74       7.2029      0.00000
     75       7.6998      0.00000
     76       7.8937      0.00000
     77       7.9895      0.00000
     78       8.4627      0.00000
     79       8.4885      0.00000
     80       8.6352      0.00000
     81       8.8832      0.00000
     82       9.1785      0.00000
     83       9.4025      0.00000
     84       9.4735      0.00000
     85       9.6816      0.00000
     86       9.9056      0.00000
     87      10.2167      0.00000
     88      10.3057      0.00000
     89      10.3981      0.00000
     90      10.5390      0.00000
     91      10.6455      0.00000
     92      10.8261      0.00000

 k-point    18 :      -0.3333    0.5000    0.0000
  band No.  band energies     occupation 
      1     -31.3490      1.00000
      2     -31.3446      1.00000
      3     -31.2186      1.00000
      4     -31.1333      1.00000
      5     -31.0874      1.00000
      6     -31.0557      1.00000
      7     -13.3696      1.00000
      8     -13.2221      1.00000
      9     -13.1568      1.00000
     10     -13.0748      1.00000
     11     -13.0664      1.00000
     12     -12.9871      1.00000
     13     -12.9630      1.00000
     14     -12.8774      1.00000
     15     -12.7918      1.00000
     16     -12.7548      1.00000
     17     -12.6423      1.00000
     18     -12.6190      1.00000
     19     -12.6092      1.00000
     20     -12.5337      1.00000
     21     -12.5122      1.00000
     22     -12.3490      1.00000
     23     -12.2399      1.00000
     24     -12.2180      1.00000
     25      -9.9843      1.00000
     26      -9.6767      1.00000
     27      -9.6514      1.00000
     28      -9.4089      1.00000
     29      -9.2355      1.00000
     30      -9.1909      1.00000
     31      -9.0221      1.00000
     32      -8.9464      1.00000
     33      -8.9307      1.00000
     34      -8.7265      1.00000
     35      -8.6809      1.00000
     36      -8.6199      1.00000
     37      -0.8684      1.00000
     38      -0.8128      1.00000
     39      -0.1090      1.00000
     40      -0.0693      1.00000
     41       0.0679      1.00000
     42       0.3770      1.00000
     43       0.5473      1.00000
     44       0.7190      1.00000
     45       0.8795      1.00000
     46       1.1017      1.00000
     47       1.1930      1.00000
     48       1.4874      1.00000
     49       1.6217      1.00000
     50       1.6901      1.00000
     51       1.8154      1.00000
     52       1.8321      1.00000
     53       2.0690      1.00000
     54       2.2362      1.00000
     55       2.3455      1.00000
     56       2.4104      1.00000
     57       2.5717      1.00000
     58       2.7675      1.00000
     59       2.8262      1.00000
     60       2.8652      1.00000
     61       2.9472      1.00000
     62       3.0060      1.00000
     63       3.0610      1.00000
     64       3.1007      1.00000
     65       3.1527      1.00000
     66       3.3127      1.00000
     67       3.3654      1.00000
     68       3.3794      1.00000
     69       3.5025      1.00000
     70       3.5317      1.00000
     71       3.7597      1.00000
     72       3.8286      1.00000
     73       6.9942      0.00000
     74       7.2029      0.00000
     75       7.6998      0.00000
     76       7.8937      0.00000
     77       7.9895      0.00000
     78       8.4627      0.00000
     79       8.4885      0.00000
     80       8.6352      0.00000
     81       8.8832      0.00000
     82       9.1785      0.00000
     83       9.4025      0.00000
     84       9.4735      0.00000
     85       9.6816      0.00000
     86       9.9056      0.00000
     87      10.2167      0.00000
     88      10.3057      0.00000
     89      10.3981      0.00000
     90      10.5390      0.00000
     91      10.6455      0.00000
     92      10.8261      0.00000

 k-point    19 :      -0.3333    0.3333    0.0000
  band No.  band energies     occupation 
      1     -31.3496      1.00000
      2     -31.3447      1.00000
      3     -31.2293      1.00000
      4     -31.1221      1.00000
      5     -31.1046      1.00000
      6     -31.0382      1.00000
      7     -13.3219      1.00000
      8     -13.2230      1.00000
      9     -13.1650      1.00000
     10     -13.1030      1.00000
     11     -13.0471      1.00000
     12     -13.0360      1.00000
     13     -12.9637      1.00000
     14     -12.8648      1.00000
     15     -12.8302      1.00000
     16     -12.7111      1.00000
     17     -12.6668      1.00000
     18     -12.6464      1.00000
     19     -12.5926      1.00000
     20     -12.4730      1.00000
     21     -12.4690      1.00000
     22     -12.3486      1.00000
     23     -12.2431      1.00000
     24     -12.2379      1.00000
     25     -10.1286      1.00000
     26      -9.7202      1.00000
     27      -9.6546      1.00000
     28      -9.3384      1.00000
     29      -9.2618      1.00000
     30      -9.0847      1.00000
     31      -9.0561      1.00000
     32      -8.9823      1.00000
     33      -8.8492      1.00000
     34      -8.7681      1.00000
     35      -8.6624      1.00000
     36      -8.6114      1.00000
     37      -1.0420      1.00000
     38      -0.8641      1.00000
     39      -0.2307      1.00000
     40      -0.1867      1.00000
     41       0.0759      1.00000
     42       0.4821      1.00000
     43       0.6850      1.00000
     44       0.6964      1.00000
     45       0.9362      1.00000
     46       1.1037      1.00000
     47       1.2058      1.00000
     48       1.4450      1.00000
     49       1.5201      1.00000
     50       1.6805      1.00000
     51       1.7676      1.00000
     52       2.0562      1.00000
     53       2.1977      1.00000
     54       2.2164      1.00000
     55       2.4415      1.00000
     56       2.5242      1.00000
     57       2.5265      1.00000
     58       2.6455      1.00000
     59       2.7770      1.00000
     60       2.8228      1.00000
     61       2.9482      1.00000
     62       2.9901      1.00000
     63       3.0526      1.00000
     64       3.0808      1.00000
     65       3.1998      1.00000
     66       3.2835      1.00000
     67       3.4192      1.00000
     68       3.5015      1.00000
     69       3.5411      1.00000
     70       3.5532      1.00000
     71       3.6867      1.00000
     72       3.7237      1.00000
     73       7.2066      0.00000
     74       7.3828      0.00000
     75       7.8123      0.00000
     76       7.9733      0.00000
     77       8.1830      0.00000
     78       8.4982      0.00000
     79       8.5828      0.00000
     80       8.7227      0.00000
     81       8.8661      0.00000
     82       9.1632      0.00000
     83       9.2505      0.00000
     84       9.5612      0.00000
     85       9.6502      0.00000
     86       9.8311      0.00000
     87      10.0300      0.00000
     88      10.3408      0.00000
     89      10.3695      0.00000
     90      10.5534      0.00000
     91      10.7240      0.00000
     92      10.8905      0.00000

 k-point    20 :       0.5000    0.5000    0.0000
  band No.  band energies     occupation 
      1     -31.3487      1.00000
      2     -31.3446      1.00000
      3     -31.2251      1.00000
      4     -31.1270      1.00000
      5     -31.0767      1.00000
      6     -31.0665      1.00000
      7     -13.3547      1.00000
      8     -13.2473      1.00000
      9     -13.1782      1.00000
     10     -13.0933      1.00000
     11     -13.0400      1.00000
     12     -13.0279      1.00000
     13     -12.9850      1.00000
     14     -12.8704      1.00000
     15     -12.8001      1.00000
     16     -12.7946      1.00000
     17     -12.6205      1.00000
     18     -12.5878      1.00000
     19     -12.5854      1.00000
     20     -12.5336      1.00000
     21     -12.5176      1.00000
     22     -12.3323      1.00000
     23     -12.2140      1.00000
     24     -12.2097      1.00000
     25      -9.9439      1.00000
     26      -9.7052      1.00000
     27      -9.6689      1.00000
     28      -9.4093      1.00000
     29      -9.1745      1.00000
     30      -9.1197      1.00000
     31      -9.0500      1.00000
     32      -8.9951      1.00000
     33      -8.9883      1.00000
     34      -8.6924      1.00000
     35      -8.6871      1.00000
     36      -8.6067      1.00000
     37      -0.9448      1.00000
     38      -0.8249      1.00000
     39      -0.0645      1.00000
     40      -0.0536      1.00000
     41       0.0926      1.00000
     42       0.3793      1.00000
     43       0.6298      1.00000
     44       0.6744      1.00000
     45       0.9085      1.00000
     46       0.9583      1.00000
     47       1.2697      1.00000
     48       1.4562      1.00000
     49       1.4731      1.00000
     50       1.7577      1.00000
     51       1.8408      1.00000
     52       1.8699      1.00000
     53       2.0699      1.00000
     54       2.3070      1.00000
     55       2.3286      1.00000
     56       2.5169      1.00000
     57       2.5850      1.00000
     58       2.6026      1.00000
     59       2.7696      1.00000
     60       2.8242      1.00000
     61       2.8433      1.00000
     62       2.8833      1.00000
     63       3.0709      1.00000
     64       3.1472      1.00000
     65       3.1509      1.00000
     66       3.3047      1.00000
     67       3.3794      1.00000
     68       3.4452      1.00000
     69       3.5251      1.00000
     70       3.6850      1.00000
     71       3.8194      1.00000
     72       3.8658      1.00000
     73       6.7581      0.00000
     74       7.2127      0.00000
     75       7.6672      0.00000
     76       7.8820      0.00000
     77       7.9380      0.00000
     78       8.4574      0.00000
     79       8.6581      0.00000
     80       8.6644      0.00000
     81       8.8449      0.00000
     82       9.1219      0.00000
     83       9.5021      0.00000
     84       9.5496      0.00000
     85       9.6482      0.00000
     86       9.9552      0.00000
     87      10.1234      0.00000
     88      10.2748      0.00000
     89      10.4717      0.00000
     90      10.6849      0.00000
     91      10.7884      0.00000
     92      10.8246      0.00000

 k-point    21 :       0.0000    0.0000    0.3333
  band No.  band energies     occupation 
      1     -31.3514      1.00000
      2     -31.3460      1.00000
      3     -31.2396      1.00000
      4     -31.1368      1.00000
      5     -31.1091      1.00000
      6     -31.0050      1.00000
      7     -13.2308      1.00000
      8     -13.1948      1.00000
      9     -13.1748      1.00000
     10     -13.0606      1.00000
     11     -12.9885      1.00000
     12     -12.9574      1.00000
     13     -12.9407      1.00000
     14     -12.8722      1.00000
     15     -12.8648      1.00000
     16     -12.8602      1.00000
     17     -12.6276      1.00000
     18     -12.5667      1.00000
     19     -12.5226      1.00000
     20     -12.4792      1.00000
     21     -12.3723      1.00000
     22     -12.3694      1.00000
     23     -12.3598      1.00000
     24     -12.3270      1.00000
     25     -10.4192      1.00000
     26     -10.1223      1.00000
     27      -9.5542      1.00000
     28      -9.2310      1.00000
     29      -9.1391      1.00000
     30      -9.1182      1.00000
     31      -8.9417      1.00000
     32      -8.9416      1.00000
     33      -8.8108      1.00000
     34      -8.7870      1.00000
     35      -8.6976      1.00000
     36      -8.6101      1.00000
     37      -1.2195      1.00000
     38      -1.0472      1.00000
     39      -0.6484      1.00000
     40      -0.3946      1.00000
     41       0.1109      1.00000
     42       0.4162      1.00000
     43       0.8758      1.00000
     44       0.9252      1.00000
     45       0.9859      1.00000
     46       1.0837      1.00000
     47       1.3445      1.00000
     48       1.5112      1.00000
     49       1.5793      1.00000
     50       1.6223      1.00000
     51       1.8181      1.00000
     52       2.0090      1.00000
     53       2.2587      1.00000
     54       2.2984      1.00000
     55       2.3383      1.00000
     56       2.4945      1.00000
     57       2.6141      1.00000
     58       2.7673      1.00000
     59       2.7693      1.00000
     60       2.8703      1.00000
     61       2.9082      1.00000
     62       2.9782      1.00000
     63       3.0560      1.00000
     64       3.1595      1.00000
     65       3.3278      1.00000
     66       3.3298      1.00000
     67       3.4518      1.00000
     68       3.4918      1.00000
     69       3.4945      1.00000
     70       3.6425      1.00000
     71       3.7510      1.00000
     72       3.8055      1.00000
     73       7.6253      0.00000
     74       7.7484      0.00000
     75       7.9500      0.00000
     76       8.2968      0.00000
     77       8.3808      0.00000
     78       8.7170      0.00000
     79       8.8394      0.00000
     80       8.9537      0.00000
     81       9.2857      0.00000
     82       9.3421      0.00000
     83       9.5364      0.00000
     84       9.6188      0.00000
     85       9.7016      0.00000
     86       9.8205      0.00000
     87       9.8671      0.00000
     88      10.1198      0.00000
     89      10.2888      0.00000
     90      10.5281      0.00000
     91      10.6671      0.00000
     92      10.7639      0.00000

 k-point    22 :       0.1667    0.0000    0.3333
  band No.  band energies     occupation 
      1     -31.3507      1.00000
      2     -31.3459      1.00000
      3     -31.2315      1.00000
      4     -31.1301      1.00000
      5     -31.1180      1.00000
      6     -31.0120      1.00000
      7     -13.2228      1.00000
      8     -13.2041      1.00000
      9     -13.1546      1.00000
     10     -13.0473      1.00000
     11     -13.0173      1.00000
     12     -12.9679      1.00000
     13     -12.9583      1.00000
     14     -12.8908      1.00000
     15     -12.8657      1.00000
     16     -12.8215      1.00000
     17     -12.6254      1.00000
     18     -12.5719      1.00000
     19     -12.5318      1.00000
     20     -12.4769      1.00000
     21     -12.4088      1.00000
     22     -12.3846      1.00000
     23     -12.3487      1.00000
     24     -12.3340      1.00000
     25     -10.3012      1.00000
     26     -10.0257      1.00000
     27      -9.6107      1.00000
     28      -9.2851      1.00000
     29      -9.2056      1.00000
     30      -9.0183      1.00000
     31      -8.9847      1.00000
     32      -8.9105      1.00000
     33      -8.8522      1.00000
     34      -8.7615      1.00000
     35      -8.7578      1.00000
     36      -8.5981      1.00000
     37      -1.0982      1.00000
     38      -0.9860      1.00000
     39      -0.6346      1.00000
     40      -0.3533      1.00000
     41       0.2051      1.00000
     42       0.4092      1.00000
     43       0.7121      1.00000
     44       0.9552      1.00000
     45       0.9898      1.00000
     46       1.1717      1.00000
     47       1.3078      1.00000
     48       1.4690      1.00000
     49       1.5949      1.00000
     50       1.6517      1.00000
     51       1.7701      1.00000
     52       2.0739      1.00000
     53       2.2504      1.00000
     54       2.3550      1.00000
     55       2.4076      1.00000
     56       2.4651      1.00000
     57       2.6182      1.00000
     58       2.6838      1.00000
     59       2.8043      1.00000
     60       2.8248      1.00000
     61       2.9410      1.00000
     62       2.9434      1.00000
     63       3.0311      1.00000
     64       3.1130      1.00000
     65       3.2627      1.00000
     66       3.2790      1.00000
     67       3.3531      1.00000
     68       3.4544      1.00000
     69       3.4866      1.00000
     70       3.6361      1.00000
     71       3.6777      1.00000
     72       3.7964      1.00000
     73       7.5805      0.00000
     74       7.8330      0.00000
     75       8.0034      0.00000
     76       8.2699      0.00000
     77       8.4641      0.00000
     78       8.6485      0.00000
     79       8.6634      0.00000
     80       8.9495      0.00000
     81       9.0540      0.00000
     82       9.1745      0.00000
     83       9.4839      0.00000
     84       9.6044      0.00000
     85       9.6638      0.00000
     86       9.7436      0.00000
     87       9.8596      0.00000
     88      10.1062      0.00000
     89      10.2947      0.00000
     90      10.3383      0.00000
     91      10.5092      0.00000
     92      10.7559      0.00000

 k-point    23 :       0.0000   -0.1667   -0.3333
  band No.  band energies     occupation 
      1     -31.3507      1.00000
      2     -31.3459      1.00000
      3     -31.2315      1.00000
      4     -31.1301      1.00000
      5     -31.1180      1.00000
      6     -31.0120      1.00000
      7     -13.2228      1.00000
      8     -13.2041      1.00000
      9     -13.1546      1.00000
     10     -13.0473      1.00000
     11     -13.0173      1.00000
     12     -12.9679      1.00000
     13     -12.9583      1.00000
     14     -12.8908      1.00000
     15     -12.8657      1.00000
     16     -12.8215      1.00000
     17     -12.6254      1.00000
     18     -12.5719      1.00000
     19     -12.5318      1.00000
     20     -12.4769      1.00000
     21     -12.4088      1.00000
     22     -12.3846      1.00000
     23     -12.3487      1.00000
     24     -12.3340      1.00000
     25     -10.3012      1.00000
     26     -10.0257      1.00000
     27      -9.6107      1.00000
     28      -9.2851      1.00000
     29      -9.2056      1.00000
     30      -9.0183      1.00000
     31      -8.9847      1.00000
     32      -8.9105      1.00000
     33      -8.8522      1.00000
     34      -8.7615      1.00000
     35      -8.7578      1.00000
     36      -8.5981      1.00000
     37      -1.0982      1.00000
     38      -0.9860      1.00000
     39      -0.6346      1.00000
     40      -0.3533      1.00000
     41       0.2051      1.00000
     42       0.4092      1.00000
     43       0.7121      1.00000
     44       0.9552      1.00000
     45       0.9898      1.00000
     46       1.1717      1.00000
     47       1.3078      1.00000
     48       1.4690      1.00000
     49       1.5949      1.00000
     50       1.6517      1.00000
     51       1.7701      1.00000
     52       2.0739      1.00000
     53       2.2504      1.00000
     54       2.3550      1.00000
     55       2.4076      1.00000
     56       2.4651      1.00000
     57       2.6182      1.00000
     58       2.6838      1.00000
     59       2.8043      1.00000
     60       2.8248      1.00000
     61       2.9410      1.00000
     62       2.9434      1.00000
     63       3.0311      1.00000
     64       3.1130      1.00000
     65       3.2627      1.00000
     66       3.2790      1.00000
     67       3.3531      1.00000
     68       3.4544      1.00000
     69       3.4866      1.00000
     70       3.6361      1.00000
     71       3.6777      1.00000
     72       3.7964      1.00000
     73       7.5805      0.00000
     74       7.8330      0.00000
     75       8.0034      0.00000
     76       8.2699      0.00000
     77       8.4641      0.00000
     78       8.6485      0.00000
     79       8.6634      0.00000
     80       8.9495      0.00000
     81       9.0540      0.00000
     82       9.1745      0.00000
     83       9.4839      0.00000
     84       9.6044      0.00000
     85       9.6638      0.00000
     86       9.7436      0.00000
     87       9.8596      0.00000
     88      10.1062      0.00000
     89      10.2947      0.00000
     90      10.3383      0.00000
     91      10.5092      0.00000
     92      10.7548      0.00000

 k-point    24 :       0.3333    0.0000    0.3333
  band No.  band energies     occupation 
      1     -31.3496      1.00000
      2     -31.3457      1.00000
      3     -31.2091      1.00000
      4     -31.1420      1.00000
      5     -31.1135      1.00000
      6     -31.0291      1.00000
      7     -13.2187      1.00000
      8     -13.2152      1.00000
      9     -13.1258      1.00000
     10     -13.0824      1.00000
     11     -13.0370      1.00000
     12     -12.9812      1.00000
     13     -12.9572      1.00000
     14     -12.9029      1.00000
     15     -12.8459      1.00000
     16     -12.7745      1.00000
     17     -12.6423      1.00000
     18     -12.5926      1.00000
     19     -12.5275      1.00000
     20     -12.4874      1.00000
     21     -12.4540      1.00000
     22     -12.4169      1.00000
     23     -12.3664      1.00000
     24     -12.3092      1.00000
     25     -10.0542      1.00000
     26      -9.8217      1.00000
     27      -9.6575      1.00000
     28      -9.3955      1.00000
     29      -9.3455      1.00000
     30      -9.0889      1.00000
     31      -8.9506      1.00000
     32      -8.9194      1.00000
     33      -8.8212      1.00000
     34      -8.7947      1.00000
     35      -8.7308      1.00000
     36      -8.6279      1.00000
     37      -0.8532      1.00000
     38      -0.7836      1.00000
     39      -0.5891      1.00000
     40      -0.3344      1.00000
     41       0.3479      1.00000
     42       0.4111      1.00000
     43       0.6754      1.00000
     44       0.8447      1.00000
     45       1.0980      1.00000
     46       1.1986      1.00000
     47       1.3407      1.00000
     48       1.4426      1.00000
     49       1.5554      1.00000
     50       1.6153      1.00000
     51       1.7787      1.00000
     52       2.0103      1.00000
     53       2.0778      1.00000
     54       2.2563      1.00000
     55       2.3906      1.00000
     56       2.4711      1.00000
     57       2.6116      1.00000
     58       2.6459      1.00000
     59       2.7135      1.00000
     60       2.7661      1.00000
     61       2.8663      1.00000
     62       3.0182      1.00000
     63       3.0891      1.00000
     64       3.1576      1.00000
     65       3.1843      1.00000
     66       3.2431      1.00000
     67       3.3240      1.00000
     68       3.4356      1.00000
     69       3.5308      1.00000
     70       3.5592      1.00000
     71       3.6465      1.00000
     72       3.7125      1.00000
     73       7.2238      0.00000
     74       7.6950      0.00000
     75       8.1441      0.00000
     76       8.2057      0.00000
     77       8.3512      0.00000
     78       8.4952      0.00000
     79       8.7148      0.00000
     80       8.8958      0.00000
     81       8.9847      0.00000
     82       9.1582      0.00000
     83       9.1951      0.00000
     84       9.3362      0.00000
     85       9.4133      0.00000
     86       9.6724      0.00000
     87       9.9205      0.00000
     88      10.0605      0.00000
     89      10.2921      0.00000
     90      10.3556      0.00000
     91      10.5114      0.00000
     92      10.6534      0.00000

 k-point    25 :      -0.0000   -0.3333   -0.3333
  band No.  band energies     occupation 
      1     -31.3496      1.00000
      2     -31.3457      1.00000
      3     -31.2091      1.00000
      4     -31.1420      1.00000
      5     -31.1135      1.00000
      6     -31.0291      1.00000
      7     -13.2187      1.00000
      8     -13.2152      1.00000
      9     -13.1258      1.00000
     10     -13.0824      1.00000
     11     -13.0370      1.00000
     12     -12.9812      1.00000
     13     -12.9572      1.00000
     14     -12.9029      1.00000
     15     -12.8459      1.00000
     16     -12.7745      1.00000
     17     -12.6423      1.00000
     18     -12.5926      1.00000
     19     -12.5275      1.00000
     20     -12.4874      1.00000
     21     -12.4540      1.00000
     22     -12.4169      1.00000
     23     -12.3664      1.00000
     24     -12.3092      1.00000
     25     -10.0542      1.00000
     26      -9.8217      1.00000
     27      -9.6575      1.00000
     28      -9.3955      1.00000
     29      -9.3455      1.00000
     30      -9.0889      1.00000
     31      -8.9506      1.00000
     32      -8.9194      1.00000
     33      -8.8212      1.00000
     34      -8.7947      1.00000
     35      -8.7308      1.00000
     36      -8.6279      1.00000
     37      -0.8532      1.00000
     38      -0.7836      1.00000
     39      -0.5891      1.00000
     40      -0.3344      1.00000
     41       0.3479      1.00000
     42       0.4111      1.00000
     43       0.6754      1.00000
     44       0.8447      1.00000
     45       1.0980      1.00000
     46       1.1986      1.00000
     47       1.3407      1.00000
     48       1.4426      1.00000
     49       1.5554      1.00000
     50       1.6153      1.00000
     51       1.7787      1.00000
     52       2.0103      1.00000
     53       2.0778      1.00000
     54       2.2563      1.00000
     55       2.3906      1.00000
     56       2.4711      1.00000
     57       2.6116      1.00000
     58       2.6459      1.00000
     59       2.7135      1.00000
     60       2.7661      1.00000
     61       2.8663      1.00000
     62       3.0182      1.00000
     63       3.0891      1.00000
     64       3.1576      1.00000
     65       3.1843      1.00000
     66       3.2431      1.00000
     67       3.3240      1.00000
     68       3.4356      1.00000
     69       3.5308      1.00000
     70       3.5592      1.00000
     71       3.6465      1.00000
     72       3.7125      1.00000
     73       7.2238      0.00000
     74       7.6950      0.00000
     75       8.1441      0.00000
     76       8.2057      0.00000
     77       8.3512      0.00000
     78       8.4952      0.00000
     79       8.7148      0.00000
     80       8.8958      0.00000
     81       8.9847      0.00000
     82       9.1582      0.00000
     83       9.1951      0.00000
     84       9.3362      0.00000
     85       9.4133      0.00000
     86       9.6724      0.00000
     87       9.9205      0.00000
     88      10.0605      0.00000
     89      10.2921      0.00000
     90      10.3556      0.00000
     91      10.5114      0.00000
     92      10.6511      0.00000

 k-point    26 :       0.5000   -0.0000    0.3333
  band No.  band energies     occupation 
      1     -31.3491      1.00000
      2     -31.3456      1.00000
      3     -31.1842      1.00000
      4     -31.1676      1.00000
      5     -31.1019      1.00000
      6     -31.0410      1.00000
      7     -13.2333      1.00000
      8     -13.2140      1.00000
      9     -13.1301      1.00000
     10     -13.0857      1.00000
     11     -13.0300      1.00000
     12     -12.9952      1.00000
     13     -12.9614      1.00000
     14     -12.8959      1.00000
     15     -12.8357      1.00000
     16     -12.7451      1.00000
     17     -12.6552      1.00000
     18     -12.5931      1.00000
     19     -12.5361      1.00000
     20     -12.5221      1.00000
     21     -12.4356      1.00000
     22     -12.4248      1.00000
     23     -12.3949      1.00000
     24     -12.2924      1.00000
     25      -9.9029      1.00000
     26      -9.7694      1.00000
     27      -9.5656      1.00000
     28      -9.4853      1.00000
     29      -9.4407      1.00000
     30      -9.1419      1.00000
     31      -8.9771      1.00000
     32      -8.9566      1.00000
     33      -8.8224      1.00000
     34      -8.7449      1.00000
     35      -8.7037      1.00000
     36      -8.6531      1.00000
     37      -0.7201      1.00000
     38      -0.6208      1.00000
     39      -0.5399      1.00000
     40      -0.3915      1.00000
     41       0.3697      1.00000
     42       0.4827      1.00000
     43       0.7278      1.00000
     44       0.7866      1.00000
     45       1.0461      1.00000
     46       1.1776      1.00000
     47       1.3064      1.00000
     48       1.4631      1.00000
     49       1.4656      1.00000
     50       1.6755      1.00000
     51       1.7813      1.00000
     52       1.9659      1.00000
     53       1.9887      1.00000
     54       2.2904      1.00000
     55       2.3656      1.00000
     56       2.4087      1.00000
     57       2.5343      1.00000
     58       2.5817      1.00000
     59       2.6876      1.00000
     60       2.8096      1.00000
     61       2.9217      1.00000
     62       2.9584      1.00000
     63       3.0989      1.00000
     64       3.1719      1.00000
     65       3.1909      1.00000
     66       3.2298      1.00000
     67       3.3351      1.00000
     68       3.3816      1.00000
     69       3.5194      1.00000
     70       3.5435      1.00000
     71       3.6603      1.00000
     72       3.7869      1.00000
     73       7.0145      0.00000
     74       7.7027      0.00000
     75       7.9822      0.00000
     76       8.0610      0.00000
     77       8.2898      0.00000
     78       8.3481      0.00000
     79       8.7534      0.00000
     80       8.8730      0.00000
     81       8.9762      0.00000
     82       9.1003      0.00000
     83       9.2376      0.00000
     84       9.2924      0.00000
     85       9.5137      0.00000
     86       9.6570      0.00000
     87       9.7941      0.00000
     88       9.9280      0.00000
     89      10.2959      0.00000
     90      10.3582      0.00000
     91      10.5932      0.00000
     92      10.7573      0.00000

 k-point    27 :      -0.0000    0.5000   -0.3333
  band No.  band energies     occupation 
      1     -31.3491      1.00000
      2     -31.3456      1.00000
      3     -31.1842      1.00000
      4     -31.1676      1.00000
      5     -31.1019      1.00000
      6     -31.0410      1.00000
      7     -13.2333      1.00000
      8     -13.2140      1.00000
      9     -13.1301      1.00000
     10     -13.0857      1.00000
     11     -13.0300      1.00000
     12     -12.9952      1.00000
     13     -12.9614      1.00000
     14     -12.8959      1.00000
     15     -12.8357      1.00000
     16     -12.7451      1.00000
     17     -12.6552      1.00000
     18     -12.5931      1.00000
     19     -12.5361      1.00000
     20     -12.5221      1.00000
     21     -12.4356      1.00000
     22     -12.4248      1.00000
     23     -12.3949      1.00000
     24     -12.2924      1.00000
     25      -9.9029      1.00000
     26      -9.7694      1.00000
     27      -9.5656      1.00000
     28      -9.4853      1.00000
     29      -9.4407      1.00000
     30      -9.1419      1.00000
     31      -8.9771      1.00000
     32      -8.9566      1.00000
     33      -8.8224      1.00000
     34      -8.7449      1.00000
     35      -8.7037      1.00000
     36      -8.6531      1.00000
     37      -0.7201      1.00000
     38      -0.6208      1.00000
     39      -0.5399      1.00000
     40      -0.3915      1.00000
     41       0.3697      1.00000
     42       0.4827      1.00000
     43       0.7278      1.00000
     44       0.7866      1.00000
     45       1.0461      1.00000
     46       1.1776      1.00000
     47       1.3064      1.00000
     48       1.4631      1.00000
     49       1.4656      1.00000
     50       1.6755      1.00000
     51       1.7813      1.00000
     52       1.9659      1.00000
     53       1.9887      1.00000
     54       2.2904      1.00000
     55       2.3656      1.00000
     56       2.4087      1.00000
     57       2.5343      1.00000
     58       2.5817      1.00000
     59       2.6876      1.00000
     60       2.8096      1.00000
     61       2.9217      1.00000
     62       2.9584      1.00000
     63       3.0989      1.00000
     64       3.1719      1.00000
     65       3.1909      1.00000
     66       3.2298      1.00000
     67       3.3351      1.00000
     68       3.3816      1.00000
     69       3.5194      1.00000
     70       3.5435      1.00000
     71       3.6603      1.00000
     72       3.7869      1.00000
     73       7.0145      0.00000
     74       7.7027      0.00000
     75       7.9822      0.00000
     76       8.0610      0.00000
     77       8.2898      0.00000
     78       8.3481      0.00000
     79       8.7534      0.00000
     80       8.8730      0.00000
     81       8.9762      0.00000
     82       9.1003      0.00000
     83       9.2376      0.00000
     84       9.2924      0.00000
     85       9.5137      0.00000
     86       9.6570      0.00000
     87       9.7941      0.00000
     88       9.9280      0.00000
     89      10.2959      0.00000
     90      10.3582      0.00000
     91      10.5933      0.00000
     92      10.7687      0.00000

 k-point    28 :      -0.3333   -0.0000    0.3333
  band No.  band energies     occupation 
      1     -31.3496      1.00000
      2     -31.3457      1.00000
      3     -31.2091      1.00000
      4     -31.1420      1.00000
      5     -31.1135      1.00000
      6     -31.0291      1.00000
      7     -13.2278      1.00000
      8     -13.2116      1.00000
      9     -13.1299      1.00000
     10     -13.0650      1.00000
     11     -13.0270      1.00000
     12     -12.9974      1.00000
     13     -12.9448      1.00000
     14     -12.8998      1.00000
     15     -12.8663      1.00000
     16     -12.7789      1.00000
     17     -12.6524      1.00000
     18     -12.5830      1.00000
     19     -12.5209      1.00000
     20     -12.4784      1.00000
     21     -12.4455      1.00000
     22     -12.4151      1.00000
     23     -12.3840      1.00000
     24     -12.3093      1.00000
     25     -10.0399      1.00000
     26      -9.8989      1.00000
     27      -9.5399      1.00000
     28      -9.4058      1.00000
     29      -9.3389      1.00000
     30      -9.1617      1.00000
     31      -8.9605      1.00000
     32      -8.9196      1.00000
     33      -8.8458      1.00000
     34      -8.7695      1.00000
     35      -8.6778      1.00000
     36      -8.6495      1.00000
     37      -0.8436      1.00000
     38      -0.7964      1.00000
     39      -0.6026      1.00000
     40      -0.3309      1.00000
     41       0.3633      1.00000
     42       0.4110      1.00000
     43       0.7101      1.00000
     44       0.8479      1.00000
     45       1.0612      1.00000
     46       1.2662      1.00000
     47       1.2733      1.00000
     48       1.4168      1.00000
     49       1.5813      1.00000
     50       1.6414      1.00000
     51       1.8542      1.00000
     52       1.8870      1.00000
     53       2.1649      1.00000
     54       2.2244      1.00000
     55       2.4025      1.00000
     56       2.4832      1.00000
     57       2.5310      1.00000
     58       2.5991      1.00000
     59       2.6381      1.00000
     60       2.8030      1.00000
     61       2.8917      1.00000
     62       2.9813      1.00000
     63       3.0787      1.00000
     64       3.1800      1.00000
     65       3.2086      1.00000
     66       3.2647      1.00000
     67       3.3336      1.00000
     68       3.4723      1.00000
     69       3.5041      1.00000
     70       3.5778      1.00000
     71       3.6388      1.00000
     72       3.7575      1.00000
     73       7.2081      0.00000
     74       7.8843      0.00000
     75       7.9710      0.00000
     76       8.0616      0.00000
     77       8.3375      0.00000
     78       8.5005      0.00000
     79       8.8086      0.00000
     80       8.8584      0.00000
     81       8.9547      0.00000
     82       9.1153      0.00000
     83       9.2233      0.00000
     84       9.3857      0.00000
     85       9.5592      0.00000
     86       9.6776      0.00000
     87       9.7998      0.00000
     88      10.1574      0.00000
     89      10.2781      0.00000
     90      10.3647      0.00000
     91      10.5403      0.00000
     92      10.6509      0.00000

 k-point    29 :      -0.0000    0.3333   -0.3333
  band No.  band energies     occupation 
      1     -31.3496      1.00000
      2     -31.3457      1.00000
      3     -31.2091      1.00000
      4     -31.1420      1.00000
      5     -31.1135      1.00000
      6     -31.0291      1.00000
      7     -13.2278      1.00000
      8     -13.2116      1.00000
      9     -13.1299      1.00000
     10     -13.0650      1.00000
     11     -13.0270      1.00000
     12     -12.9974      1.00000
     13     -12.9448      1.00000
     14     -12.8998      1.00000
     15     -12.8663      1.00000
     16     -12.7789      1.00000
     17     -12.6524      1.00000
     18     -12.5830      1.00000
     19     -12.5209      1.00000
     20     -12.4784      1.00000
     21     -12.4455      1.00000
     22     -12.4151      1.00000
     23     -12.3840      1.00000
     24     -12.3093      1.00000
     25     -10.0399      1.00000
     26      -9.8989      1.00000
     27      -9.5399      1.00000
     28      -9.4058      1.00000
     29      -9.3389      1.00000
     30      -9.1617      1.00000
     31      -8.9605      1.00000
     32      -8.9196      1.00000
     33      -8.8458      1.00000
     34      -8.7695      1.00000
     35      -8.6778      1.00000
     36      -8.6495      1.00000
     37      -0.8436      1.00000
     38      -0.7964      1.00000
     39      -0.6026      1.00000
     40      -0.3309      1.00000
     41       0.3633      1.00000
     42       0.4110      1.00000
     43       0.7101      1.00000
     44       0.8479      1.00000
     45       1.0612      1.00000
     46       1.2662      1.00000
     47       1.2733      1.00000
     48       1.4168      1.00000
     49       1.5813      1.00000
     50       1.6414      1.00000
     51       1.8542      1.00000
     52       1.8870      1.00000
     53       2.1649      1.00000
     54       2.2244      1.00000
     55       2.4025      1.00000
     56       2.4832      1.00000
     57       2.5310      1.00000
     58       2.5991      1.00000
     59       2.6381      1.00000
     60       2.8030      1.00000
     61       2.8917      1.00000
     62       2.9813      1.00000
     63       3.0787      1.00000
     64       3.1800      1.00000
     65       3.2086      1.00000
     66       3.2647      1.00000
     67       3.3336      1.00000
     68       3.4723      1.00000
     69       3.5041      1.00000
     70       3.5778      1.00000
     71       3.6388      1.00000
     72       3.7575      1.00000
     73       7.2081      0.00000
     74       7.8843      0.00000
     75       7.9710      0.00000
     76       8.0616      0.00000
     77       8.3375      0.00000
     78       8.5005      0.00000
     79       8.8086      0.00000
     80       8.8584      0.00000
     81       8.9547      0.00000
     82       9.1153      0.00000
     83       9.2233      0.00000
     84       9.3857      0.00000
     85       9.5592      0.00000
     86       9.6776      0.00000
     87       9.7998      0.00000
     88      10.1574      0.00000
     89      10.2781      0.00000
     90      10.3647      0.00000
     91      10.5403      0.00000
     92      10.6515      0.00000

 k-point    30 :      -0.1667   -0.0000    0.3333
  band No.  band energies     occupation 
      1     -31.3507      1.00000
      2     -31.3459      1.00000
      3     -31.2315      1.00000
      4     -31.1301      1.00000
      5     -31.1180      1.00000
      6     -31.0120      1.00000
      7     -13.2218      1.00000
      8     -13.2052      1.00000
      9     -13.1516      1.00000
     10     -13.0697      1.00000
     11     -13.0053      1.00000
     12     -12.9658      1.00000
     13     -12.9158      1.00000
     14     -12.9076      1.00000
     15     -12.8829      1.00000
     16     -12.8291      1.00000
     17     -12.6380      1.00000
     18     -12.5589      1.00000
     19     -12.5217      1.00000
     20     -12.4783      1.00000
     21     -12.3941      1.00000
     22     -12.3834      1.00000
     23     -12.3593      1.00000
     24     -12.3439      1.00000
     25     -10.2978      1.00000
     26     -10.0544      1.00000
     27      -9.5174      1.00000
     28      -9.2751      1.00000
     29      -9.2297      1.00000
     30      -9.1791      1.00000
     31      -8.9404      1.00000
     32      -8.8882      1.00000
     33      -8.8191      1.00000
     34      -8.7857      1.00000
     35      -8.6986      1.00000
     36      -8.6254      1.00000
     37      -1.1102      1.00000
     38      -0.9738      1.00000
     39      -0.6532      1.00000
     40      -0.3500      1.00000
     41       0.1756      1.00000
     42       0.4498      1.00000
     43       0.7654      1.00000
     44       0.9827      1.00000
     45       1.0226      1.00000
     46       1.1647      1.00000
     47       1.2433      1.00000
     48       1.5129      1.00000
     49       1.5490      1.00000
     50       1.6540      1.00000
     51       1.8270      1.00000
     52       1.9649      1.00000
     53       2.2507      1.00000
     54       2.3254      1.00000
     55       2.3770      1.00000
     56       2.5006      1.00000
     57       2.5696      1.00000
     58       2.6459      1.00000
     59       2.7108      1.00000
     60       2.8224      1.00000
     61       2.9836      1.00000
     62       3.0127      1.00000
     63       3.0735      1.00000
     64       3.1366      1.00000
     65       3.2263      1.00000
     66       3.3233      1.00000
     67       3.3736      1.00000
     68       3.4588      1.00000
     69       3.5587      1.00000
     70       3.5743      1.00000
     71       3.6642      1.00000
     72       3.8305      1.00000
     73       7.5345      0.00000
     74       7.9146      0.00000
     75       8.0005      0.00000
     76       8.2176      0.00000
     77       8.3064      0.00000
     78       8.6168      0.00000
     79       8.9100      0.00000
     80       8.9281      0.00000
     81       9.1132      0.00000
     82       9.2206      0.00000
     83       9.3608      0.00000
     84       9.4136      0.00000
     85       9.7104      0.00000
     86       9.7743      0.00000
     87       9.8727      0.00000
     88      10.0732      0.00000
     89      10.3085      0.00000
     90      10.4699      0.00000
     91      10.5373      0.00000
     92      10.7806      0.00000

 k-point    31 :      -0.0000    0.1667   -0.3333
  band No.  band energies     occupation 
      1     -31.3507      1.00000
      2     -31.3459      1.00000
      3     -31.2315      1.00000
      4     -31.1301      1.00000
      5     -31.1180      1.00000
      6     -31.0120      1.00000
      7     -13.2218      1.00000
      8     -13.2052      1.00000
      9     -13.1516      1.00000
     10     -13.0697      1.00000
     11     -13.0053      1.00000
     12     -12.9658      1.00000
     13     -12.9158      1.00000
     14     -12.9076      1.00000
     15     -12.8829      1.00000
     16     -12.8291      1.00000
     17     -12.6380      1.00000
     18     -12.5589      1.00000
     19     -12.5217      1.00000
     20     -12.4783      1.00000
     21     -12.3941      1.00000
     22     -12.3834      1.00000
     23     -12.3593      1.00000
     24     -12.3439      1.00000
     25     -10.2978      1.00000
     26     -10.0544      1.00000
     27      -9.5174      1.00000
     28      -9.2751      1.00000
     29      -9.2297      1.00000
     30      -9.1791      1.00000
     31      -8.9404      1.00000
     32      -8.8882      1.00000
     33      -8.8191      1.00000
     34      -8.7857      1.00000
     35      -8.6986      1.00000
     36      -8.6254      1.00000
     37      -1.1102      1.00000
     38      -0.9738      1.00000
     39      -0.6532      1.00000
     40      -0.3500      1.00000
     41       0.1756      1.00000
     42       0.4498      1.00000
     43       0.7654      1.00000
     44       0.9827      1.00000
     45       1.0226      1.00000
     46       1.1647      1.00000
     47       1.2433      1.00000
     48       1.5129      1.00000
     49       1.5490      1.00000
     50       1.6540      1.00000
     51       1.8270      1.00000
     52       1.9649      1.00000
     53       2.2507      1.00000
     54       2.3254      1.00000
     55       2.3770      1.00000
     56       2.5006      1.00000
     57       2.5696      1.00000
     58       2.6459      1.00000
     59       2.7108      1.00000
     60       2.8224      1.00000
     61       2.9836      1.00000
     62       3.0127      1.00000
     63       3.0735      1.00000
     64       3.1366      1.00000
     65       3.2263      1.00000
     66       3.3233      1.00000
     67       3.3736      1.00000
     68       3.4588      1.00000
     69       3.5587      1.00000
     70       3.5743      1.00000
     71       3.6642      1.00000
     72       3.8305      1.00000
     73       7.5345      0.00000
     74       7.9146      0.00000
     75       8.0005      0.00000
     76       8.2176      0.00000
     77       8.3064      0.00000
     78       8.6168      0.00000
     79       8.9100      0.00000
     80       8.9281      0.00000
     81       9.1132      0.00000
     82       9.2206      0.00000
     83       9.3608      0.00000
     84       9.4136      0.00000
     85       9.7104      0.00000
     86       9.7743      0.00000
     87       9.8727      0.00000
     88      10.0732      0.00000
     89      10.3085      0.00000
     90      10.4699      0.00000
     91      10.5373      0.00000
     92      10.7853      0.00000

 k-point    32 :       0.1667    0.1667    0.3333
  band No.  band energies     occupation 
      1     -31.3500      1.00000
      2     -31.3458      1.00000
      3     -31.2122      1.00000
      4     -31.1384      1.00000
      5     -31.1194      1.00000
      6     -31.0231      1.00000
      7     -13.2362      1.00000
      8     -13.1949      1.00000
      9     -13.0961      1.00000
     10     -13.0597      1.00000
     11     -13.0044      1.00000
     12     -13.0005      1.00000
     13     -12.9718      1.00000
     14     -12.8891      1.00000
     15     -12.8441      1.00000
     16     -12.8202      1.00000
     17     -12.6420      1.00000
     18     -12.5420      1.00000
     19     -12.5368      1.00000
     20     -12.4771      1.00000
     21     -12.4582      1.00000
     22     -12.4384      1.00000
     23     -12.3948      1.00000
     24     -12.3063      1.00000
     25     -10.1111      1.00000
     26      -9.8571      1.00000
     27      -9.6979      1.00000
     28      -9.3517      1.00000
     29      -9.2948      1.00000
     30      -9.1075      1.00000
     31      -8.9135      1.00000
     32      -8.8932      1.00000
     33      -8.8498      1.00000
     34      -8.8061      1.00000
     35      -8.7403      1.00000
     36      -8.6244      1.00000
     37      -0.8612      1.00000
     38      -0.7894      1.00000
     39      -0.6789      1.00000
     40      -0.3806      1.00000
     41       0.2415      1.00000
     42       0.3870      1.00000
     43       0.7745      1.00000
     44       0.8873      1.00000
     45       1.2922      1.00000
     46       1.2965      1.00000
     47       1.3355      1.00000
     48       1.3988      1.00000
     49       1.4708      1.00000
     50       1.5135      1.00000
     51       1.8033      1.00000
     52       2.0351      1.00000
     53       2.1470      1.00000
     54       2.1860      1.00000
     55       2.2543      1.00000
     56       2.5385      1.00000
     57       2.5438      1.00000
     58       2.6654      1.00000
     59       2.6955      1.00000
     60       2.9000      1.00000
     61       2.9570      1.00000
     62       2.9639      1.00000
     63       3.0736      1.00000
     64       3.1585      1.00000
     65       3.2580      1.00000
     66       3.3161      1.00000
     67       3.3426      1.00000
     68       3.3687      1.00000
     69       3.4880      1.00000
     70       3.5011      1.00000
     71       3.6619      1.00000
     72       3.7940      1.00000
     73       7.2944      0.00000
     74       7.8225      0.00000
     75       8.1689      0.00000
     76       8.2930      0.00000
     77       8.3047      0.00000
     78       8.4978      0.00000
     79       8.5531      0.00000
     80       8.8030      0.00000
     81       8.9106      0.00000
     82       9.2264      0.00000
     83       9.2583      0.00000
     84       9.6374      0.00000
     85       9.6719      0.00000
     86       9.7157      0.00000
     87       9.7890      0.00000
     88      10.1316      0.00000
     89      10.2553      0.00000
     90      10.4485      0.00000
     91      10.4547      0.00000
     92      10.6702      0.00000

 k-point    33 :       0.3333    0.1667    0.3333
  band No.  band energies     occupation 
      1     -31.3491      1.00000
      2     -31.3456      1.00000
      3     -31.1842      1.00000
      4     -31.1675      1.00000
      5     -31.1018      1.00000
      6     -31.0410      1.00000
      7     -13.2871      1.00000
      8     -13.2047      1.00000
      9     -13.1378      1.00000
     10     -13.0582      1.00000
     11     -13.0038      1.00000
     12     -12.9807      1.00000
     13     -12.9186      1.00000
     14     -12.8833      1.00000
     15     -12.8659      1.00000
     16     -12.7485      1.00000
     17     -12.6618      1.00000
     18     -12.5904      1.00000
     19     -12.5643      1.00000
     20     -12.5271      1.00000
     21     -12.4885      1.00000
     22     -12.4158      1.00000
     23     -12.3796      1.00000
     24     -12.2631      1.00000
     25      -9.9169      1.00000
     26      -9.7742      1.00000
     27      -9.5938      1.00000
     28      -9.4740      1.00000
     29      -9.3829      1.00000
     30      -9.1454      1.00000
     31      -9.0167      1.00000
     32      -8.8991      1.00000
     33      -8.8510      1.00000
     34      -8.7624      1.00000
     35      -8.6957      1.00000
     36      -8.6540      1.00000
     37      -0.6848      1.00000
     38      -0.6019      1.00000
     39      -0.4664      1.00000
     40      -0.4433      1.00000
     41       0.2159      1.00000
     42       0.4347      1.00000
     43       0.8112      1.00000
     44       0.8770      1.00000
     45       1.0568      1.00000
     46       1.1429      1.00000
     47       1.2243      1.00000
     48       1.4457      1.00000
     49       1.4983      1.00000
     50       1.7305      1.00000
     51       1.8132      1.00000
     52       1.8767      1.00000
     53       1.9896      1.00000
     54       2.0566      1.00000
     55       2.2697      1.00000
     56       2.5170      1.00000
     57       2.6443      1.00000
     58       2.6526      1.00000
     59       2.7355      1.00000
     60       2.8860      1.00000
     61       2.9432      1.00000
     62       3.0290      1.00000
     63       3.0746      1.00000
     64       3.1466      1.00000
     65       3.2179      1.00000
     66       3.2731      1.00000
     67       3.3713      1.00000
     68       3.4037      1.00000
     69       3.4819      1.00000
     70       3.5335      1.00000
     71       3.6463      1.00000
     72       3.6935      1.00000
     73       7.0698      0.00000
     74       7.6277      0.00000
     75       7.9418      0.00000
     76       8.0104      0.00000
     77       8.1444      0.00000
     78       8.3245      0.00000
     79       8.3995      0.00000
     80       8.8266      0.00000
     81       9.0016      0.00000
     82       9.1222      0.00000
     83       9.4233      0.00000
     84       9.4714      0.00000
     85       9.6004      0.00000
     86       9.8677      0.00000
     87       9.9034      0.00000
     88      10.1525      0.00000
     89      10.1970      0.00000
     90      10.4348      0.00000
     91      10.5808      0.00000
     92      10.7256      0.00000

 k-point    34 :      -0.1667   -0.3333   -0.3333
  band No.  band energies     occupation 
      1     -31.3491      1.00000
      2     -31.3456      1.00000
      3     -31.1842      1.00000
      4     -31.1675      1.00000
      5     -31.1018      1.00000
      6     -31.0410      1.00000
      7     -13.2871      1.00000
      8     -13.2047      1.00000
      9     -13.1378      1.00000
     10     -13.0582      1.00000
     11     -13.0038      1.00000
     12     -12.9807      1.00000
     13     -12.9186      1.00000
     14     -12.8833      1.00000
     15     -12.8659      1.00000
     16     -12.7485      1.00000
     17     -12.6618      1.00000
     18     -12.5904      1.00000
     19     -12.5643      1.00000
     20     -12.5271      1.00000
     21     -12.4885      1.00000
     22     -12.4158      1.00000
     23     -12.3796      1.00000
     24     -12.2631      1.00000
     25      -9.9169      1.00000
     26      -9.7742      1.00000
     27      -9.5938      1.00000
     28      -9.4740      1.00000
     29      -9.3829      1.00000
     30      -9.1454      1.00000
     31      -9.0167      1.00000
     32      -8.8991      1.00000
     33      -8.8510      1.00000
     34      -8.7624      1.00000
     35      -8.6957      1.00000
     36      -8.6540      1.00000
     37      -0.6848      1.00000
     38      -0.6019      1.00000
     39      -0.4664      1.00000
     40      -0.4433      1.00000
     41       0.2159      1.00000
     42       0.4347      1.00000
     43       0.8112      1.00000
     44       0.8770      1.00000
     45       1.0568      1.00000
     46       1.1429      1.00000
     47       1.2243      1.00000
     48       1.4457      1.00000
     49       1.4983      1.00000
     50       1.7305      1.00000
     51       1.8132      1.00000
     52       1.8767      1.00000
     53       1.9896      1.00000
     54       2.0566      1.00000
     55       2.2697      1.00000
     56       2.5170      1.00000
     57       2.6443      1.00000
     58       2.6526      1.00000
     59       2.7355      1.00000
     60       2.8860      1.00000
     61       2.9432      1.00000
     62       3.0290      1.00000
     63       3.0746      1.00000
     64       3.1466      1.00000
     65       3.2179      1.00000
     66       3.2731      1.00000
     67       3.3713      1.00000
     68       3.4037      1.00000
     69       3.4819      1.00000
     70       3.5335      1.00000
     71       3.6463      1.00000
     72       3.6935      1.00000
     73       7.0698      0.00000
     74       7.6277      0.00000
     75       7.9418      0.00000
     76       8.0104      0.00000
     77       8.1444      0.00000
     78       8.3245      0.00000
     79       8.3995      0.00000
     80       8.8266      0.00000
     81       9.0016      0.00000
     82       9.1222      0.00000
     83       9.4233      0.00000
     84       9.4714      0.00000
     85       9.6004      0.00000
     86       9.8677      0.00000
     87       9.9034      0.00000
     88      10.1525      0.00000
     89      10.1970      0.00000
     90      10.4347      0.00000
     91      10.5810      0.00000
     92      10.7370      0.00000

 k-point    35 :       0.5000    0.1667    0.3333
  band No.  band energies     occupation 
      1     -31.3488      1.00000
      2     -31.3456      1.00000
      3     -31.2014      1.00000
      4     -31.1504      1.00000
      5     -31.0979      1.00000
      6     -31.0450      1.00000
      7     -13.3191      1.00000
      8     -13.1940      1.00000
      9     -13.1586      1.00000
     10     -13.0875      1.00000
     11     -13.0146      1.00000
     12     -12.9714      1.00000
     13     -12.9473      1.00000
     14     -12.8834      1.00000
     15     -12.7997      1.00000
     16     -12.7414      1.00000
     17     -12.6950      1.00000
     18     -12.6265      1.00000
     19     -12.5743      1.00000
     20     -12.5131      1.00000
     21     -12.4771      1.00000
     22     -12.4057      1.00000
     23     -12.3187      1.00000
     24     -12.2538      1.00000
     25      -9.9516      1.00000
     26      -9.7767      1.00000
     27      -9.5562      1.00000
     28      -9.4261      1.00000
     29      -9.3962      1.00000
     30      -9.1074      1.00000
     31      -9.0382      1.00000
     32      -8.9240      1.00000
     33      -8.8816      1.00000
     34      -8.7570      1.00000
     35      -8.7080      1.00000
     36      -8.6125      1.00000
     37      -0.7824      1.00000
     38      -0.7034      1.00000
     39      -0.3928      1.00000
     40      -0.2658      1.00000
     41       0.3396      1.00000
     42       0.3910      1.00000
     43       0.6487      1.00000
     44       0.7949      1.00000
     45       0.8959      1.00000
     46       1.1080      1.00000
     47       1.3093      1.00000
     48       1.4187      1.00000
     49       1.5566      1.00000
     50       1.7476      1.00000
     51       1.8146      1.00000
     52       1.9832      1.00000
     53       2.0113      1.00000
     54       2.1777      1.00000
     55       2.2344      1.00000
     56       2.5074      1.00000
     57       2.6113      1.00000
     58       2.7121      1.00000
     59       2.7630      1.00000
     60       2.8057      1.00000
     61       2.9177      1.00000
     62       2.9372      1.00000
     63       3.0482      1.00000
     64       3.1390      1.00000
     65       3.1551      1.00000
     66       3.3142      1.00000
     67       3.3834      1.00000
     68       3.4402      1.00000
     69       3.5006      1.00000
     70       3.5609      1.00000
     71       3.6229      1.00000
     72       3.7595      1.00000
     73       7.1168      0.00000
     74       7.5495      0.00000
     75       7.8224      0.00000
     76       7.9983      0.00000
     77       8.0326      0.00000
     78       8.2203      0.00000
     79       8.4638      0.00000
     80       8.8786      0.00000
     81       8.9393      0.00000
     82       9.2344      0.00000
     83       9.2824      0.00000
     84       9.5377      0.00000
     85       9.7107      0.00000
     86       9.8294      0.00000
     87       9.9387      0.00000
     88      10.0283      0.00000
     89      10.3934      0.00000
     90      10.5212      0.00000
     91      10.6302      0.00000
     92      10.6621      0.00000

 k-point    36 :      -0.1667    0.5000   -0.3333
  band No.  band energies     occupation 
      1     -31.3488      1.00000
      2     -31.3456      1.00000
      3     -31.2014      1.00000
      4     -31.1504      1.00000
      5     -31.0979      1.00000
      6     -31.0450      1.00000
      7     -13.3191      1.00000
      8     -13.1940      1.00000
      9     -13.1586      1.00000
     10     -13.0875      1.00000
     11     -13.0146      1.00000
     12     -12.9714      1.00000
     13     -12.9473      1.00000
     14     -12.8834      1.00000
     15     -12.7997      1.00000
     16     -12.7414      1.00000
     17     -12.6950      1.00000
     18     -12.6265      1.00000
     19     -12.5743      1.00000
     20     -12.5131      1.00000
     21     -12.4771      1.00000
     22     -12.4057      1.00000
     23     -12.3187      1.00000
     24     -12.2538      1.00000
     25      -9.9516      1.00000
     26      -9.7767      1.00000
     27      -9.5562      1.00000
     28      -9.4261      1.00000
     29      -9.3962      1.00000
     30      -9.1074      1.00000
     31      -9.0382      1.00000
     32      -8.9240      1.00000
     33      -8.8816      1.00000
     34      -8.7570      1.00000
     35      -8.7080      1.00000
     36      -8.6125      1.00000
     37      -0.7824      1.00000
     38      -0.7034      1.00000
     39      -0.3928      1.00000
     40      -0.2658      1.00000
     41       0.3396      1.00000
     42       0.3910      1.00000
     43       0.6487      1.00000
     44       0.7949      1.00000
     45       0.8959      1.00000
     46       1.1080      1.00000
     47       1.3093      1.00000
     48       1.4187      1.00000
     49       1.5566      1.00000
     50       1.7476      1.00000
     51       1.8146      1.00000
     52       1.9832      1.00000
     53       2.0113      1.00000
     54       2.1777      1.00000
     55       2.2344      1.00000
     56       2.5074      1.00000
     57       2.6113      1.00000
     58       2.7121      1.00000
     59       2.7630      1.00000
     60       2.8057      1.00000
     61       2.9177      1.00000
     62       2.9372      1.00000
     63       3.0482      1.00000
     64       3.1390      1.00000
     65       3.1551      1.00000
     66       3.3142      1.00000
     67       3.3834      1.00000
     68       3.4402      1.00000
     69       3.5006      1.00000
     70       3.5609      1.00000
     71       3.6229      1.00000
     72       3.7595      1.00000
     73       7.1168      0.00000
     74       7.5495      0.00000
     75       7.8224      0.00000
     76       7.9983      0.00000
     77       8.0326      0.00000
     78       8.2203      0.00000
     79       8.4638      0.00000
     80       8.8786      0.00000
     81       8.9393      0.00000
     82       9.2344      0.00000
     83       9.2824      0.00000
     84       9.5377      0.00000
     85       9.7107      0.00000
     86       9.8294      0.00000
     87       9.9387      0.00000
     88      10.0283      0.00000
     89      10.3934      0.00000
     90      10.5212      0.00000
     91      10.6304      0.00000
     92      10.6613      0.00000

 k-point    37 :      -0.3333    0.1667    0.3333
  band No.  band energies     occupation 
      1     -31.3495      1.00000
      2     -31.3457      1.00000
      3     -31.2256      1.00000
      4     -31.1252      1.00000
      5     -31.1145      1.00000
      6     -31.0281      1.00000
      7     -13.2888      1.00000
      8     -13.2056      1.00000
      9     -13.1674      1.00000
     10     -13.0754      1.00000
     11     -13.0296      1.00000
     12     -12.9828      1.00000
     13     -12.9740      1.00000
     14     -12.8661      1.00000
     15     -12.8479      1.00000
     16     -12.7775      1.00000
     17     -12.6601      1.00000
     18     -12.6175      1.00000
     19     -12.5562      1.00000
     20     -12.4699      1.00000
     21     -12.4355      1.00000
     22     -12.3883      1.00000
     23     -12.2947      1.00000
     24     -12.2776      1.00000
     25     -10.1451      1.00000
     26      -9.9200      1.00000
     27      -9.5117      1.00000
     28      -9.3511      1.00000
     29      -9.2789      1.00000
     30      -9.1233      1.00000
     31      -9.0222      1.00000
     32      -8.9178      1.00000
     33      -8.8244      1.00000
     34      -8.7873      1.00000
     35      -8.7000      1.00000
     36      -8.6060      1.00000
     37      -1.0267      1.00000
     38      -0.8818      1.00000
     39      -0.4506      1.00000
     40      -0.2319      1.00000
     41       0.2342      1.00000
     42       0.4675      1.00000
     43       0.6247      1.00000
     44       0.8291      1.00000
     45       0.8913      1.00000
     46       1.1074      1.00000
     47       1.2573      1.00000
     48       1.4201      1.00000
     49       1.6423      1.00000
     50       1.7457      1.00000
     51       1.9108      1.00000
     52       1.9422      1.00000
     53       2.1464      1.00000
     54       2.2524      1.00000
     55       2.3944      1.00000
     56       2.4782      1.00000
     57       2.5695      1.00000
     58       2.7146      1.00000
     59       2.7832      1.00000
     60       2.8025      1.00000
     61       2.9006      1.00000
     62       2.9938      1.00000
     63       3.0592      1.00000
     64       3.1078      1.00000
     65       3.1894      1.00000
     66       3.2740      1.00000
     67       3.3988      1.00000
     68       3.4292      1.00000
     69       3.5080      1.00000
     70       3.5959      1.00000
     71       3.6684      1.00000
     72       3.7194      1.00000
     73       7.4208      0.00000
     74       7.7192      0.00000
     75       7.9261      0.00000
     76       7.9967      0.00000
     77       8.2207      0.00000
     78       8.3204      0.00000
     79       8.5494      0.00000
     80       8.7610      0.00000
     81       9.0482      0.00000
     82       9.1750      0.00000
     83       9.3607      0.00000
     84       9.5314      0.00000
     85       9.6702      0.00000
     86       9.9068      0.00000
     87      10.0442      0.00000
     88      10.2485      0.00000
     89      10.3830      0.00000
     90      10.5092      0.00000
     91      10.6327      0.00000
     92      10.7772      0.00000

 k-point    38 :      -0.1667    0.3333   -0.3333
  band No.  band energies     occupation 
      1     -31.3495      1.00000
      2     -31.3457      1.00000
      3     -31.2256      1.00000
      4     -31.1252      1.00000
      5     -31.1145      1.00000
      6     -31.0281      1.00000
      7     -13.2888      1.00000
      8     -13.2056      1.00000
      9     -13.1674      1.00000
     10     -13.0754      1.00000
     11     -13.0296      1.00000
     12     -12.9828      1.00000
     13     -12.9740      1.00000
     14     -12.8661      1.00000
     15     -12.8479      1.00000
     16     -12.7775      1.00000
     17     -12.6601      1.00000
     18     -12.6175      1.00000
     19     -12.5562      1.00000
     20     -12.4699      1.00000
     21     -12.4355      1.00000
     22     -12.3883      1.00000
     23     -12.2947      1.00000
     24     -12.2776      1.00000
     25     -10.1451      1.00000
     26      -9.9200      1.00000
     27      -9.5117      1.00000
     28      -9.3511      1.00000
     29      -9.2789      1.00000
     30      -9.1233      1.00000
     31      -9.0222      1.00000
     32      -8.9178      1.00000
     33      -8.8244      1.00000
     34      -8.7873      1.00000
     35      -8.7000      1.00000
     36      -8.6060      1.00000
     37      -1.0267      1.00000
     38      -0.8818      1.00000
     39      -0.4506      1.00000
     40      -0.2319      1.00000
     41       0.2342      1.00000
     42       0.4675      1.00000
     43       0.6247      1.00000
     44       0.8291      1.00000
     45       0.8913      1.00000
     46       1.1074      1.00000
     47       1.2573      1.00000
     48       1.4201      1.00000
     49       1.6423      1.00000
     50       1.7457      1.00000
     51       1.9108      1.00000
     52       1.9422      1.00000
     53       2.1464      1.00000
     54       2.2524      1.00000
     55       2.3944      1.00000
     56       2.4782      1.00000
     57       2.5695      1.00000
     58       2.7146      1.00000
     59       2.7832      1.00000
     60       2.8025      1.00000
     61       2.9006      1.00000
     62       2.9938      1.00000
     63       3.0592      1.00000
     64       3.1078      1.00000
     65       3.1894      1.00000
     66       3.2740      1.00000
     67       3.3988      1.00000
     68       3.4292      1.00000
     69       3.5080      1.00000
     70       3.5959      1.00000
     71       3.6684      1.00000
     72       3.7194      1.00000
     73       7.4208      0.00000
     74       7.7192      0.00000
     75       7.9261      0.00000
     76       7.9967      0.00000
     77       8.2207      0.00000
     78       8.3204      0.00000
     79       8.5494      0.00000
     80       8.7610      0.00000
     81       9.0482      0.00000
     82       9.1750      0.00000
     83       9.3607      0.00000
     84       9.5314      0.00000
     85       9.6702      0.00000
     86       9.9068      0.00000
     87      10.0442      0.00000
     88      10.2485      0.00000
     89      10.3830      0.00000
     90      10.5093      0.00000
     91      10.6337      0.00000
     92      10.7712      0.00000

 k-point    39 :      -0.1667    0.1667    0.3333
  band No.  band energies     occupation 
      1     -31.3505      1.00000
      2     -31.3458      1.00000
      3     -31.2364      1.00000
      4     -31.1282      1.00000
      5     -31.1131      1.00000
      6     -31.0140      1.00000
      7     -13.2454      1.00000
      8     -13.2192      1.00000
      9     -13.1746      1.00000
     10     -13.0676      1.00000
     11     -13.0120      1.00000
     12     -12.9759      1.00000
     13     -12.9557      1.00000
     14     -12.8928      1.00000
     15     -12.8537      1.00000
     16     -12.8111      1.00000
     17     -12.6286      1.00000
     18     -12.5995      1.00000
     19     -12.5489      1.00000
     20     -12.4518      1.00000
     21     -12.4028      1.00000
     22     -12.3827      1.00000
     23     -12.3134      1.00000
     24     -12.2970      1.00000
     25     -10.3129      1.00000
     26     -10.0466      1.00000
     27      -9.5187      1.00000
     28      -9.2539      1.00000
     29      -9.2369      1.00000
     30      -9.0764      1.00000
     31      -8.9971      1.00000
     32      -8.9566      1.00000
     33      -8.8313      1.00000
     34      -8.7433      1.00000
     35      -8.6798      1.00000
     36      -8.6290      1.00000
     37      -1.1726      1.00000
     38      -0.9906      1.00000
     39      -0.5371      1.00000
     40      -0.3101      1.00000
     41       0.1631      1.00000
     42       0.5193      1.00000
     43       0.6380      1.00000
     44       0.7505      1.00000
     45       1.0404      1.00000
     46       1.1006      1.00000
     47       1.2974      1.00000
     48       1.4824      1.00000
     49       1.5316      1.00000
     50       1.6537      1.00000
     51       1.9046      1.00000
     52       2.0499      1.00000
     53       2.1598      1.00000
     54       2.2949      1.00000
     55       2.4866      1.00000
     56       2.5398      1.00000
     57       2.6772      1.00000
     58       2.7082      1.00000
     59       2.8127      1.00000
     60       2.8512      1.00000
     61       2.9091      1.00000
     62       2.9499      1.00000
     63       3.0458      1.00000
     64       3.1453      1.00000
     65       3.2697      1.00000
     66       3.3160      1.00000
     67       3.3750      1.00000
     68       3.4274      1.00000
     69       3.4619      1.00000
     70       3.5637      1.00000
     71       3.7045      1.00000
     72       3.7631      1.00000
     73       7.6509      0.00000
     74       7.8337      0.00000
     75       7.9756      0.00000
     76       8.1191      0.00000
     77       8.2896      0.00000
     78       8.6073      0.00000
     79       8.6753      0.00000
     80       8.7074      0.00000
     81       9.1084      0.00000
     82       9.1499      0.00000
     83       9.5133      0.00000
     84       9.6482      0.00000
     85       9.6903      0.00000
     86       9.7829      0.00000
     87       9.9772      0.00000
     88      10.1975      0.00000
     89      10.3208      0.00000
     90      10.5753      0.00000
     91      10.6818      0.00000
     92      10.8318      0.00000

 k-point    40 :      -0.1667    0.1667   -0.3333
  band No.  band energies     occupation 
      1     -31.3505      1.00000
      2     -31.3458      1.00000
      3     -31.2364      1.00000
      4     -31.1282      1.00000
      5     -31.1131      1.00000
      6     -31.0140      1.00000
      7     -13.2454      1.00000
      8     -13.2192      1.00000
      9     -13.1746      1.00000
     10     -13.0676      1.00000
     11     -13.0120      1.00000
     12     -12.9759      1.00000
     13     -12.9557      1.00000
     14     -12.8928      1.00000
     15     -12.8537      1.00000
     16     -12.8111      1.00000
     17     -12.6286      1.00000
     18     -12.5995      1.00000
     19     -12.5489      1.00000
     20     -12.4518      1.00000
     21     -12.4028      1.00000
     22     -12.3827      1.00000
     23     -12.3134      1.00000
     24     -12.2970      1.00000
     25     -10.3129      1.00000
     26     -10.0466      1.00000
     27      -9.5187      1.00000
     28      -9.2539      1.00000
     29      -9.2369      1.00000
     30      -9.0764      1.00000
     31      -8.9971      1.00000
     32      -8.9566      1.00000
     33      -8.8313      1.00000
     34      -8.7433      1.00000
     35      -8.6798      1.00000
     36      -8.6290      1.00000
     37      -1.1726      1.00000
     38      -0.9906      1.00000
     39      -0.5371      1.00000
     40      -0.3101      1.00000
     41       0.1631      1.00000
     42       0.5193      1.00000
     43       0.6380      1.00000
     44       0.7505      1.00000
     45       1.0404      1.00000
     46       1.1006      1.00000
     47       1.2974      1.00000
     48       1.4824      1.00000
     49       1.5316      1.00000
     50       1.6537      1.00000
     51       1.9046      1.00000
     52       2.0499      1.00000
     53       2.1598      1.00000
     54       2.2949      1.00000
     55       2.4866      1.00000
     56       2.5398      1.00000
     57       2.6772      1.00000
     58       2.7082      1.00000
     59       2.8127      1.00000
     60       2.8512      1.00000
     61       2.9091      1.00000
     62       2.9499      1.00000
     63       3.0458      1.00000
     64       3.1453      1.00000
     65       3.2697      1.00000
     66       3.3160      1.00000
     67       3.3750      1.00000
     68       3.4274      1.00000
     69       3.4619      1.00000
     70       3.5637      1.00000
     71       3.7045      1.00000
     72       3.7631      1.00000
     73       7.6509      0.00000
     74       7.8337      0.00000
     75       7.9756      0.00000
     76       8.1191      0.00000
     77       8.2896      0.00000
     78       8.6073      0.00000
     79       8.6753      0.00000
     80       8.7074      0.00000
     81       9.1084      0.00000
     82       9.1499      0.00000
     83       9.5133      0.00000
     84       9.6482      0.00000
     85       9.6903      0.00000
     86       9.7829      0.00000
     87       9.9772      0.00000
     88      10.1975      0.00000
     89      10.3208      0.00000
     90      10.5753      0.00000
     91      10.6819      0.00000
     92      10.8326      0.00000

 k-point    41 :       0.3333    0.3333    0.3333
  band No.  band energies     occupation 
      1     -31.3484      1.00000
      2     -31.3455      1.00000
      3     -31.1964      1.00000
      4     -31.1557      1.00000
      5     -31.0842      1.00000
      6     -31.0589      1.00000
      7     -13.3683      1.00000
      8     -13.2217      1.00000
      9     -13.1259      1.00000
     10     -13.0904      1.00000
     11     -13.0303      1.00000
     12     -12.9599      1.00000
     13     -12.8975      1.00000
     14     -12.8881      1.00000
     15     -12.7711      1.00000
     16     -12.7105      1.00000
     17     -12.6816      1.00000
     18     -12.6674      1.00000
     19     -12.6214      1.00000
     20     -12.5601      1.00000
     21     -12.5006      1.00000
     22     -12.3960      1.00000
     23     -12.2898      1.00000
     24     -12.2206      1.00000
     25      -9.9148      1.00000
     26      -9.6996      1.00000
     27      -9.5874      1.00000
     28      -9.4199      1.00000
     29      -9.4038      1.00000
     30      -9.1015      1.00000
     31      -9.0689      1.00000
     32      -8.9200      1.00000
     33      -8.9035      1.00000
     34      -8.7601      1.00000
     35      -8.7252      1.00000
     36      -8.5974      1.00000
     37      -0.7459      1.00000
     38      -0.6283      1.00000
     39      -0.2364      1.00000
     40      -0.1136      1.00000
     41       0.0839      1.00000
     42       0.3016      1.00000
     43       0.7299      1.00000
     44       0.8481      1.00000
     45       0.8723      1.00000
     46       0.9008      1.00000
     47       1.2418      1.00000
     48       1.4638      1.00000
     49       1.6413      1.00000
     50       1.6887      1.00000
     51       1.8670      1.00000
     52       1.9503      1.00000
     53       1.9748      1.00000
     54       2.0117      1.00000
     55       2.2866      1.00000
     56       2.4125      1.00000
     57       2.6907      1.00000
     58       2.7344      1.00000
     59       2.7937      1.00000
     60       2.9047      1.00000
     61       2.9312      1.00000
     62       2.9767      1.00000
     63       3.0540      1.00000
     64       3.2010      1.00000
     65       3.2168      1.00000
     66       3.2556      1.00000
     67       3.2902      1.00000
     68       3.4875      1.00000
     69       3.4891      1.00000
     70       3.5154      1.00000
     71       3.6745      1.00000
     72       3.7804      1.00000
     73       7.0773      0.00000
     74       7.3054      0.00000
     75       7.5087      0.00000
     76       7.8704      0.00000
     77       7.9378      0.00000
     78       8.2515      0.00000
     79       8.4227      0.00000
     80       8.7922      0.00000
     81       9.0940      0.00000
     82       9.1800      0.00000
     83       9.3104      0.00000
     84       9.3937      0.00000
     85       9.6796      0.00000
     86      10.0047      0.00000
     87      10.1630      0.00000
     88      10.2576      0.00000
     89      10.3333      0.00000
     90      10.6244      0.00000
     91      10.6387      0.00000
     92      10.6685      0.00000

 k-point    42 :       0.5000    0.3333    0.3333
  band No.  band energies     occupation 
      1     -31.3482      1.00000
      2     -31.3455      1.00000
      3     -31.2186      1.00000
      4     -31.1333      1.00000
      5     -31.0874      1.00000
      6     -31.0558      1.00000
      7     -13.3687      1.00000
      8     -13.1980      1.00000
      9     -13.1589      1.00000
     10     -13.1193      1.00000
     11     -13.0560      1.00000
     12     -13.0268      1.00000
     13     -12.9085      1.00000
     14     -12.8656      1.00000
     15     -12.8069      1.00000
     16     -12.7170      1.00000
     17     -12.6986      1.00000
     18     -12.6465      1.00000
     19     -12.5885      1.00000
     20     -12.5331      1.00000
     21     -12.4638      1.00000
     22     -12.3720      1.00000
     23     -12.2408      1.00000
     24     -12.2180      1.00000
     25      -9.9700      1.00000
     26      -9.7388      1.00000
     27      -9.5990      1.00000
     28      -9.4251      1.00000
     29      -9.2904      1.00000
     30      -9.0906      1.00000
     31      -9.0463      1.00000
     32      -8.9434      1.00000
     33      -8.9120      1.00000
     34      -8.7525      1.00000
     35      -8.7126      1.00000
     36      -8.5935      1.00000
     37      -0.9118      1.00000
     38      -0.7725      1.00000
     39      -0.1207      1.00000
     40      -0.0967      1.00000
     41       0.1297      1.00000
     42       0.3575      1.00000
     43       0.5668      1.00000
     44       0.7453      1.00000
     45       0.8472      1.00000
     46       1.0701      1.00000
     47       1.2226      1.00000
     48       1.4716      1.00000
     49       1.5981      1.00000
     50       1.7216      1.00000
     51       1.7895      1.00000
     52       1.9216      1.00000
     53       2.1057      1.00000
     54       2.1985      1.00000
     55       2.2770      1.00000
     56       2.3948      1.00000
     57       2.5766      1.00000
     58       2.7786      1.00000
     59       2.7931      1.00000
     60       2.8694      1.00000
     61       2.9302      1.00000
     62       2.9782      1.00000
     63       3.0834      1.00000
     64       3.1309      1.00000
     65       3.1564      1.00000
     66       3.1878      1.00000
     67       3.3767      1.00000
     68       3.4661      1.00000
     69       3.4946      1.00000
     70       3.5517      1.00000
     71       3.7934      1.00000
     72       3.8413      1.00000
     73       7.0497      0.00000
     74       7.2844      0.00000
     75       7.4417      0.00000
     76       7.9164      0.00000
     77       7.9507      0.00000
     78       8.1853      0.00000
     79       8.7081      0.00000
     80       8.7959      0.00000
     81       9.1135      0.00000
     82       9.1760      0.00000
     83       9.2490      0.00000
     84       9.5243      0.00000
     85       9.7104      0.00000
     86       9.8592      0.00000
     87      10.2410      0.00000
     88      10.2901      0.00000
     89      10.4343      0.00000
     90      10.6157      0.00000
     91      10.7287      0.00000
     92      10.7990      0.00000

 k-point    43 :      -0.3333    0.5000   -0.3333
  band No.  band energies     occupation 
      1     -31.3482      1.00000
      2     -31.3455      1.00000
      3     -31.2186      1.00000
      4     -31.1333      1.00000
      5     -31.0874      1.00000
      6     -31.0558      1.00000
      7     -13.3687      1.00000
      8     -13.1980      1.00000
      9     -13.1589      1.00000
     10     -13.1193      1.00000
     11     -13.0560      1.00000
     12     -13.0268      1.00000
     13     -12.9085      1.00000
     14     -12.8656      1.00000
     15     -12.8069      1.00000
     16     -12.7170      1.00000
     17     -12.6986      1.00000
     18     -12.6465      1.00000
     19     -12.5885      1.00000
     20     -12.5331      1.00000
     21     -12.4638      1.00000
     22     -12.3720      1.00000
     23     -12.2408      1.00000
     24     -12.2180      1.00000
     25      -9.9700      1.00000
     26      -9.7388      1.00000
     27      -9.5990      1.00000
     28      -9.4251      1.00000
     29      -9.2904      1.00000
     30      -9.0906      1.00000
     31      -9.0463      1.00000
     32      -8.9434      1.00000
     33      -8.9120      1.00000
     34      -8.7525      1.00000
     35      -8.7126      1.00000
     36      -8.5935      1.00000
     37      -0.9118      1.00000
     38      -0.7725      1.00000
     39      -0.1207      1.00000
     40      -0.0967      1.00000
     41       0.1297      1.00000
     42       0.3575      1.00000
     43       0.5668      1.00000
     44       0.7453      1.00000
     45       0.8472      1.00000
     46       1.0701      1.00000
     47       1.2226      1.00000
     48       1.4716      1.00000
     49       1.5981      1.00000
     50       1.7216      1.00000
     51       1.7895      1.00000
     52       1.9216      1.00000
     53       2.1057      1.00000
     54       2.1985      1.00000
     55       2.2770      1.00000
     56       2.3948      1.00000
     57       2.5766      1.00000
     58       2.7786      1.00000
     59       2.7931      1.00000
     60       2.8694      1.00000
     61       2.9302      1.00000
     62       2.9782      1.00000
     63       3.0834      1.00000
     64       3.1309      1.00000
     65       3.1564      1.00000
     66       3.1878      1.00000
     67       3.3767      1.00000
     68       3.4661      1.00000
     69       3.4946      1.00000
     70       3.5517      1.00000
     71       3.7934      1.00000
     72       3.8413      1.00000
     73       7.0497      0.00000
     74       7.2844      0.00000
     75       7.4417      0.00000
     76       7.9164      0.00000
     77       7.9507      0.00000
     78       8.1853      0.00000
     79       8.7081      0.00000
     80       8.7959      0.00000
     81       9.1135      0.00000
     82       9.1760      0.00000
     83       9.2490      0.00000
     84       9.5243      0.00000
     85       9.7104      0.00000
     86       9.8592      0.00000
     87      10.2410      0.00000
     88      10.2901      0.00000
     89      10.4343      0.00000
     90      10.6158      0.00000
     91      10.7276      0.00000
     92      10.7945      0.00000

 k-point    44 :      -0.3333    0.3333    0.3333
  band No.  band energies     occupation 
      1     -31.3488      1.00000
      2     -31.3456      1.00000
      3     -31.2292      1.00000
      4     -31.1220      1.00000
      5     -31.1047      1.00000
      6     -31.0382      1.00000
      7     -13.3197      1.00000
      8     -13.2289      1.00000
      9     -13.1484      1.00000
     10     -13.1190      1.00000
     11     -13.0550      1.00000
     12     -13.0217      1.00000
     13     -12.9610      1.00000
     14     -12.8486      1.00000
     15     -12.8452      1.00000
     16     -12.7598      1.00000
     17     -12.6703      1.00000
     18     -12.6122      1.00000
     19     -12.5744      1.00000
     20     -12.4893      1.00000
     21     -12.4375      1.00000
     22     -12.3690      1.00000
     23     -12.2428      1.00000
     24     -12.2406      1.00000
     25     -10.0846      1.00000
     26      -9.8677      1.00000
     27      -9.5170      1.00000
     28      -9.3948      1.00000
     29      -9.2452      1.00000
     30      -9.0856      1.00000
     31      -9.0452      1.00000
     32      -8.9809      1.00000
     33      -8.8388      1.00000
     34      -8.7641      1.00000
     35      -8.6652      1.00000
     36      -8.6286      1.00000
     37      -1.0431      1.00000
     38      -0.8693      1.00000
     39      -0.2493      1.00000
     40      -0.1581      1.00000
     41       0.1256      1.00000
     42       0.5055      1.00000
     43       0.6009      1.00000
     44       0.6301      1.00000
     45       0.9297      1.00000
     46       1.1214      1.00000
     47       1.2443      1.00000
     48       1.4575      1.00000
     49       1.5450      1.00000
     50       1.6456      1.00000
     51       1.8640      1.00000
     52       2.0261      1.00000
     53       2.2072      1.00000
     54       2.2223      1.00000
     55       2.3720      1.00000
     56       2.4611      1.00000
     57       2.5525      1.00000
     58       2.6770      1.00000
     59       2.7460      1.00000
     60       2.8689      1.00000
     61       2.9359      1.00000
     62       3.0140      1.00000
     63       3.0176      1.00000
     64       3.1232      1.00000
     65       3.2084      1.00000
     66       3.3092      1.00000
     67       3.3648      1.00000
     68       3.4435      1.00000
     69       3.5662      1.00000
     70       3.5858      1.00000
     71       3.6870      1.00000
     72       3.7276      1.00000
     73       7.2311      0.00000
     74       7.4654      0.00000
     75       7.6715      0.00000
     76       7.9563      0.00000
     77       8.0554      0.00000
     78       8.2971      0.00000
     79       8.7068      0.00000
     80       8.8175      0.00000
     81       8.9677      0.00000
     82       9.2134      0.00000
     83       9.2990      0.00000
     84       9.5715      0.00000
     85       9.6082      0.00000
     86       9.9420      0.00000
     87      10.2676      0.00000
     88      10.3709      0.00000
     89      10.4577      0.00000
     90      10.5101      0.00000
     91      10.6842      0.00000
     92      10.8169      0.00000

 k-point    45 :      -0.3333    0.3333   -0.3333
  band No.  band energies     occupation 
      1     -31.3488      1.00000
      2     -31.3456      1.00000
      3     -31.2292      1.00000
      4     -31.1220      1.00000
      5     -31.1047      1.00000
      6     -31.0382      1.00000
      7     -13.3197      1.00000
      8     -13.2289      1.00000
      9     -13.1484      1.00000
     10     -13.1190      1.00000
     11     -13.0550      1.00000
     12     -13.0217      1.00000
     13     -12.9610      1.00000
     14     -12.8486      1.00000
     15     -12.8452      1.00000
     16     -12.7598      1.00000
     17     -12.6703      1.00000
     18     -12.6122      1.00000
     19     -12.5744      1.00000
     20     -12.4893      1.00000
     21     -12.4375      1.00000
     22     -12.3690      1.00000
     23     -12.2428      1.00000
     24     -12.2406      1.00000
     25     -10.0846      1.00000
     26      -9.8677      1.00000
     27      -9.5170      1.00000
     28      -9.3948      1.00000
     29      -9.2452      1.00000
     30      -9.0856      1.00000
     31      -9.0452      1.00000
     32      -8.9809      1.00000
     33      -8.8388      1.00000
     34      -8.7641      1.00000
     35      -8.6652      1.00000
     36      -8.6286      1.00000
     37      -1.0431      1.00000
     38      -0.8693      1.00000
     39      -0.2493      1.00000
     40      -0.1581      1.00000
     41       0.1256      1.00000
     42       0.5055      1.00000
     43       0.6009      1.00000
     44       0.6301      1.00000
     45       0.9297      1.00000
     46       1.1214      1.00000
     47       1.2443      1.00000
     48       1.4575      1.00000
     49       1.5450      1.00000
     50       1.6456      1.00000
     51       1.8640      1.00000
     52       2.0261      1.00000
     53       2.2072      1.00000
     54       2.2223      1.00000
     55       2.3720      1.00000
     56       2.4611      1.00000
     57       2.5525      1.00000
     58       2.6770      1.00000
     59       2.7460      1.00000
     60       2.8689      1.00000
     61       2.9359      1.00000
     62       3.0140      1.00000
     63       3.0176      1.00000
     64       3.1232      1.00000
     65       3.2084      1.00000
     66       3.3092      1.00000
     67       3.3648      1.00000
     68       3.4435      1.00000
     69       3.5662      1.00000
     70       3.5858      1.00000
     71       3.6870      1.00000
     72       3.7276      1.00000
     73       7.2311      0.00000
     74       7.4654      0.00000
     75       7.6715      0.00000
     76       7.9563      0.00000
     77       8.0554      0.00000
     78       8.2971      0.00000
     79       8.7068      0.00000
     80       8.8175      0.00000
     81       8.9677      0.00000
     82       9.2134      0.00000
     83       9.2990      0.00000
     84       9.5715      0.00000
     85       9.6082      0.00000
     86       9.9420      0.00000
     87      10.2676      0.00000
     88      10.3709      0.00000
     89      10.4577      0.00000
     90      10.5101      0.00000
     91      10.6850      0.00000
     92      10.8211      0.00000

 k-point    46 :      -0.1667    0.3333    0.3333
  band No.  band energies     occupation 
      1     -31.3495      1.00000
      2     -31.3457      1.00000
      3     -31.2256      1.00000
      4     -31.1252      1.00000
      5     -31.1145      1.00000
      6     -31.0281      1.00000
      7     -13.2924      1.00000
      8     -13.1990      1.00000
      9     -13.1589      1.00000
     10     -13.0984      1.00000
     11     -13.0013      1.00000
     12     -12.9977      1.00000
     13     -12.9779      1.00000
     14     -12.8807      1.00000
     15     -12.8299      1.00000
     16     -12.7804      1.00000
     17     -12.6513      1.00000
     18     -12.6143      1.00000
     19     -12.5602      1.00000
     20     -12.4795      1.00000
     21     -12.4264      1.00000
     22     -12.4003      1.00000
     23     -12.2901      1.00000
     24     -12.2763      1.00000
     25     -10.1380      1.00000
     26      -9.9136      1.00000
     27      -9.5414      1.00000
     28      -9.3678      1.00000
     29      -9.2981      1.00000
     30      -9.0787      1.00000
     31      -8.9552      1.00000
     32      -8.9127      1.00000
     33      -8.8863      1.00000
     34      -8.7657      1.00000
     35      -8.7192      1.00000
     36      -8.6108      1.00000
     37      -1.0061      1.00000
     38      -0.9063      1.00000
     39      -0.4388      1.00000
     40      -0.2257      1.00000
     41       0.2439      1.00000
     42       0.5021      1.00000
     43       0.5824      1.00000
     44       0.7088      1.00000
     45       0.9794      1.00000
     46       1.0722      1.00000
     47       1.2837      1.00000
     48       1.4895      1.00000
     49       1.5806      1.00000
     50       1.7050      1.00000
     51       1.8428      1.00000
     52       2.0088      1.00000
     53       2.1404      1.00000
     54       2.3149      1.00000
     55       2.3635      1.00000
     56       2.5232      1.00000
     57       2.6712      1.00000
     58       2.7336      1.00000
     59       2.7568      1.00000
     60       2.7714      1.00000
     61       2.8976      1.00000
     62       3.0083      1.00000
     63       3.0488      1.00000
     64       3.1039      1.00000
     65       3.1753      1.00000
     66       3.3245      1.00000
     67       3.3838      1.00000
     68       3.4572      1.00000
     69       3.5208      1.00000
     70       3.5362      1.00000
     71       3.5648      1.00000
     72       3.7351      1.00000
     73       7.3562      0.00000
     74       7.6856      0.00000
     75       7.9911      0.00000
     76       8.0733      0.00000
     77       8.2483      0.00000
     78       8.3545      0.00000
     79       8.6316      0.00000
     80       8.7592      0.00000
     81       8.8952      0.00000
     82       9.0869      0.00000
     83       9.4756      0.00000
     84       9.5341      0.00000
     85       9.7209      0.00000
     86       9.8296      0.00000
     87       9.8966      0.00000
     88      10.2078      0.00000
     89      10.4056      0.00000
     90      10.5288      0.00000
     91      10.6556      0.00000
     92      10.6891      0.00000

 k-point    47 :      -0.3333    0.1667   -0.3333
  band No.  band energies     occupation 
      1     -31.3495      1.00000
      2     -31.3457      1.00000
      3     -31.2256      1.00000
      4     -31.1252      1.00000
      5     -31.1145      1.00000
      6     -31.0281      1.00000
      7     -13.2924      1.00000
      8     -13.1990      1.00000
      9     -13.1589      1.00000
     10     -13.0984      1.00000
     11     -13.0013      1.00000
     12     -12.9977      1.00000
     13     -12.9779      1.00000
     14     -12.8807      1.00000
     15     -12.8299      1.00000
     16     -12.7804      1.00000
     17     -12.6513      1.00000
     18     -12.6143      1.00000
     19     -12.5602      1.00000
     20     -12.4795      1.00000
     21     -12.4264      1.00000
     22     -12.4003      1.00000
     23     -12.2901      1.00000
     24     -12.2763      1.00000
     25     -10.1380      1.00000
     26      -9.9136      1.00000
     27      -9.5414      1.00000
     28      -9.3678      1.00000
     29      -9.2981      1.00000
     30      -9.0787      1.00000
     31      -8.9552      1.00000
     32      -8.9127      1.00000
     33      -8.8863      1.00000
     34      -8.7657      1.00000
     35      -8.7192      1.00000
     36      -8.6108      1.00000
     37      -1.0061      1.00000
     38      -0.9063      1.00000
     39      -0.4388      1.00000
     40      -0.2257      1.00000
     41       0.2439      1.00000
     42       0.5021      1.00000
     43       0.5824      1.00000
     44       0.7088      1.00000
     45       0.9794      1.00000
     46       1.0722      1.00000
     47       1.2837      1.00000
     48       1.4895      1.00000
     49       1.5806      1.00000
     50       1.7050      1.00000
     51       1.8428      1.00000
     52       2.0088      1.00000
     53       2.1404      1.00000
     54       2.3149      1.00000
     55       2.3635      1.00000
     56       2.5232      1.00000
     57       2.6712      1.00000
     58       2.7336      1.00000
     59       2.7568      1.00000
     60       2.7714      1.00000
     61       2.8976      1.00000
     62       3.0083      1.00000
     63       3.0488      1.00000
     64       3.1039      1.00000
     65       3.1753      1.00000
     66       3.3245      1.00000
     67       3.3838      1.00000
     68       3.4572      1.00000
     69       3.5208      1.00000
     70       3.5362      1.00000
     71       3.5648      1.00000
     72       3.7351      1.00000
     73       7.3562      0.00000
     74       7.6856      0.00000
     75       7.9911      0.00000
     76       8.0733      0.00000
     77       8.2483      0.00000
     78       8.3545      0.00000
     79       8.6316      0.00000
     80       8.7592      0.00000
     81       8.8952      0.00000
     82       9.0869      0.00000
     83       9.4756      0.00000
     84       9.5341      0.00000
     85       9.7209      0.00000
     86       9.8296      0.00000
     87       9.8966      0.00000
     88      10.2078      0.00000
     89      10.4056      0.00000
     90      10.5288      0.00000
     91      10.6555      0.00000
     92      10.6902      0.00000

 k-point    48 :       0.5000    0.5000    0.3333
  band No.  band energies     occupation 
      1     -31.3479      1.00000
      2     -31.3454      1.00000
      3     -31.2251      1.00000
      4     -31.1269      1.00000
      5     -31.0767      1.00000
      6     -31.0665      1.00000
      7     -13.3530      1.00000
      8     -13.2380      1.00000
      9     -13.1449      1.00000
     10     -13.1225      1.00000
     11     -13.0939      1.00000
     12     -13.0567      1.00000
     13     -12.9212      1.00000
     14     -12.8449      1.00000
     15     -12.8230      1.00000
     16     -12.7305      1.00000
     17     -12.7081      1.00000
     18     -12.6250      1.00000
     19     -12.5790      1.00000
     20     -12.5176      1.00000
     21     -12.4507      1.00000
     22     -12.3595      1.00000
     23     -12.2139      1.00000
     24     -12.2100      1.00000
     25      -9.9456      1.00000
     26      -9.6703      1.00000
     27      -9.6626      1.00000
     28      -9.4864      1.00000
     29      -9.2041      1.00000
     30      -9.1044      1.00000
     31      -9.0397      1.00000
     32      -8.9889      1.00000
     33      -8.9000      1.00000
     34      -8.7402      1.00000
     35      -8.6748      1.00000
     36      -8.6241      1.00000
     37      -0.9708      1.00000
     38      -0.8044      1.00000
     39      -0.0607      1.00000
     40      -0.0192      1.00000
     41       0.0663      1.00000
     42       0.3705      1.00000
     43       0.6829      1.00000
     44       0.6897      1.00000
     45       0.8420      1.00000
     46       0.9975      1.00000
     47       1.1807      1.00000
     48       1.5293      1.00000
     49       1.5412      1.00000
     50       1.6622      1.00000
     51       1.6860      1.00000
     52       1.9284      1.00000
     53       2.1660      1.00000
     54       2.2956      1.00000
     55       2.3837      1.00000
     56       2.5564      1.00000
     57       2.5713      1.00000
     58       2.5855      1.00000
     59       2.7015      1.00000
     60       2.7395      1.00000
     61       2.8951      1.00000
     62       2.9445      1.00000
     63       3.0682      1.00000
     64       3.1132      1.00000
     65       3.1981      1.00000
     66       3.3475      1.00000
     67       3.3839      1.00000
     68       3.4152      1.00000
     69       3.5646      1.00000
     70       3.5983      1.00000
     71       3.8242      1.00000
     72       3.8761      1.00000
     73       6.7996      0.00000
     74       7.2859      0.00000
     75       7.4128      0.00000
     76       7.8764      0.00000
     77       7.9544      0.00000
     78       8.2259      0.00000
     79       8.5130      0.00000
     80       9.0206      0.00000
     81       9.1134      0.00000
     82       9.3057      0.00000
     83       9.3896      0.00000
     84       9.6371      0.00000
     85       9.6956      0.00000
     86       9.8773      0.00000
     87      10.0092      0.00000
     88      10.2507      0.00000
     89      10.5256      0.00000
     90      10.6020      0.00000
     91      10.8236      0.00000
     92      10.8389      0.00000

 k-point    49 :      -0.3333    0.5000    0.3333
  band No.  band energies     occupation 
      1     -31.3482      1.00000
      2     -31.3455      1.00000
      3     -31.2186      1.00000
      4     -31.1333      1.00000
      5     -31.0874      1.00000
      6     -31.0558      1.00000
      7     -13.3711      1.00000
      8     -13.2074      1.00000
      9     -13.1467      1.00000
     10     -13.1172      1.00000
     11     -13.0454      1.00000
     12     -13.0110      1.00000
     13     -12.9532      1.00000
     14     -12.8616      1.00000
     15     -12.7889      1.00000
     16     -12.7296      1.00000
     17     -12.7102      1.00000
     18     -12.6171      1.00000
     19     -12.5958      1.00000
     20     -12.5400      1.00000
     21     -12.4559      1.00000
     22     -12.3780      1.00000
     23     -12.2401      1.00000
     24     -12.2180      1.00000
     25      -9.9706      1.00000
     26      -9.7321      1.00000
     27      -9.5420      1.00000
     28      -9.4965      1.00000
     29      -9.3120      1.00000
     30      -9.1400      1.00000
     31      -8.9829      1.00000
     32      -8.9342      1.00000
     33      -8.8433      1.00000
     34      -8.7869      1.00000
     35      -8.7248      1.00000
     36      -8.6088      1.00000
     37      -0.9022      1.00000
     38      -0.7824      1.00000
     39      -0.1206      1.00000
     40      -0.0986      1.00000
     41       0.1369      1.00000
     42       0.3607      1.00000
     43       0.6177      1.00000
     44       0.6568      1.00000
     45       0.9485      1.00000
     46       1.0435      1.00000
     47       1.0989      1.00000
     48       1.5527      1.00000
     49       1.6154      1.00000
     50       1.7490      1.00000
     51       1.7896      1.00000
     52       1.9251      1.00000
     53       2.0171      1.00000
     54       2.1382      1.00000
     55       2.2785      1.00000
     56       2.4252      1.00000
     57       2.6747      1.00000
     58       2.7735      1.00000
     59       2.7815      1.00000
     60       2.8651      1.00000
     61       2.8942      1.00000
     62       3.0009      1.00000
     63       3.0723      1.00000
     64       3.1182      1.00000
     65       3.1771      1.00000
     66       3.3174      1.00000
     67       3.3302      1.00000
     68       3.3726      1.00000
     69       3.5399      1.00000
     70       3.6499      1.00000
     71       3.7006      1.00000
     72       3.8085      1.00000
     73       7.0069      0.00000
     74       7.2955      0.00000
     75       7.5107      0.00000
     76       7.8696      0.00000
     77       7.9339      0.00000
     78       8.2455      0.00000
     79       8.4742      0.00000
     80       8.7337      0.00000
     81       9.0882      0.00000
     82       9.3211      0.00000
     83       9.3962      0.00000
     84       9.5290      0.00000
     85       9.8241      0.00000
     86      10.0243      0.00000
     87      10.1253      0.00000
     88      10.1727      0.00000
     89      10.4410      0.00000
     90      10.5840      0.00000
     91      10.7969      0.00000
     92      10.8678      0.00000

 k-point    50 :       0.5000    0.3333   -0.3333
  band No.  band energies     occupation 
      1     -31.3482      1.00000
      2     -31.3455      1.00000
      3     -31.2186      1.00000
      4     -31.1333      1.00000
      5     -31.0874      1.00000
      6     -31.0558      1.00000
      7     -13.3711      1.00000
      8     -13.2074      1.00000
      9     -13.1467      1.00000
     10     -13.1172      1.00000
     11     -13.0454      1.00000
     12     -13.0110      1.00000
     13     -12.9532      1.00000
     14     -12.8616      1.00000
     15     -12.7889      1.00000
     16     -12.7296      1.00000
     17     -12.7102      1.00000
     18     -12.6171      1.00000
     19     -12.5958      1.00000
     20     -12.5400      1.00000
     21     -12.4559      1.00000
     22     -12.3780      1.00000
     23     -12.2401      1.00000
     24     -12.2180      1.00000
     25      -9.9706      1.00000
     26      -9.7321      1.00000
     27      -9.5420      1.00000
     28      -9.4965      1.00000
     29      -9.3120      1.00000
     30      -9.1400      1.00000
     31      -8.9829      1.00000
     32      -8.9342      1.00000
     33      -8.8433      1.00000
     34      -8.7869      1.00000
     35      -8.7248      1.00000
     36      -8.6088      1.00000
     37      -0.9022      1.00000
     38      -0.7824      1.00000
     39      -0.1206      1.00000
     40      -0.0986      1.00000
     41       0.1369      1.00000
     42       0.3607      1.00000
     43       0.6177      1.00000
     44       0.6568      1.00000
     45       0.9485      1.00000
     46       1.0435      1.00000
     47       1.0989      1.00000
     48       1.5527      1.00000
     49       1.6154      1.00000
     50       1.7490      1.00000
     51       1.7896      1.00000
     52       1.9251      1.00000
     53       2.0171      1.00000
     54       2.1382      1.00000
     55       2.2785      1.00000
     56       2.4252      1.00000
     57       2.6747      1.00000
     58       2.7735      1.00000
     59       2.7815      1.00000
     60       2.8651      1.00000
     61       2.8942      1.00000
     62       3.0009      1.00000
     63       3.0723      1.00000
     64       3.1182      1.00000
     65       3.1771      1.00000
     66       3.3174      1.00000
     67       3.3302      1.00000
     68       3.3726      1.00000
     69       3.5399      1.00000
     70       3.6499      1.00000
     71       3.7006      1.00000
     72       3.8085      1.00000
     73       7.0069      0.00000
     74       7.2955      0.00000
     75       7.5107      0.00000
     76       7.8696      0.00000
     77       7.9339      0.00000
     78       8.2455      0.00000
     79       8.4742      0.00000
     80       8.7337      0.00000
     81       9.0882      0.00000
     82       9.3211      0.00000
     83       9.3962      0.00000
     84       9.5290      0.00000
     85       9.8241      0.00000
     86      10.0243      0.00000
     87      10.1253      0.00000
     88      10.1727      0.00000
     89      10.4410      0.00000
     90      10.5840      0.00000
     91      10.7970      0.00000
     92      10.8646      0.00000

 k-point    51 :      -0.1667    0.5000    0.3333
  band No.  band energies     occupation 
      1     -31.3488      1.00000
      2     -31.3456      1.00000
      3     -31.2014      1.00000
      4     -31.1504      1.00000
      5     -31.0979      1.00000
      6     -31.0450      1.00000
      7     -13.3225      1.00000
      8     -13.2143      1.00000
      9     -13.1141      1.00000
     10     -13.0764      1.00000
     11     -13.0214      1.00000
     12     -13.0043      1.00000
     13     -12.9480      1.00000
     14     -12.8895      1.00000
     15     -12.7844      1.00000
     16     -12.7443      1.00000
     17     -12.6999      1.00000
     18     -12.6103      1.00000
     19     -12.5552      1.00000
     20     -12.5482      1.00000
     21     -12.4601      1.00000
     22     -12.4201      1.00000
     23     -12.3147      1.00000
     24     -12.2537      1.00000
     25      -9.9584      1.00000
     26      -9.7283      1.00000
     27      -9.5648      1.00000
     28      -9.4761      1.00000
     29      -9.4180      1.00000
     30      -9.1202      1.00000
     31      -8.9802      1.00000
     32      -8.9110      1.00000
     33      -8.8370      1.00000
     34      -8.7908      1.00000
     35      -8.7376      1.00000
     36      -8.6128      1.00000
     37      -0.7799      1.00000
     38      -0.7173      1.00000
     39      -0.3757      1.00000
     40      -0.2673      1.00000
     41       0.3476      1.00000
     42       0.3941      1.00000
     43       0.6471      1.00000
     44       0.7214      1.00000
     45       0.9501      1.00000
     46       1.1204      1.00000
     47       1.2878      1.00000
     48       1.5073      1.00000
     49       1.5580      1.00000
     50       1.7524      1.00000
     51       1.8645      1.00000
     52       1.8735      1.00000
     53       1.9114      1.00000
     54       2.1419      1.00000
     55       2.3261      1.00000
     56       2.5084      1.00000
     57       2.5986      1.00000
     58       2.7235      1.00000
     59       2.7484      1.00000
     60       2.8311      1.00000
     61       2.9176      1.00000
     62       2.9439      1.00000
     63       3.0623      1.00000
     64       3.1126      1.00000
     65       3.1556      1.00000
     66       3.3251      1.00000
     67       3.3909      1.00000
     68       3.4701      1.00000
     69       3.5117      1.00000
     70       3.5594      1.00000
     71       3.5975      1.00000
     72       3.7555      1.00000
     73       7.0760      0.00000
     74       7.5447      0.00000
     75       7.8712      0.00000
     76       7.9217      0.00000
     77       8.1211      0.00000
     78       8.2046      0.00000
     79       8.4991      0.00000
     80       8.7600      0.00000
     81       8.9548      0.00000
     82       9.1447      0.00000
     83       9.4280      0.00000
     84       9.5752      0.00000
     85       9.7191      0.00000
     86       9.8439      0.00000
     87       9.9326      0.00000
     88       9.9550      0.00000
     89      10.3148      0.00000
     90      10.4975      0.00000
     91      10.6505      0.00000
     92      10.7893      0.00000

 k-point    52 :       0.5000    0.1667   -0.3333
  band No.  band energies     occupation 
      1     -31.3488      1.00000
      2     -31.3456      1.00000
      3     -31.2014      1.00000
      4     -31.1504      1.00000
      5     -31.0979      1.00000
      6     -31.0450      1.00000
      7     -13.3225      1.00000
      8     -13.2143      1.00000
      9     -13.1141      1.00000
     10     -13.0764      1.00000
     11     -13.0214      1.00000
     12     -13.0043      1.00000
     13     -12.9480      1.00000
     14     -12.8895      1.00000
     15     -12.7844      1.00000
     16     -12.7443      1.00000
     17     -12.6999      1.00000
     18     -12.6103      1.00000
     19     -12.5552      1.00000
     20     -12.5482      1.00000
     21     -12.4601      1.00000
     22     -12.4201      1.00000
     23     -12.3147      1.00000
     24     -12.2537      1.00000
     25      -9.9584      1.00000
     26      -9.7283      1.00000
     27      -9.5648      1.00000
     28      -9.4761      1.00000
     29      -9.4180      1.00000
     30      -9.1202      1.00000
     31      -8.9802      1.00000
     32      -8.9110      1.00000
     33      -8.8370      1.00000
     34      -8.7908      1.00000
     35      -8.7376      1.00000
     36      -8.6128      1.00000
     37      -0.7799      1.00000
     38      -0.7173      1.00000
     39      -0.3757      1.00000
     40      -0.2673      1.00000
     41       0.3476      1.00000
     42       0.3941      1.00000
     43       0.6471      1.00000
     44       0.7214      1.00000
     45       0.9501      1.00000
     46       1.1204      1.00000
     47       1.2878      1.00000
     48       1.5073      1.00000
     49       1.5580      1.00000
     50       1.7524      1.00000
     51       1.8645      1.00000
     52       1.8735      1.00000
     53       1.9114      1.00000
     54       2.1419      1.00000
     55       2.3261      1.00000
     56       2.5084      1.00000
     57       2.5986      1.00000
     58       2.7235      1.00000
     59       2.7484      1.00000
     60       2.8311      1.00000
     61       2.9176      1.00000
     62       2.9439      1.00000
     63       3.0623      1.00000
     64       3.1126      1.00000
     65       3.1556      1.00000
     66       3.3251      1.00000
     67       3.3909      1.00000
     68       3.4701      1.00000
     69       3.5117      1.00000
     70       3.5594      1.00000
     71       3.5975      1.00000
     72       3.7555      1.00000
     73       7.0760      0.00000
     74       7.5447      0.00000
     75       7.8712      0.00000
     76       7.9217      0.00000
     77       8.1211      0.00000
     78       8.2046      0.00000
     79       8.4991      0.00000
     80       8.7600      0.00000
     81       8.9548      0.00000
     82       9.1447      0.00000
     83       9.4280      0.00000
     84       9.5752      0.00000
     85       9.7191      0.00000
     86       9.8439      0.00000
     87       9.9326      0.00000
     88       9.9550      0.00000
     89      10.3148      0.00000
     90      10.4974      0.00000
     91      10.6470      0.00000
     92      10.7831      0.00000

 k-point    53 :      -0.3333   -0.3333    0.3333
  band No.  band energies     occupation 
      1     -31.3484      1.00000
      2     -31.3455      1.00000
      3     -31.1964      1.00000
      4     -31.1557      1.00000
      5     -31.0842      1.00000
      6     -31.0589      1.00000
      7     -13.3732      1.00000
      8     -13.2305      1.00000
      9     -13.1014      1.00000
     10     -13.0683      1.00000
     11     -13.0125      1.00000
     12     -13.0034      1.00000
     13     -12.9156      1.00000
     14     -12.8854      1.00000
     15     -12.7816      1.00000
     16     -12.6937      1.00000
     17     -12.6725      1.00000
     18     -12.6698      1.00000
     19     -12.6408      1.00000
     20     -12.5490      1.00000
     21     -12.4826      1.00000
     22     -12.4110      1.00000
     23     -12.2895      1.00000
     24     -12.2206      1.00000
     25      -9.9274      1.00000
     26      -9.6497      1.00000
     27      -9.5392      1.00000
     28      -9.4750      1.00000
     29      -9.4631      1.00000
     30      -9.1571      1.00000
     31      -8.9981      1.00000
     32      -8.9031      1.00000
     33      -8.8436      1.00000
     34      -8.7786      1.00000
     35      -8.7664      1.00000
     36      -8.6005      1.00000
     37      -0.7633      1.00000
     38      -0.6102      1.00000
     39      -0.2731      1.00000
     40      -0.0554      1.00000
     41       0.0348      1.00000
     42       0.3578      1.00000
     43       0.6861      1.00000
     44       0.7891      1.00000
     45       0.8359      1.00000
     46       1.0650      1.00000
     47       1.2733      1.00000
     48       1.4432      1.00000
     49       1.6672      1.00000
     50       1.7421      1.00000
     51       1.7752      1.00000
     52       1.7948      1.00000
     53       1.9987      1.00000
     54       2.0660      1.00000
     55       2.2728      1.00000
     56       2.4873      1.00000
     57       2.6374      1.00000
     58       2.6505      1.00000
     59       2.7520      1.00000
     60       2.9289      1.00000
     61       2.9435      1.00000
     62       3.0618      1.00000
     63       3.0656      1.00000
     64       3.1229      1.00000
     65       3.1450      1.00000
     66       3.2579      1.00000
     67       3.3981      1.00000
     68       3.4832      1.00000
     69       3.5203      1.00000
     70       3.6126      1.00000
     71       3.6266      1.00000
     72       3.7797      1.00000
     73       7.0431      0.00000
     74       7.2683      0.00000
     75       7.6096      0.00000
     76       7.8665      0.00000
     77       7.9318      0.00000
     78       8.3193      0.00000
     79       8.3251      0.00000
     80       8.4681      0.00000
     81       8.8848      0.00000
     82       9.3891      0.00000
     83       9.5323      0.00000
     84       9.7312      0.00000
     85       9.7371      0.00000
     86       9.9281      0.00000
     87       9.9618      0.00000
     88      10.2722      0.00000
     89      10.2803      0.00000
     90      10.6316      0.00000
     91      10.7364      0.00000
     92      10.8155      0.00000

 k-point    54 :      -0.1667   -0.3333    0.3333
  band No.  band energies     occupation 
      1     -31.3490      1.00000
      2     -31.3456      1.00000
      3     -31.1842      1.00000
      4     -31.1675      1.00000
      5     -31.1019      1.00000
      6     -31.0410      1.00000
      7     -13.2937      1.00000
      8     -13.2240      1.00000
      9     -13.0659      1.00000
     10     -13.0515      1.00000
     11     -13.0180      1.00000
     12     -12.9977      1.00000
     13     -12.9458      1.00000
     14     -12.9039      1.00000
     15     -12.8531      1.00000
     16     -12.7523      1.00000
     17     -12.6359      1.00000
     18     -12.6075      1.00000
     19     -12.5654      1.00000
     20     -12.5077      1.00000
     21     -12.4691      1.00000
     22     -12.4468      1.00000
     23     -12.3787      1.00000
     24     -12.2630      1.00000
     25      -9.9139      1.00000
     26      -9.7899      1.00000
     27      -9.5624      1.00000
     28      -9.4620      1.00000
     29      -9.4056      1.00000
     30      -9.1672      1.00000
     31      -9.0113      1.00000
     32      -8.8914      1.00000
     33      -8.8258      1.00000
     34      -8.7824      1.00000
     35      -8.7314      1.00000
     36      -8.6225      1.00000
     37      -0.7106      1.00000
     38      -0.5905      1.00000
     39      -0.4937      1.00000
     40      -0.4049      1.00000
     41       0.2136      1.00000
     42       0.4573      1.00000
     43       0.7652      1.00000
     44       0.8734      1.00000
     45       1.0847      1.00000
     46       1.1902      1.00000
     47       1.2544      1.00000
     48       1.3895      1.00000
     49       1.5211      1.00000
     50       1.7626      1.00000
     51       1.8168      1.00000
     52       1.8840      1.00000
     53       1.9220      1.00000
     54       2.1065      1.00000
     55       2.2751      1.00000
     56       2.5158      1.00000
     57       2.5461      1.00000
     58       2.5630      1.00000
     59       2.7307      1.00000
     60       2.8121      1.00000
     61       2.9662      1.00000
     62       3.0174      1.00000
     63       3.1119      1.00000
     64       3.1748      1.00000
     65       3.1966      1.00000
     66       3.2958      1.00000
     67       3.4256      1.00000
     68       3.4506      1.00000
     69       3.4730      1.00000
     70       3.5772      1.00000
     71       3.6363      1.00000
     72       3.7150      1.00000
     73       7.0399      0.00000
     74       7.6812      0.00000
     75       7.9231      0.00000
     76       7.9838      0.00000
     77       8.1054      0.00000
     78       8.1572      0.00000
     79       8.6004      0.00000
     80       8.8196      0.00000
     81       8.8391      0.00000
     82       9.2515      0.00000
     83       9.4308      0.00000
     84       9.5329      0.00000
     85       9.6564      0.00000
     86       9.7489      0.00000
     87       9.9259      0.00000
     88      10.0170      0.00000
     89      10.2002      0.00000
     90      10.4523      0.00000
     91      10.5896      0.00000
     92      10.7702      0.00000

 k-point    55 :       0.3333    0.1667   -0.3333
  band No.  band energies     occupation 
      1     -31.3490      1.00000
      2     -31.3456      1.00000
      3     -31.1842      1.00000
      4     -31.1675      1.00000
      5     -31.1019      1.00000
      6     -31.0410      1.00000
      7     -13.2937      1.00000
      8     -13.2240      1.00000
      9     -13.0659      1.00000
     10     -13.0515      1.00000
     11     -13.0180      1.00000
     12     -12.9977      1.00000
     13     -12.9458      1.00000
     14     -12.9039      1.00000
     15     -12.8531      1.00000
     16     -12.7523      1.00000
     17     -12.6359      1.00000
     18     -12.6075      1.00000
     19     -12.5654      1.00000
     20     -12.5077      1.00000
     21     -12.4691      1.00000
     22     -12.4468      1.00000
     23     -12.3787      1.00000
     24     -12.2630      1.00000
     25      -9.9139      1.00000
     26      -9.7899      1.00000
     27      -9.5624      1.00000
     28      -9.4620      1.00000
     29      -9.4056      1.00000
     30      -9.1672      1.00000
     31      -9.0113      1.00000
     32      -8.8914      1.00000
     33      -8.8258      1.00000
     34      -8.7824      1.00000
     35      -8.7314      1.00000
     36      -8.6225      1.00000
     37      -0.7106      1.00000
     38      -0.5905      1.00000
     39      -0.4937      1.00000
     40      -0.4049      1.00000
     41       0.2136      1.00000
     42       0.4573      1.00000
     43       0.7652      1.00000
     44       0.8734      1.00000
     45       1.0847      1.00000
     46       1.1902      1.00000
     47       1.2544      1.00000
     48       1.3895      1.00000
     49       1.5211      1.00000
     50       1.7626      1.00000
     51       1.8168      1.00000
     52       1.8840      1.00000
     53       1.9220      1.00000
     54       2.1065      1.00000
     55       2.2751      1.00000
     56       2.5158      1.00000
     57       2.5461      1.00000
     58       2.5630      1.00000
     59       2.7307      1.00000
     60       2.8121      1.00000
     61       2.9662      1.00000
     62       3.0174      1.00000
     63       3.1119      1.00000
     64       3.1748      1.00000
     65       3.1965      1.00000
     66       3.2958      1.00000
     67       3.4256      1.00000
     68       3.4506      1.00000
     69       3.4730      1.00000
     70       3.5772      1.00000
     71       3.6363      1.00000
     72       3.7150      1.00000
     73       7.0399      0.00000
     74       7.6812      0.00000
     75       7.9231      0.00000
     76       7.9838      0.00000
     77       8.1054      0.00000
     78       8.1572      0.00000
     79       8.6004      0.00000
     80       8.8196      0.00000
     81       8.8391      0.00000
     82       9.2515      0.00000
     83       9.4308      0.00000
     84       9.5329      0.00000
     85       9.6564      0.00000
     86       9.7489      0.00000
     87       9.9259      0.00000
     88      10.0170      0.00000
     89      10.2002      0.00000
     90      10.4523      0.00000
     91      10.5896      0.00000
     92      10.7682      0.00000

 k-point    56 :      -0.1667   -0.1667    0.3333
  band No.  band energies     occupation 
      1     -31.3500      1.00000
      2     -31.3458      1.00000
      3     -31.2122      1.00000
      4     -31.1384      1.00000
      5     -31.1194      1.00000
      6     -31.0231      1.00000
      7     -13.2388      1.00000
      8     -13.2061      1.00000
      9     -13.0704      1.00000
     10     -13.0618      1.00000
     11     -13.0075      1.00000
     12     -12.9691      1.00000
     13     -12.9655      1.00000
     14     -12.9256      1.00000
     15     -12.8731      1.00000
     16     -12.8185      1.00000
     17     -12.6283      1.00000
     18     -12.5486      1.00000
     19     -12.4993      1.00000
     20     -12.4704      1.00000
     21     -12.4636      1.00000
     22     -12.4360      1.00000
     23     -12.4241      1.00000
     24     -12.3063      1.00000
     25     -10.0870      1.00000
     26      -9.9538      1.00000
     27      -9.5575      1.00000
     28      -9.3501      1.00000
     29      -9.2973      1.00000
     30      -9.2150      1.00000
     31      -8.9428      1.00000
     32      -8.8501      1.00000
     33      -8.8419      1.00000
     34      -8.8133      1.00000
     35      -8.6972      1.00000
     36      -8.6408      1.00000
     37      -0.8545      1.00000
     38      -0.7969      1.00000
     39      -0.7070      1.00000
     40      -0.3656      1.00000
     41       0.2906      1.00000
     42       0.3421      1.00000
     43       0.8740      1.00000
     44       0.8928      1.00000
     45       1.1977      1.00000
     46       1.2475      1.00000
     47       1.3265      1.00000
     48       1.3406      1.00000
     49       1.5348      1.00000
     50       1.6564      1.00000
     51       1.8696      1.00000
     52       1.9510      1.00000
     53       2.1019      1.00000
     54       2.2357      1.00000
     55       2.2391      1.00000
     56       2.4544      1.00000
     57       2.4856      1.00000
     58       2.5390      1.00000
     59       2.6679      1.00000
     60       2.8945      1.00000
     61       2.9945      1.00000
     62       3.0798      1.00000
     63       3.0937      1.00000
     64       3.1877      1.00000
     65       3.2315      1.00000
     66       3.2621      1.00000
     67       3.3748      1.00000
     68       3.4054      1.00000
     69       3.5139      1.00000
     70       3.5496      1.00000
     71       3.6814      1.00000
     72       3.7739      1.00000
     73       7.2422      0.00000
     74       7.9097      0.00000
     75       8.1454      0.00000
     76       8.1499      0.00000
     77       8.1923      0.00000
     78       8.4923      0.00000
     79       8.8481      0.00000
     80       8.8996      0.00000
     81       8.9867      0.00000
     82       9.0311      0.00000
     83       9.2833      0.00000
     84       9.4195      0.00000
     85       9.6171      0.00000
     86       9.8317      0.00000
     87       9.9024      0.00000
     88       9.9384      0.00000
     89      10.0751      0.00000
     90      10.5414      0.00000
     91      10.6495      0.00000
     92      10.7862      0.00000

 spin component 2

 k-point     1 :       0.0000    0.0000    0.0000
  band No.  band energies     occupation 
      1     -31.3525      1.00000
      2     -31.3448      1.00000
      3     -31.2398      1.00000
      4     -31.1367      1.00000
      5     -31.1091      1.00000
      6     -31.0050      1.00000
      7     -13.2378      1.00000
      8     -13.1869      1.00000
      9     -13.1748      1.00000
     10     -13.0193      1.00000
     11     -13.0093      1.00000
     12     -13.0018      1.00000
     13     -12.9379      1.00000
     14     -12.8770      1.00000
     15     -12.8466      1.00000
     16     -12.8304      1.00000
     17     -12.6854      1.00000
     18     -12.5657      1.00000
     19     -12.4896      1.00000
     20     -12.4854      1.00000
     21     -12.3725      1.00000
     22     -12.3680      1.00000
     23     -12.3654      1.00000
     24     -12.3107      1.00000
     25     -10.5088      1.00000
     26      -9.8401      1.00000
     27      -9.8018      1.00000
     28      -9.2409      1.00000
     29      -9.1199      1.00000
     30      -9.0315      1.00000
     31      -8.9696      1.00000
     32      -8.9554      1.00000
     33      -8.8164      1.00000
     34      -8.8063      1.00000
     35      -8.6515      1.00000
     36      -8.6351      1.00000
     37      -1.2454      1.00000
     38      -1.0141      1.00000
     39      -0.6223      1.00000
     40      -0.4537      1.00000
     41       0.0177      1.00000
     42       0.6409      1.00000
     43       0.8427      1.00000
     44       0.9030      1.00000
     45       0.9743      1.00000
     46       1.3194      1.00000
     47       1.3671      1.00000
     48       1.3691      1.00000
     49       1.4088      1.00000
     50       1.7217      1.00000
     51       1.8055      1.00000
     52       1.9152      1.00000
     53       2.2388      1.00000
     54       2.3430      1.00000
     55       2.3680      1.00000
     56       2.3815      1.00000
     57       2.6277      1.00000
     58       2.7038      1.00000
     59       2.7103      1.00000
     60       2.8237      1.00000
     61       2.8973      1.00000
     62       2.9745      1.00000
     63       3.1122      1.00000
     64       3.2388      1.00000
     65       3.3028      1.00000
     66       3.3481      1.00000
     67       3.4319      1.00000
     68       3.4589      1.00000
     69       3.5914      1.00000
     70       3.7542      1.00000
     71       3.7822      1.00000
     72       3.8018      1.00000
     73       7.3638      0.00000
     74       7.7614      0.00000
     75       7.8419      0.00000
     76       8.0902      0.00000
     77       8.7946      0.00000
     78       8.9516      0.00000
     79       8.9749      0.00000
     80       9.0634      0.00000
     81       9.2926      0.00000
     82       9.3473      0.00000
     83       9.4484      0.00000
     84       9.6119      0.00000
     85       9.7320      0.00000
     86       9.7388      0.00000
     87       9.7447      0.00000
     88      10.1130      0.00000
     89      10.1536      0.00000
     90      10.6211      0.00000
     91      10.6271      0.00000
     92      10.7124      0.00000

 k-point     2 :       0.1667    0.0000    0.0000
  band No.  band energies     occupation 
      1     -31.3518      1.00000
      2     -31.3447      1.00000
      3     -31.2316      1.00000
      4     -31.1301      1.00000
      5     -31.1180      1.00000
      6     -31.0120      1.00000
      7     -13.2231      1.00000
      8     -13.1978      1.00000
      9     -13.1533      1.00000
     10     -13.0697      1.00000
     11     -13.0335      1.00000
     12     -12.9516      1.00000
     13     -12.9408      1.00000
     14     -12.8890      1.00000
     15     -12.8590      1.00000
     16     -12.7891      1.00000
     17     -12.7109      1.00000
     18     -12.5503      1.00000
     19     -12.5380      1.00000
     20     -12.4551      1.00000
     21     -12.4014      1.00000
     22     -12.3821      1.00000
     23     -12.3518      1.00000
     24     -12.3328      1.00000
     25     -10.3775      1.00000
     26      -9.8302      1.00000
     27      -9.7242      1.00000
     28      -9.2878      1.00000
     29      -9.1914      1.00000
     30      -9.1271      1.00000
     31      -8.9348      1.00000
     32      -8.8962      1.00000
     33      -8.8421      1.00000
     34      -8.7845      1.00000
     35      -8.6933      1.00000
     36      -8.6253      1.00000
     37      -1.1251      1.00000
     38      -0.9533      1.00000
     39      -0.6240      1.00000
     40      -0.3994      1.00000
     41       0.1145      1.00000
     42       0.5559      1.00000
     43       0.7981      1.00000
     44       0.9534      1.00000
     45       1.0199      1.00000
     46       1.2067      1.00000
     47       1.3353      1.00000
     48       1.3983      1.00000
     49       1.4959      1.00000
     50       1.6231      1.00000
     51       1.7753      1.00000
     52       2.0089      1.00000
     53       2.2310      1.00000
     54       2.3271      1.00000
     55       2.4154      1.00000
     56       2.4951      1.00000
     57       2.5645      1.00000
     58       2.6449      1.00000
     59       2.7634      1.00000
     60       2.8112      1.00000
     61       2.8579      1.00000
     62       3.0677      1.00000
     63       3.1182      1.00000
     64       3.1594      1.00000
     65       3.2718      1.00000
     66       3.3344      1.00000
     67       3.3794      1.00000
     68       3.4179      1.00000
     69       3.4575      1.00000
     70       3.6296      1.00000
     71       3.7315      1.00000
     72       3.7974      1.00000
     73       7.5650      0.00000
     74       7.7332      0.00000
     75       7.8325      0.00000
     76       8.1163      0.00000
     77       8.6887      0.00000
     78       8.7324      0.00000
     79       8.8967      0.00000
     80       9.0286      0.00000
     81       9.0714      0.00000
     82       9.1966      0.00000
     83       9.4373      0.00000
     84       9.5614      0.00000
     85       9.6168      0.00000
     86       9.7162      0.00000
     87       9.8550      0.00000
     88      10.0476      0.00000
     89      10.1313      0.00000
     90      10.4902      0.00000
     91      10.5348      0.00000
     92      10.7164      0.00000

 k-point     3 :       0.0000   -0.1667   -0.0000
  band No.  band energies     occupation 
      1     -31.3518      1.00000
      2     -31.3447      1.00000
      3     -31.2316      1.00000
      4     -31.1301      1.00000
      5     -31.1180      1.00000
      6     -31.0120      1.00000
      7     -13.2231      1.00000
      8     -13.1978      1.00000
      9     -13.1533      1.00000
     10     -13.0697      1.00000
     11     -13.0335      1.00000
     12     -12.9516      1.00000
     13     -12.9408      1.00000
     14     -12.8890      1.00000
     15     -12.8590      1.00000
     16     -12.7891      1.00000
     17     -12.7109      1.00000
     18     -12.5503      1.00000
     19     -12.5380      1.00000
     20     -12.4551      1.00000
     21     -12.4014      1.00000
     22     -12.3821      1.00000
     23     -12.3518      1.00000
     24     -12.3328      1.00000
     25     -10.3775      1.00000
     26      -9.8302      1.00000
     27      -9.7242      1.00000
     28      -9.2878      1.00000
     29      -9.1914      1.00000
     30      -9.1271      1.00000
     31      -8.9348      1.00000
     32      -8.8962      1.00000
     33      -8.8421      1.00000
     34      -8.7845      1.00000
     35      -8.6933      1.00000
     36      -8.6253      1.00000
     37      -1.1251      1.00000
     38      -0.9533      1.00000
     39      -0.6240      1.00000
     40      -0.3994      1.00000
     41       0.1145      1.00000
     42       0.5559      1.00000
     43       0.7981      1.00000
     44       0.9534      1.00000
     45       1.0199      1.00000
     46       1.2067      1.00000
     47       1.3353      1.00000
     48       1.3983      1.00000
     49       1.4959      1.00000
     50       1.6231      1.00000
     51       1.7753      1.00000
     52       2.0089      1.00000
     53       2.2310      1.00000
     54       2.3271      1.00000
     55       2.4154      1.00000
     56       2.4951      1.00000
     57       2.5645      1.00000
     58       2.6449      1.00000
     59       2.7634      1.00000
     60       2.8112      1.00000
     61       2.8579      1.00000
     62       3.0677      1.00000
     63       3.1182      1.00000
     64       3.1594      1.00000
     65       3.2718      1.00000
     66       3.3344      1.00000
     67       3.3794      1.00000
     68       3.4179      1.00000
     69       3.4575      1.00000
     70       3.6296      1.00000
     71       3.7315      1.00000
     72       3.7974      1.00000
     73       7.5650      0.00000
     74       7.7332      0.00000
     75       7.8325      0.00000
     76       8.1163      0.00000
     77       8.6887      0.00000
     78       8.7324      0.00000
     79       8.8967      0.00000
     80       9.0286      0.00000
     81       9.0714      0.00000
     82       9.1966      0.00000
     83       9.4373      0.00000
     84       9.5614      0.00000
     85       9.6168      0.00000
     86       9.7162      0.00000
     87       9.8550      0.00000
     88      10.0476      0.00000
     89      10.1313      0.00000
     90      10.4902      0.00000
     91      10.5348      0.00000
     92      10.7206      0.00000

 k-point     4 :       0.3333    0.0000   -0.0000
  band No.  band energies     occupation 
      1     -31.3505      1.00000
      2     -31.3447      1.00000
      3     -31.2091      1.00000
      4     -31.1420      1.00000
      5     -31.1134      1.00000
      6     -31.0291      1.00000
      7     -13.2252      1.00000
      8     -13.2037      1.00000
      9     -13.1191      1.00000
     10     -13.1015      1.00000
     11     -13.0678      1.00000
     12     -12.9662      1.00000
     13     -12.9275      1.00000
     14     -12.8840      1.00000
     15     -12.8258      1.00000
     16     -12.7738      1.00000
     17     -12.7154      1.00000
     18     -12.6012      1.00000
     19     -12.5277      1.00000
     20     -12.4649      1.00000
     21     -12.4306      1.00000
     22     -12.4222      1.00000
     23     -12.3702      1.00000
     24     -12.3091      1.00000
     25     -10.0931      1.00000
     26      -9.8013      1.00000
     27      -9.6016      1.00000
     28      -9.3872      1.00000
     29      -9.3065      1.00000
     30      -9.2180      1.00000
     31      -8.9558      1.00000
     32      -8.9082      1.00000
     33      -8.8145      1.00000
     34      -8.7571      1.00000
     35      -8.7465      1.00000
     36      -8.6191      1.00000
     37      -0.8685      1.00000
     38      -0.7602      1.00000
     39      -0.6043      1.00000
     40      -0.3345      1.00000
     41       0.3301      1.00000
     42       0.4073      1.00000
     43       0.7672      1.00000
     44       0.8760      1.00000
     45       1.0986      1.00000
     46       1.1908      1.00000
     47       1.2686      1.00000
     48       1.3636      1.00000
     49       1.5784      1.00000
     50       1.5923      1.00000
     51       1.9007      1.00000
     52       1.9143      1.00000
     53       2.1227      1.00000
     54       2.2565      1.00000
     55       2.3513      1.00000
     56       2.4527      1.00000
     57       2.5243      1.00000
     58       2.5923      1.00000
     59       2.7655      1.00000
     60       2.8574      1.00000
     61       2.9594      1.00000
     62       3.0381      1.00000
     63       3.0484      1.00000
     64       3.1558      1.00000
     65       3.2104      1.00000
     66       3.2718      1.00000
     67       3.3248      1.00000
     68       3.4493      1.00000
     69       3.4627      1.00000
     70       3.5532      1.00000
     71       3.6375      1.00000
     72       3.7101      1.00000
     73       7.1643      0.00000
     74       7.8015      0.00000
     75       8.1077      0.00000
     76       8.2567      0.00000
     77       8.3765      0.00000
     78       8.5171      0.00000
     79       8.5364      0.00000
     80       8.7757      0.00000
     81       8.8945      0.00000
     82       9.1726      0.00000
     83       9.3341      0.00000
     84       9.3546      0.00000
     85       9.5631      0.00000
     86       9.7883      0.00000
     87      10.0219      0.00000
     88      10.0432      0.00000
     89      10.2075      0.00000
     90      10.3016      0.00000
     91      10.3892      0.00000
     92      10.5791      0.00000

 k-point     5 :       0.0000   -0.3333   -0.0000
  band No.  band energies     occupation 
      1     -31.3505      1.00000
      2     -31.3447      1.00000
      3     -31.2091      1.00000
      4     -31.1420      1.00000
      5     -31.1134      1.00000
      6     -31.0291      1.00000
      7     -13.2252      1.00000
      8     -13.2037      1.00000
      9     -13.1191      1.00000
     10     -13.1015      1.00000
     11     -13.0678      1.00000
     12     -12.9662      1.00000
     13     -12.9275      1.00000
     14     -12.8840      1.00000
     15     -12.8258      1.00000
     16     -12.7738      1.00000
     17     -12.7154      1.00000
     18     -12.6012      1.00000
     19     -12.5277      1.00000
     20     -12.4649      1.00000
     21     -12.4306      1.00000
     22     -12.4222      1.00000
     23     -12.3702      1.00000
     24     -12.3091      1.00000
     25     -10.0931      1.00000
     26      -9.8013      1.00000
     27      -9.6016      1.00000
     28      -9.3872      1.00000
     29      -9.3065      1.00000
     30      -9.2180      1.00000
     31      -8.9558      1.00000
     32      -8.9082      1.00000
     33      -8.8145      1.00000
     34      -8.7571      1.00000
     35      -8.7465      1.00000
     36      -8.6191      1.00000
     37      -0.8685      1.00000
     38      -0.7602      1.00000
     39      -0.6043      1.00000
     40      -0.3345      1.00000
     41       0.3301      1.00000
     42       0.4073      1.00000
     43       0.7672      1.00000
     44       0.8760      1.00000
     45       1.0986      1.00000
     46       1.1908      1.00000
     47       1.2686      1.00000
     48       1.3636      1.00000
     49       1.5784      1.00000
     50       1.5923      1.00000
     51       1.9007      1.00000
     52       1.9143      1.00000
     53       2.1227      1.00000
     54       2.2565      1.00000
     55       2.3513      1.00000
     56       2.4527      1.00000
     57       2.5243      1.00000
     58       2.5923      1.00000
     59       2.7655      1.00000
     60       2.8574      1.00000
     61       2.9594      1.00000
     62       3.0381      1.00000
     63       3.0484      1.00000
     64       3.1558      1.00000
     65       3.2104      1.00000
     66       3.2718      1.00000
     67       3.3248      1.00000
     68       3.4493      1.00000
     69       3.4627      1.00000
     70       3.5532      1.00000
     71       3.6375      1.00000
     72       3.7101      1.00000
     73       7.1643      0.00000
     74       7.8015      0.00000
     75       8.1077      0.00000
     76       8.2567      0.00000
     77       8.3765      0.00000
     78       8.5171      0.00000
     79       8.5364      0.00000
     80       8.7757      0.00000
     81       8.8945      0.00000
     82       9.1726      0.00000
     83       9.3341      0.00000
     84       9.3546      0.00000
     85       9.5631      0.00000
     86       9.7883      0.00000
     87      10.0219      0.00000
     88      10.0432      0.00000
     89      10.2075      0.00000
     90      10.3016      0.00000
     91      10.3892      0.00000
     92      10.5794      0.00000

 k-point     6 :       0.5000   -0.0000    0.0000
  band No.  band energies     occupation 
      1     -31.3500      1.00000
      2     -31.3446      1.00000
      3     -31.1843      1.00000
      4     -31.1676      1.00000
      5     -31.1018      1.00000
      6     -31.0410      1.00000
      7     -13.2347      1.00000
      8     -13.2125      1.00000
      9     -13.1192      1.00000
     10     -13.0872      1.00000
     11     -13.0816      1.00000
     12     -12.9837      1.00000
     13     -12.9158      1.00000
     14     -12.8858      1.00000
     15     -12.8001      1.00000
     16     -12.7798      1.00000
     17     -12.6752      1.00000
     18     -12.6417      1.00000
     19     -12.5249      1.00000
     20     -12.5030      1.00000
     21     -12.4338      1.00000
     22     -12.4220      1.00000
     23     -12.3864      1.00000
     24     -12.2924      1.00000
     25      -9.8979      1.00000
     26      -9.8179      1.00000
     27      -9.5369      1.00000
     28      -9.4417      1.00000
     29      -9.3862      1.00000
     30      -9.2512      1.00000
     31      -8.9767      1.00000
     32      -8.9286      1.00000
     33      -8.8305      1.00000
     34      -8.7775      1.00000
     35      -8.6821      1.00000
     36      -8.6369      1.00000
     37      -0.6890      1.00000
     38      -0.6884      1.00000
     39      -0.5167      1.00000
     40      -0.3703      1.00000
     41       0.3669      1.00000
     42       0.4813      1.00000
     43       0.7605      1.00000
     44       0.7724      1.00000
     45       1.0672      1.00000
     46       1.2472      1.00000
     47       1.2484      1.00000
     48       1.3210      1.00000
     49       1.4740      1.00000
     50       1.7260      1.00000
     51       1.7777      1.00000
     52       1.9061      1.00000
     53       2.1245      1.00000
     54       2.1965      1.00000
     55       2.2737      1.00000
     56       2.4604      1.00000
     57       2.5701      1.00000
     58       2.6734      1.00000
     59       2.7222      1.00000
     60       2.7747      1.00000
     61       2.8246      1.00000
     62       3.0038      1.00000
     63       3.1228      1.00000
     64       3.1996      1.00000
     65       3.2184      1.00000
     66       3.2687      1.00000
     67       3.3795      1.00000
     68       3.4112      1.00000
     69       3.4767      1.00000
     70       3.5129      1.00000
     71       3.5732      1.00000
     72       3.7625      1.00000
     73       6.9523      0.00000
     74       7.8368      0.00000
     75       8.0697      0.00000
     76       8.1264      0.00000
     77       8.3016      0.00000
     78       8.4082      0.00000
     79       8.4675      0.00000
     80       8.7708      0.00000
     81       8.7726      0.00000
     82       9.1992      0.00000
     83       9.3124      0.00000
     84       9.4163      0.00000
     85       9.4849      0.00000
     86       9.7231      0.00000
     87       9.7939      0.00000
     88      10.1438      0.00000
     89      10.2374      0.00000
     90      10.2429      0.00000
     91      10.4249      0.00000
     92      10.8735      0.00000

 k-point     7 :      -0.0000    0.5000   -0.0000
  band No.  band energies     occupation 
      1     -31.3500      1.00000
      2     -31.3446      1.00000
      3     -31.1843      1.00000
      4     -31.1676      1.00000
      5     -31.1018      1.00000
      6     -31.0410      1.00000
      7     -13.2347      1.00000
      8     -13.2125      1.00000
      9     -13.1193      1.00000
     10     -13.0872      1.00000
     11     -13.0816      1.00000
     12     -12.9837      1.00000
     13     -12.9158      1.00000
     14     -12.8858      1.00000
     15     -12.8001      1.00000
     16     -12.7798      1.00000
     17     -12.6752      1.00000
     18     -12.6417      1.00000
     19     -12.5249      1.00000
     20     -12.5030      1.00000
     21     -12.4338      1.00000
     22     -12.4220      1.00000
     23     -12.3864      1.00000
     24     -12.2924      1.00000
     25      -9.8979      1.00000
     26      -9.8179      1.00000
     27      -9.5369      1.00000
     28      -9.4417      1.00000
     29      -9.3862      1.00000
     30      -9.2512      1.00000
     31      -8.9767      1.00000
     32      -8.9286      1.00000
     33      -8.8305      1.00000
     34      -8.7775      1.00000
     35      -8.6820      1.00000
     36      -8.6369      1.00000
     37      -0.6890      1.00000
     38      -0.6884      1.00000
     39      -0.5167      1.00000
     40      -0.3703      1.00000
     41       0.3669      1.00000
     42       0.4813      1.00000
     43       0.7605      1.00000
     44       0.7724      1.00000
     45       1.0672      1.00000
     46       1.2472      1.00000
     47       1.2484      1.00000
     48       1.3210      1.00000
     49       1.4740      1.00000
     50       1.7260      1.00000
     51       1.7777      1.00000
     52       1.9061      1.00000
     53       2.1245      1.00000
     54       2.1965      1.00000
     55       2.2737      1.00000
     56       2.4604      1.00000
     57       2.5701      1.00000
     58       2.6734      1.00000
     59       2.7222      1.00000
     60       2.7747      1.00000
     61       2.8246      1.00000
     62       3.0038      1.00000
     63       3.1228      1.00000
     64       3.1996      1.00000
     65       3.2184      1.00000
     66       3.2687      1.00000
     67       3.3795      1.00000
     68       3.4112      1.00000
     69       3.4767      1.00000
     70       3.5129      1.00000
     71       3.5732      1.00000
     72       3.7625      1.00000
     73       6.9523      0.00000
     74       7.8368      0.00000
     75       8.0697      0.00000
     76       8.1264      0.00000
     77       8.3016      0.00000
     78       8.4082      0.00000
     79       8.4675      0.00000
     80       8.7708      0.00000
     81       8.7726      0.00000
     82       9.1992      0.00000
     83       9.3124      0.00000
     84       9.4163      0.00000
     85       9.4849      0.00000
     86       9.7231      0.00000
     87       9.7939      0.00000
     88      10.1438      0.00000
     89      10.2374      0.00000
     90      10.2429      0.00000
     91      10.4249      0.00000
     92      10.8415      0.00000

 k-point     8 :       0.1667    0.1667   -0.0000
  band No.  band energies     occupation 
      1     -31.3510      1.00000
      2     -31.3447      1.00000
      3     -31.2123      1.00000
      4     -31.1384      1.00000
      5     -31.1193      1.00000
      6     -31.0231      1.00000
      7     -13.2194      1.00000
      8     -13.2026      1.00000
      9     -13.1348      1.00000
     10     -13.0639      1.00000
     11     -13.0193      1.00000
     12     -12.9502      1.00000
     13     -12.9446      1.00000
     14     -12.9010      1.00000
     15     -12.8240      1.00000
     16     -12.8045      1.00000
     17     -12.7371      1.00000
     18     -12.5541      1.00000
     19     -12.4892      1.00000
     20     -12.4686      1.00000
     21     -12.4480      1.00000
     22     -12.4336      1.00000
     23     -12.4096      1.00000
     24     -12.3066      1.00000
     25     -10.1544      1.00000
     26      -9.8437      1.00000
     27      -9.6003      1.00000
     28      -9.3632      1.00000
     29      -9.2796      1.00000
     30      -9.2336      1.00000
     31      -8.9094      1.00000
     32      -8.8650      1.00000
     33      -8.8381      1.00000
     34      -8.7947      1.00000
     35      -8.7547      1.00000
     36      -8.6121      1.00000
     37      -0.8703      1.00000
     38      -0.7798      1.00000
     39      -0.6863      1.00000
     40      -0.3880      1.00000
     41       0.2333      1.00000
     42       0.3889      1.00000
     43       0.8921      1.00000
     44       0.9203      1.00000
     45       1.1807      1.00000
     46       1.3134      1.00000
     47       1.3445      1.00000
     48       1.3546      1.00000
     49       1.4474      1.00000
     50       1.5098      1.00000
     51       1.8499      1.00000
     52       2.0062      1.00000
     53       2.1625      1.00000
     54       2.2352      1.00000
     55       2.2693      1.00000
     56       2.3721      1.00000
     57       2.5979      1.00000
     58       2.5979      1.00000
     59       2.6673      1.00000
     60       2.8819      1.00000
     61       2.9167      1.00000
     62       3.0503      1.00000
     63       3.1564      1.00000
     64       3.1900      1.00000
     65       3.2867      1.00000
     66       3.3093      1.00000
     67       3.3401      1.00000
     68       3.3441      1.00000
     69       3.4944      1.00000
     70       3.5218      1.00000
     71       3.6600      1.00000
     72       3.7882      1.00000
     73       7.3168      0.00000
     74       7.6975      0.00000
     75       8.0895      0.00000
     76       8.1196      0.00000
     77       8.3636      0.00000
     78       8.6124      0.00000
     79       8.7967      0.00000
     80       8.8106      0.00000
     81       8.9271      0.00000
     82       9.2559      0.00000
     83       9.3098      0.00000
     84       9.5182      0.00000
     85       9.5292      0.00000
     86       9.7631      0.00000
     87       9.8525      0.00000
     88      10.0789      0.00000
     89      10.1195      0.00000
     90      10.4222      0.00000
     91      10.4774      0.00000
     92      10.7257      0.00000

 k-point     9 :       0.3333    0.1667    0.0000
  band No.  band energies     occupation 
      1     -31.3500      1.00000
      2     -31.3446      1.00000
      3     -31.1843      1.00000
      4     -31.1675      1.00000
      5     -31.1018      1.00000
      6     -31.0410      1.00000
      7     -13.2790      1.00000
      8     -13.2282      1.00000
      9     -13.1232      1.00000
     10     -13.0800      1.00000
     11     -12.9816      1.00000
     12     -12.9624      1.00000
     13     -12.9205      1.00000
     14     -12.8910      1.00000
     15     -12.8443      1.00000
     16     -12.7641      1.00000
     17     -12.6769      1.00000
     18     -12.6251      1.00000
     19     -12.5559      1.00000
     20     -12.5151      1.00000
     21     -12.4793      1.00000
     22     -12.4104      1.00000
     23     -12.3789      1.00000
     24     -12.2632      1.00000
     25      -9.9091      1.00000
     26      -9.8379      1.00000
     27      -9.4822      1.00000
     28      -9.4294      1.00000
     29      -9.3983      1.00000
     30      -9.2745      1.00000
     31      -8.9623      1.00000
     32      -8.9285      1.00000
     33      -8.8280      1.00000
     34      -8.7923      1.00000
     35      -8.6909      1.00000
     36      -8.6329      1.00000
     37      -0.7112      1.00000
     38      -0.5942      1.00000
     39      -0.4876      1.00000
     40      -0.3979      1.00000
     41       0.2280      1.00000
     42       0.4211      1.00000
     43       0.8042      1.00000
     44       0.8841      1.00000
     45       1.0736      1.00000
     46       1.1718      1.00000
     47       1.2253      1.00000
     48       1.3128      1.00000
     49       1.5522      1.00000
     50       1.7050      1.00000
     51       1.8279      1.00000
     52       1.9240      1.00000
     53       2.0532      1.00000
     54       2.0919      1.00000
     55       2.2744      1.00000
     56       2.3646      1.00000
     57       2.5541      1.00000
     58       2.6658      1.00000
     59       2.7699      1.00000
     60       2.8354      1.00000
     61       2.9965      1.00000
     62       3.0424      1.00000
     63       3.0792      1.00000
     64       3.2188      1.00000
     65       3.2222      1.00000
     66       3.3194      1.00000
     67       3.3480      1.00000
     68       3.4083      1.00000
     69       3.4466      1.00000
     70       3.5611      1.00000
     71       3.6448      1.00000
     72       3.6688      1.00000
     73       7.0547      0.00000
     74       7.7328      0.00000
     75       7.7926      0.00000
     76       8.0044      0.00000
     77       8.1946      0.00000
     78       8.2878      0.00000
     79       8.5160      0.00000
     80       8.6790      0.00000
     81       9.0937      0.00000
     82       9.1088      0.00000
     83       9.3448      0.00000
     84       9.4573      0.00000
     85       9.7330      0.00000
     86       9.8546      0.00000
     87       9.9017      0.00000
     88      10.1341      0.00000
     89      10.2429      0.00000
     90      10.3829      0.00000
     91      10.4964      0.00000
     92      10.6114      0.00000

 k-point    10 :      -0.1667   -0.3333    0.0000
  band No.  band energies     occupation 
      1     -31.3500      1.00000
      2     -31.3446      1.00000
      3     -31.1843      1.00000
      4     -31.1675      1.00000
      5     -31.1018      1.00000
      6     -31.0410      1.00000
      7     -13.2790      1.00000
      8     -13.2282      1.00000
      9     -13.1232      1.00000
     10     -13.0800      1.00000
     11     -12.9816      1.00000
     12     -12.9624      1.00000
     13     -12.9205      1.00000
     14     -12.8910      1.00000
     15     -12.8443      1.00000
     16     -12.7641      1.00000
     17     -12.6769      1.00000
     18     -12.6251      1.00000
     19     -12.5559      1.00000
     20     -12.5151      1.00000
     21     -12.4793      1.00000
     22     -12.4104      1.00000
     23     -12.3789      1.00000
     24     -12.2632      1.00000
     25      -9.9091      1.00000
     26      -9.8379      1.00000
     27      -9.4822      1.00000
     28      -9.4294      1.00000
     29      -9.3983      1.00000
     30      -9.2745      1.00000
     31      -8.9623      1.00000
     32      -8.9285      1.00000
     33      -8.8280      1.00000
     34      -8.7923      1.00000
     35      -8.6909      1.00000
     36      -8.6329      1.00000
     37      -0.7112      1.00000
     38      -0.5942      1.00000
     39      -0.4876      1.00000
     40      -0.3979      1.00000
     41       0.2280      1.00000
     42       0.4211      1.00000
     43       0.8042      1.00000
     44       0.8841      1.00000
     45       1.0736      1.00000
     46       1.1718      1.00000
     47       1.2253      1.00000
     48       1.3128      1.00000
     49       1.5522      1.00000
     50       1.7050      1.00000
     51       1.8279      1.00000
     52       1.9240      1.00000
     53       2.0532      1.00000
     54       2.0919      1.00000
     55       2.2744      1.00000
     56       2.3646      1.00000
     57       2.5541      1.00000
     58       2.6658      1.00000
     59       2.7699      1.00000
     60       2.8354      1.00000
     61       2.9965      1.00000
     62       3.0424      1.00000
     63       3.0792      1.00000
     64       3.2188      1.00000
     65       3.2222      1.00000
     66       3.3194      1.00000
     67       3.3480      1.00000
     68       3.4083      1.00000
     69       3.4466      1.00000
     70       3.5611      1.00000
     71       3.6448      1.00000
     72       3.6688      1.00000
     73       7.0547      0.00000
     74       7.7328      0.00000
     75       7.7926      0.00000
     76       8.0044      0.00000
     77       8.1946      0.00000
     78       8.2878      0.00000
     79       8.5160      0.00000
     80       8.6790      0.00000
     81       9.0937      0.00000
     82       9.1088      0.00000
     83       9.3448      0.00000
     84       9.4573      0.00000
     85       9.7330      0.00000
     86       9.8546      0.00000
     87       9.9017      0.00000
     88      10.1341      0.00000
     89      10.2429      0.00000
     90      10.3829      0.00000
     91      10.4967      0.00000
     92      10.6117      0.00000

 k-point    11 :       0.5000    0.1667    0.0000
  band No.  band energies     occupation 
      1     -31.3497      1.00000
      2     -31.3446      1.00000
      3     -31.2014      1.00000
      4     -31.1504      1.00000
      5     -31.0979      1.00000
      6     -31.0450      1.00000
      7     -13.3178      1.00000
      8     -13.2208      1.00000
      9     -13.1159      1.00000
     10     -13.1022      1.00000
     11     -13.0051      1.00000
     12     -12.9877      1.00000
     13     -12.9439      1.00000
     14     -12.8882      1.00000
     15     -12.7619      1.00000
     16     -12.7532      1.00000
     17     -12.6808      1.00000
     18     -12.6537      1.00000
     19     -12.5944      1.00000
     20     -12.5179      1.00000
     21     -12.4795      1.00000
     22     -12.3887      1.00000
     23     -12.3154      1.00000
     24     -12.2538      1.00000
     25      -9.9756      1.00000
     26      -9.7200      1.00000
     27      -9.6012      1.00000
     28      -9.4250      1.00000
     29      -9.3132      1.00000
     30      -9.2396      1.00000
     31      -8.9889      1.00000
     32      -8.9372      1.00000
     33      -8.8603      1.00000
     34      -8.7481      1.00000
     35      -8.7001      1.00000
     36      -8.6266      1.00000
     37      -0.7941      1.00000
     38      -0.6859      1.00000
     39      -0.4162      1.00000
     40      -0.2234      1.00000
     41       0.3175      1.00000
     42       0.3775      1.00000
     43       0.6385      1.00000
     44       0.7910      1.00000
     45       0.9146      1.00000
     46       1.2110      1.00000
     47       1.2487      1.00000
     48       1.3474      1.00000
     49       1.5456      1.00000
     50       1.7458      1.00000
     51       1.8262      1.00000
     52       1.9142      1.00000
     53       2.0981      1.00000
     54       2.1371      1.00000
     55       2.3040      1.00000
     56       2.4876      1.00000
     57       2.5541      1.00000
     58       2.6428      1.00000
     59       2.7952      1.00000
     60       2.8787      1.00000
     61       2.9677      1.00000
     62       3.0203      1.00000
     63       3.0570      1.00000
     64       3.1422      1.00000
     65       3.2205      1.00000
     66       3.2807      1.00000
     67       3.3537      1.00000
     68       3.4299      1.00000
     69       3.4869      1.00000
     70       3.5356      1.00000
     71       3.6418      1.00000
     72       3.6625      1.00000
     73       7.0468      0.00000
     74       7.5967      0.00000
     75       7.8081      0.00000
     76       8.0907      0.00000
     77       8.1558      0.00000
     78       8.2779      0.00000
     79       8.4861      0.00000
     80       8.6432      0.00000
     81       8.9820      0.00000
     82       9.0712      0.00000
     83       9.3111      0.00000
     84       9.4200      0.00000
     85       9.8138      0.00000
     86       9.8778      0.00000
     87       9.9465      0.00000
     88      10.1573      0.00000
     89      10.2596      0.00000
     90      10.4100      0.00000
     91      10.5201      0.00000
     92      10.7621      0.00000

 k-point    12 :      -0.1667    0.5000    0.0000
  band No.  band energies     occupation 
      1     -31.3497      1.00000
      2     -31.3446      1.00000
      3     -31.2014      1.00000
      4     -31.1504      1.00000
      5     -31.0979      1.00000
      6     -31.0450      1.00000
      7     -13.3178      1.00000
      8     -13.2208      1.00000
      9     -13.1159      1.00000
     10     -13.1022      1.00000
     11     -13.0051      1.00000
     12     -12.9877      1.00000
     13     -12.9439      1.00000
     14     -12.8882      1.00000
     15     -12.7619      1.00000
     16     -12.7532      1.00000
     17     -12.6808      1.00000
     18     -12.6537      1.00000
     19     -12.5944      1.00000
     20     -12.5179      1.00000
     21     -12.4795      1.00000
     22     -12.3887      1.00000
     23     -12.3154      1.00000
     24     -12.2538      1.00000
     25      -9.9756      1.00000
     26      -9.7200      1.00000
     27      -9.6012      1.00000
     28      -9.4250      1.00000
     29      -9.3132      1.00000
     30      -9.2396      1.00000
     31      -8.9889      1.00000
     32      -8.9373      1.00000
     33      -8.8603      1.00000
     34      -8.7481      1.00000
     35      -8.7001      1.00000
     36      -8.6266      1.00000
     37      -0.7941      1.00000
     38      -0.6859      1.00000
     39      -0.4162      1.00000
     40      -0.2234      1.00000
     41       0.3175      1.00000
     42       0.3775      1.00000
     43       0.6385      1.00000
     44       0.7910      1.00000
     45       0.9146      1.00000
     46       1.2110      1.00000
     47       1.2487      1.00000
     48       1.3474      1.00000
     49       1.5456      1.00000
     50       1.7458      1.00000
     51       1.8262      1.00000
     52       1.9142      1.00000
     53       2.0981      1.00000
     54       2.1371      1.00000
     55       2.3040      1.00000
     56       2.4876      1.00000
     57       2.5541      1.00000
     58       2.6428      1.00000
     59       2.7952      1.00000
     60       2.8787      1.00000
     61       2.9677      1.00000
     62       3.0203      1.00000
     63       3.0570      1.00000
     64       3.1422      1.00000
     65       3.2205      1.00000
     66       3.2807      1.00000
     67       3.3537      1.00000
     68       3.4299      1.00000
     69       3.4869      1.00000
     70       3.5356      1.00000
     71       3.6418      1.00000
     72       3.6625      1.00000
     73       7.0468      0.00000
     74       7.5967      0.00000
     75       7.8081      0.00000
     76       8.0907      0.00000
     77       8.1558      0.00000
     78       8.2779      0.00000
     79       8.4861      0.00000
     80       8.6432      0.00000
     81       8.9820      0.00000
     82       9.0712      0.00000
     83       9.3111      0.00000
     84       9.4200      0.00000
     85       9.8138      0.00000
     86       9.8778      0.00000
     87       9.9465      0.00000
     88      10.1573      0.00000
     89      10.2596      0.00000
     90      10.4100      0.00000
     91      10.5201      0.00000
     92      10.7658      0.00000

 k-point    13 :      -0.3333    0.1667   -0.0000
  band No.  band energies     occupation 
      1     -31.3504      1.00000
      2     -31.3447      1.00000
      3     -31.2257      1.00000
      4     -31.1253      1.00000
      5     -31.1144      1.00000
      6     -31.0281      1.00000
      7     -13.2898      1.00000
      8     -13.2051      1.00000
      9     -13.1426      1.00000
     10     -13.1123      1.00000
     11     -13.0403      1.00000
     12     -12.9959      1.00000
     13     -12.9463      1.00000
     14     -12.8702      1.00000
     15     -12.8333      1.00000
     16     -12.7194      1.00000
     17     -12.6862      1.00000
     18     -12.6383      1.00000
     19     -12.5947      1.00000
     20     -12.4551      1.00000
     21     -12.4395      1.00000
     22     -12.3804      1.00000
     23     -12.2892      1.00000
     24     -12.2754      1.00000
     25     -10.1973      1.00000
     26      -9.7501      1.00000
     27      -9.6647      1.00000
     28      -9.3370      1.00000
     29      -9.2602      1.00000
     30      -9.1497      1.00000
     31      -8.9916      1.00000
     32      -8.9258      1.00000
     33      -8.8192      1.00000
     34      -8.7880      1.00000
     35      -8.6804      1.00000
     36      -8.6246      1.00000
     37      -1.0243      1.00000
     38      -0.8803      1.00000
     39      -0.4338      1.00000
     40      -0.2539      1.00000
     41       0.1910      1.00000
     42       0.4808      1.00000
     43       0.7256      1.00000
     44       0.7375      1.00000
     45       1.0072      1.00000
     46       1.1283      1.00000
     47       1.2071      1.00000
     48       1.3906      1.00000
     49       1.5308      1.00000
     50       1.7258      1.00000
     51       1.9141      1.00000
     52       1.9975      1.00000
     53       2.0347      1.00000
     54       2.3113      1.00000
     55       2.3914      1.00000
     56       2.4499      1.00000
     57       2.6759      1.00000
     58       2.7073      1.00000
     59       2.8111      1.00000
     60       2.9142      1.00000
     61       2.9570      1.00000
     62       3.0026      1.00000
     63       3.0444      1.00000
     64       3.0820      1.00000
     65       3.1381      1.00000
     66       3.3047      1.00000
     67       3.3969      1.00000
     68       3.4452      1.00000
     69       3.4754      1.00000
     70       3.5668      1.00000
     71       3.6433      1.00000
     72       3.6596      1.00000
     73       7.3245      0.00000
     74       7.7387      0.00000
     75       7.9564      0.00000
     76       8.0705      0.00000
     77       8.2812      0.00000
     78       8.4210      0.00000
     79       8.5704      0.00000
     80       8.7893      0.00000
     81       8.8771      0.00000
     82       9.2783      0.00000
     83       9.3381      0.00000
     84       9.5075      0.00000
     85       9.5522      0.00000
     86       9.7976      0.00000
     87       9.9554      0.00000
     88      10.1993      0.00000
     89      10.3517      0.00000
     90      10.4425      0.00000
     91      10.6157      0.00000
     92      10.7209      0.00000

 k-point    14 :      -0.1667    0.3333   -0.0000
  band No.  band energies     occupation 
      1     -31.3504      1.00000
      2     -31.3447      1.00000
      3     -31.2257      1.00000
      4     -31.1253      1.00000
      5     -31.1144      1.00000
      6     -31.0281      1.00000
      7     -13.2898      1.00000
      8     -13.2051      1.00000
      9     -13.1426      1.00000
     10     -13.1123      1.00000
     11     -13.0403      1.00000
     12     -12.9959      1.00000
     13     -12.9463      1.00000
     14     -12.8702      1.00000
     15     -12.8333      1.00000
     16     -12.7194      1.00000
     17     -12.6862      1.00000
     18     -12.6383      1.00000
     19     -12.5947      1.00000
     20     -12.4551      1.00000
     21     -12.4395      1.00000
     22     -12.3804      1.00000
     23     -12.2892      1.00000
     24     -12.2754      1.00000
     25     -10.1973      1.00000
     26      -9.7501      1.00000
     27      -9.6647      1.00000
     28      -9.3370      1.00000
     29      -9.2602      1.00000
     30      -9.1497      1.00000
     31      -8.9916      1.00000
     32      -8.9258      1.00000
     33      -8.8192      1.00000
     34      -8.7880      1.00000
     35      -8.6804      1.00000
     36      -8.6246      1.00000
     37      -1.0243      1.00000
     38      -0.8803      1.00000
     39      -0.4338      1.00000
     40      -0.2539      1.00000
     41       0.1910      1.00000
     42       0.4808      1.00000
     43       0.7256      1.00000
     44       0.7375      1.00000
     45       1.0072      1.00000
     46       1.1283      1.00000
     47       1.2071      1.00000
     48       1.3906      1.00000
     49       1.5308      1.00000
     50       1.7258      1.00000
     51       1.9141      1.00000
     52       1.9975      1.00000
     53       2.0347      1.00000
     54       2.3113      1.00000
     55       2.3914      1.00000
     56       2.4499      1.00000
     57       2.6759      1.00000
     58       2.7073      1.00000
     59       2.8111      1.00000
     60       2.9142      1.00000
     61       2.9570      1.00000
     62       3.0026      1.00000
     63       3.0444      1.00000
     64       3.0820      1.00000
     65       3.1381      1.00000
     66       3.3047      1.00000
     67       3.3969      1.00000
     68       3.4452      1.00000
     69       3.4754      1.00000
     70       3.5668      1.00000
     71       3.6433      1.00000
     72       3.6596      1.00000
     73       7.3245      0.00000
     74       7.7387      0.00000
     75       7.9564      0.00000
     76       8.0705      0.00000
     77       8.2812      0.00000
     78       8.4210      0.00000
     79       8.5704      0.00000
     80       8.7893      0.00000
     81       8.8771      0.00000
     82       9.2783      0.00000
     83       9.3381      0.00000
     84       9.5075      0.00000
     85       9.5522      0.00000
     86       9.7976      0.00000
     87       9.9554      0.00000
     88      10.1993      0.00000
     89      10.3517      0.00000
     90      10.4425      0.00000
     91      10.6157      0.00000
     92      10.7210      0.00000

 k-point    15 :      -0.1667    0.1667    0.0000
  band No.  band energies     occupation 
      1     -31.3515      1.00000
      2     -31.3447      1.00000
      3     -31.2365      1.00000
      4     -31.1282      1.00000
      5     -31.1131      1.00000
      6     -31.0140      1.00000
      7     -13.2504      1.00000
      8     -13.1925      1.00000
      9     -13.1829      1.00000
     10     -13.0957      1.00000
     11     -13.0354      1.00000
     12     -12.9599      1.00000
     13     -12.9400      1.00000
     14     -12.8877      1.00000
     15     -12.8543      1.00000
     16     -12.7709      1.00000
     17     -12.6743      1.00000
     18     -12.5844      1.00000
     19     -12.5838      1.00000
     20     -12.4248      1.00000
     21     -12.4053      1.00000
     22     -12.3869      1.00000
     23     -12.3153      1.00000
     24     -12.2856      1.00000
     25     -10.3900      1.00000
     26      -9.8030      1.00000
     27      -9.7359      1.00000
     28      -9.2630      1.00000
     29      -9.2004      1.00000
     30      -9.0427      1.00000
     31      -9.0031      1.00000
     32      -8.9608      1.00000
     33      -8.8455      1.00000
     34      -8.7089      1.00000
     35      -8.7058      1.00000
     36      -8.6259      1.00000
     37      -1.1930      1.00000
     38      -0.9612      1.00000
     39      -0.5200      1.00000
     40      -0.3620      1.00000
     41       0.0983      1.00000
     42       0.5877      1.00000
     43       0.7301      1.00000
     44       0.7753      1.00000
     45       1.1600      1.00000
     46       1.1936      1.00000
     47       1.2077      1.00000
     48       1.3363      1.00000
     49       1.3965      1.00000
     50       1.7284      1.00000
     51       1.9267      1.00000
     52       1.9827      1.00000
     53       2.0884      1.00000
     54       2.2856      1.00000
     55       2.4614      1.00000
     56       2.5985      1.00000
     57       2.6482      1.00000
     58       2.7377      1.00000
     59       2.8324      1.00000
     60       2.8539      1.00000
     61       2.9217      1.00000
     62       2.9954      1.00000
     63       3.0736      1.00000
     64       3.1021      1.00000
     65       3.1726      1.00000
     66       3.3518      1.00000
     67       3.3849      1.00000
     68       3.4131      1.00000
     69       3.5625      1.00000
     70       3.5817      1.00000
     71       3.6854      1.00000
     72       3.7696      1.00000
     73       7.6582      0.00000
     74       7.7071      0.00000
     75       7.8892      0.00000
     76       7.9865      0.00000
     77       8.4491      0.00000
     78       8.6223      0.00000
     79       8.7660      0.00000
     80       9.0197      0.00000
     81       9.2061      0.00000
     82       9.2130      0.00000
     83       9.4051      0.00000
     84       9.5240      0.00000
     85       9.6366      0.00000
     86       9.6892      0.00000
     87       9.8152      0.00000
     88      10.1267      0.00000
     89      10.3641      0.00000
     90      10.6201      0.00000
     91      10.6322      0.00000
     92      10.8973      0.00000

 k-point    16 :       0.3333    0.3333   -0.0000
  band No.  band energies     occupation 
      1     -31.3492      1.00000
      2     -31.3446      1.00000
      3     -31.1964      1.00000
      4     -31.1558      1.00000
      5     -31.0842      1.00000
      6     -31.0589      1.00000
      7     -13.3679      1.00000
      8     -13.2366      1.00000
      9     -13.1235      1.00000
     10     -13.0879      1.00000
     11     -12.9746      1.00000
     12     -12.9709      1.00000
     13     -12.9237      1.00000
     14     -12.8901      1.00000
     15     -12.7901      1.00000
     16     -12.7035      1.00000
     17     -12.6996      1.00000
     18     -12.6309      1.00000
     19     -12.6035      1.00000
     20     -12.5753      1.00000
     21     -12.5359      1.00000
     22     -12.3766      1.00000
     23     -12.2900      1.00000
     24     -12.2207      1.00000
     25      -9.9273      1.00000
     26      -9.6915      1.00000
     27      -9.5675      1.00000
     28      -9.4351      1.00000
     29      -9.3139      1.00000
     30      -9.2695      1.00000
     31      -8.9983      1.00000
     32      -8.9492      1.00000
     33      -8.8874      1.00000
     34      -8.7464      1.00000
     35      -8.6826      1.00000
     36      -8.6334      1.00000
     37      -0.7537      1.00000
     38      -0.6153      1.00000
     39      -0.2166      1.00000
     40      -0.1254      1.00000
     41       0.1014      1.00000
     42       0.2849      1.00000
     43       0.6782      1.00000
     44       0.7211      1.00000
     45       0.8959      1.00000
     46       1.1158      1.00000
     47       1.2064      1.00000
     48       1.4049      1.00000
     49       1.5883      1.00000
     50       1.6863      1.00000
     51       1.8419      1.00000
     52       1.9381      1.00000
     53       2.0045      1.00000
     54       2.2460      1.00000
     55       2.2756      1.00000
     56       2.3162      1.00000
     57       2.6287      1.00000
     58       2.6760      1.00000
     59       2.7157      1.00000
     60       2.9715      1.00000
     61       3.0400      1.00000
     62       3.0462      1.00000
     63       3.1067      1.00000
     64       3.1426      1.00000
     65       3.2352      1.00000
     66       3.3012      1.00000
     67       3.3170      1.00000
     68       3.3360      1.00000
     69       3.4389      1.00000
     70       3.5143      1.00000
     71       3.6519      1.00000
     72       3.8267      1.00000
     73       7.0561      0.00000
     74       7.2251      0.00000
     75       7.7776      0.00000
     76       7.8400      0.00000
     77       7.9101      0.00000
     78       8.2555      0.00000
     79       8.4760      0.00000
     80       8.5701      0.00000
     81       8.9029      0.00000
     82       9.1166      0.00000
     83       9.5016      0.00000
     84       9.6394      0.00000
     85       9.7973      0.00000
     86       9.9189      0.00000
     87      10.0012      0.00000
     88      10.2382      0.00000
     89      10.2634      0.00000
     90      10.4542      0.00000
     91      10.5539      0.00000
     92      10.8740      0.00000

 k-point    17 :       0.5000    0.3333    0.0000
  band No.  band energies     occupation 
      1     -31.3490      1.00000
      2     -31.3446      1.00000
      3     -31.2186      1.00000
      4     -31.1333      1.00000
      5     -31.0874      1.00000
      6     -31.0557      1.00000
      7     -13.3696      1.00000
      8     -13.2221      1.00000
      9     -13.1568      1.00000
     10     -13.0748      1.00000
     11     -13.0664      1.00000
     12     -12.9871      1.00000
     13     -12.9630      1.00000
     14     -12.8774      1.00000
     15     -12.7918      1.00000
     16     -12.7548      1.00000
     17     -12.6423      1.00000
     18     -12.6190      1.00000
     19     -12.6092      1.00000
     20     -12.5337      1.00000
     21     -12.5122      1.00000
     22     -12.3490      1.00000
     23     -12.2399      1.00000
     24     -12.2180      1.00000
     25      -9.9843      1.00000
     26      -9.6767      1.00000
     27      -9.6514      1.00000
     28      -9.4089      1.00000
     29      -9.2355      1.00000
     30      -9.1909      1.00000
     31      -9.0221      1.00000
     32      -8.9464      1.00000
     33      -8.9307      1.00000
     34      -8.7265      1.00000
     35      -8.6809      1.00000
     36      -8.6199      1.00000
     37      -0.8684      1.00000
     38      -0.8128      1.00000
     39      -0.1090      1.00000
     40      -0.0693      1.00000
     41       0.0679      1.00000
     42       0.3770      1.00000
     43       0.5473      1.00000
     44       0.7190      1.00000
     45       0.8795      1.00000
     46       1.1017      1.00000
     47       1.1930      1.00000
     48       1.4874      1.00000
     49       1.6217      1.00000
     50       1.6901      1.00000
     51       1.8154      1.00000
     52       1.8321      1.00000
     53       2.0690      1.00000
     54       2.2362      1.00000
     55       2.3455      1.00000
     56       2.4104      1.00000
     57       2.5717      1.00000
     58       2.7675      1.00000
     59       2.8262      1.00000
     60       2.8652      1.00000
     61       2.9472      1.00000
     62       3.0060      1.00000
     63       3.0610      1.00000
     64       3.1007      1.00000
     65       3.1527      1.00000
     66       3.3127      1.00000
     67       3.3654      1.00000
     68       3.3794      1.00000
     69       3.5025      1.00000
     70       3.5317      1.00000
     71       3.7597      1.00000
     72       3.8286      1.00000
     73       6.9942      0.00000
     74       7.2029      0.00000
     75       7.6998      0.00000
     76       7.8937      0.00000
     77       7.9895      0.00000
     78       8.4627      0.00000
     79       8.4885      0.00000
     80       8.6352      0.00000
     81       8.8832      0.00000
     82       9.1785      0.00000
     83       9.4025      0.00000
     84       9.4735      0.00000
     85       9.6816      0.00000
     86       9.9056      0.00000
     87      10.2167      0.00000
     88      10.3057      0.00000
     89      10.3981      0.00000
     90      10.5390      0.00000
     91      10.6455      0.00000
     92      10.8264      0.00000

 k-point    18 :      -0.3333    0.5000    0.0000
  band No.  band energies     occupation 
      1     -31.3490      1.00000
      2     -31.3446      1.00000
      3     -31.2186      1.00000
      4     -31.1333      1.00000
      5     -31.0874      1.00000
      6     -31.0557      1.00000
      7     -13.3696      1.00000
      8     -13.2221      1.00000
      9     -13.1568      1.00000
     10     -13.0748      1.00000
     11     -13.0664      1.00000
     12     -12.9871      1.00000
     13     -12.9630      1.00000
     14     -12.8774      1.00000
     15     -12.7918      1.00000
     16     -12.7548      1.00000
     17     -12.6423      1.00000
     18     -12.6190      1.00000
     19     -12.6092      1.00000
     20     -12.5337      1.00000
     21     -12.5122      1.00000
     22     -12.3490      1.00000
     23     -12.2399      1.00000
     24     -12.2180      1.00000
     25      -9.9843      1.00000
     26      -9.6767      1.00000
     27      -9.6514      1.00000
     28      -9.4089      1.00000
     29      -9.2355      1.00000
     30      -9.1909      1.00000
     31      -9.0221      1.00000
     32      -8.9464      1.00000
     33      -8.9307      1.00000
     34      -8.7265      1.00000
     35      -8.6809      1.00000
     36      -8.6199      1.00000
     37      -0.8684      1.00000
     38      -0.8128      1.00000
     39      -0.1090      1.00000
     40      -0.0693      1.00000
     41       0.0679      1.00000
     42       0.3770      1.00000
     43       0.5473      1.00000
     44       0.7190      1.00000
     45       0.8795      1.00000
     46       1.1017      1.00000
     47       1.1930      1.00000
     48       1.4874      1.00000
     49       1.6217      1.00000
     50       1.6901      1.00000
     51       1.8154      1.00000
     52       1.8321      1.00000
     53       2.0690      1.00000
     54       2.2362      1.00000
     55       2.3455      1.00000
     56       2.4104      1.00000
     57       2.5717      1.00000
     58       2.7675      1.00000
     59       2.8262      1.00000
     60       2.8652      1.00000
     61       2.9472      1.00000
     62       3.0060      1.00000
     63       3.0610      1.00000
     64       3.1007      1.00000
     65       3.1527      1.00000
     66       3.3127      1.00000
     67       3.3654      1.00000
     68       3.3794      1.00000
     69       3.5025      1.00000
     70       3.5317      1.00000
     71       3.7597      1.00000
     72       3.8286      1.00000
     73       6.9942      0.00000
     74       7.2029      0.00000
     75       7.6998      0.00000
     76       7.8937      0.00000
     77       7.9895      0.00000
     78       8.4627      0.00000
     79       8.4885      0.00000
     80       8.6352      0.00000
     81       8.8832      0.00000
     82       9.1785      0.00000
     83       9.4025      0.00000
     84       9.4735      0.00000
     85       9.6816      0.00000
     86       9.9056      0.00000
     87      10.2167      0.00000
     88      10.3057      0.00000
     89      10.3981      0.00000
     90      10.5390      0.00000
     91      10.6455      0.00000
     92      10.8263      0.00000

 k-point    19 :      -0.3333    0.3333    0.0000
  band No.  band energies     occupation 
      1     -31.3496      1.00000
      2     -31.3447      1.00000
      3     -31.2293      1.00000
      4     -31.1221      1.00000
      5     -31.1046      1.00000
      6     -31.0382      1.00000
      7     -13.3219      1.00000
      8     -13.2230      1.00000
      9     -13.1650      1.00000
     10     -13.1030      1.00000
     11     -13.0471      1.00000
     12     -13.0360      1.00000
     13     -12.9637      1.00000
     14     -12.8648      1.00000
     15     -12.8302      1.00000
     16     -12.7111      1.00000
     17     -12.6668      1.00000
     18     -12.6464      1.00000
     19     -12.5926      1.00000
     20     -12.4730      1.00000
     21     -12.4690      1.00000
     22     -12.3486      1.00000
     23     -12.2431      1.00000
     24     -12.2379      1.00000
     25     -10.1286      1.00000
     26      -9.7202      1.00000
     27      -9.6546      1.00000
     28      -9.3384      1.00000
     29      -9.2618      1.00000
     30      -9.0847      1.00000
     31      -9.0561      1.00000
     32      -8.9823      1.00000
     33      -8.8492      1.00000
     34      -8.7681      1.00000
     35      -8.6624      1.00000
     36      -8.6114      1.00000
     37      -1.0420      1.00000
     38      -0.8641      1.00000
     39      -0.2307      1.00000
     40      -0.1867      1.00000
     41       0.0759      1.00000
     42       0.4821      1.00000
     43       0.6850      1.00000
     44       0.6964      1.00000
     45       0.9362      1.00000
     46       1.1037      1.00000
     47       1.2058      1.00000
     48       1.4450      1.00000
     49       1.5201      1.00000
     50       1.6805      1.00000
     51       1.7676      1.00000
     52       2.0562      1.00000
     53       2.1977      1.00000
     54       2.2164      1.00000
     55       2.4415      1.00000
     56       2.5242      1.00000
     57       2.5265      1.00000
     58       2.6455      1.00000
     59       2.7770      1.00000
     60       2.8228      1.00000
     61       2.9482      1.00000
     62       2.9901      1.00000
     63       3.0526      1.00000
     64       3.0808      1.00000
     65       3.1998      1.00000
     66       3.2835      1.00000
     67       3.4192      1.00000
     68       3.5015      1.00000
     69       3.5411      1.00000
     70       3.5532      1.00000
     71       3.6867      1.00000
     72       3.7237      1.00000
     73       7.2066      0.00000
     74       7.3828      0.00000
     75       7.8123      0.00000
     76       7.9733      0.00000
     77       8.1830      0.00000
     78       8.4982      0.00000
     79       8.5828      0.00000
     80       8.7227      0.00000
     81       8.8661      0.00000
     82       9.1632      0.00000
     83       9.2505      0.00000
     84       9.5612      0.00000
     85       9.6502      0.00000
     86       9.8311      0.00000
     87      10.0300      0.00000
     88      10.3408      0.00000
     89      10.3695      0.00000
     90      10.5534      0.00000
     91      10.7241      0.00000
     92      10.8871      0.00000

 k-point    20 :       0.5000    0.5000    0.0000
  band No.  band energies     occupation 
      1     -31.3487      1.00000
      2     -31.3446      1.00000
      3     -31.2251      1.00000
      4     -31.1270      1.00000
      5     -31.0767      1.00000
      6     -31.0665      1.00000
      7     -13.3547      1.00000
      8     -13.2473      1.00000
      9     -13.1782      1.00000
     10     -13.0933      1.00000
     11     -13.0400      1.00000
     12     -13.0279      1.00000
     13     -12.9850      1.00000
     14     -12.8704      1.00000
     15     -12.8001      1.00000
     16     -12.7946      1.00000
     17     -12.6205      1.00000
     18     -12.5878      1.00000
     19     -12.5854      1.00000
     20     -12.5336      1.00000
     21     -12.5176      1.00000
     22     -12.3323      1.00000
     23     -12.2140      1.00000
     24     -12.2097      1.00000
     25      -9.9439      1.00000
     26      -9.7052      1.00000
     27      -9.6689      1.00000
     28      -9.4093      1.00000
     29      -9.1745      1.00000
     30      -9.1197      1.00000
     31      -9.0500      1.00000
     32      -8.9951      1.00000
     33      -8.9883      1.00000
     34      -8.6924      1.00000
     35      -8.6871      1.00000
     36      -8.6067      1.00000
     37      -0.9448      1.00000
     38      -0.8249      1.00000
     39      -0.0645      1.00000
     40      -0.0537      1.00000
     41       0.0926      1.00000
     42       0.3793      1.00000
     43       0.6298      1.00000
     44       0.6744      1.00000
     45       0.9085      1.00000
     46       0.9583      1.00000
     47       1.2697      1.00000
     48       1.4562      1.00000
     49       1.4731      1.00000
     50       1.7577      1.00000
     51       1.8408      1.00000
     52       1.8699      1.00000
     53       2.0699      1.00000
     54       2.3070      1.00000
     55       2.3286      1.00000
     56       2.5169      1.00000
     57       2.5850      1.00000
     58       2.6026      1.00000
     59       2.7696      1.00000
     60       2.8242      1.00000
     61       2.8433      1.00000
     62       2.8833      1.00000
     63       3.0709      1.00000
     64       3.1472      1.00000
     65       3.1509      1.00000
     66       3.3047      1.00000
     67       3.3794      1.00000
     68       3.4452      1.00000
     69       3.5251      1.00000
     70       3.6850      1.00000
     71       3.8194      1.00000
     72       3.8658      1.00000
     73       6.7581      0.00000
     74       7.2127      0.00000
     75       7.6672      0.00000
     76       7.8820      0.00000
     77       7.9380      0.00000
     78       8.4574      0.00000
     79       8.6581      0.00000
     80       8.6644      0.00000
     81       8.8449      0.00000
     82       9.1219      0.00000
     83       9.5021      0.00000
     84       9.5496      0.00000
     85       9.6482      0.00000
     86       9.9552      0.00000
     87      10.1234      0.00000
     88      10.2748      0.00000
     89      10.4717      0.00000
     90      10.6846      0.00000
     91      10.7842      0.00000
     92      10.8196      0.00000

 k-point    21 :       0.0000    0.0000    0.3333
  band No.  band energies     occupation 
      1     -31.3514      1.00000
      2     -31.3460      1.00000
      3     -31.2396      1.00000
      4     -31.1368      1.00000
      5     -31.1091      1.00000
      6     -31.0050      1.00000
      7     -13.2308      1.00000
      8     -13.1948      1.00000
      9     -13.1748      1.00000
     10     -13.0606      1.00000
     11     -12.9885      1.00000
     12     -12.9574      1.00000
     13     -12.9407      1.00000
     14     -12.8722      1.00000
     15     -12.8648      1.00000
     16     -12.8602      1.00000
     17     -12.6276      1.00000
     18     -12.5667      1.00000
     19     -12.5226      1.00000
     20     -12.4792      1.00000
     21     -12.3723      1.00000
     22     -12.3694      1.00000
     23     -12.3598      1.00000
     24     -12.3270      1.00000
     25     -10.4192      1.00000
     26     -10.1223      1.00000
     27      -9.5542      1.00000
     28      -9.2310      1.00000
     29      -9.1391      1.00000
     30      -9.1182      1.00000
     31      -8.9417      1.00000
     32      -8.9416      1.00000
     33      -8.8108      1.00000
     34      -8.7870      1.00000
     35      -8.6976      1.00000
     36      -8.6101      1.00000
     37      -1.2195      1.00000
     38      -1.0472      1.00000
     39      -0.6484      1.00000
     40      -0.3946      1.00000
     41       0.1109      1.00000
     42       0.4162      1.00000
     43       0.8758      1.00000
     44       0.9252      1.00000
     45       0.9859      1.00000
     46       1.0837      1.00000
     47       1.3445      1.00000
     48       1.5112      1.00000
     49       1.5793      1.00000
     50       1.6223      1.00000
     51       1.8181      1.00000
     52       2.0090      1.00000
     53       2.2587      1.00000
     54       2.2984      1.00000
     55       2.3383      1.00000
     56       2.4945      1.00000
     57       2.6141      1.00000
     58       2.7673      1.00000
     59       2.7693      1.00000
     60       2.8703      1.00000
     61       2.9081      1.00000
     62       2.9782      1.00000
     63       3.0560      1.00000
     64       3.1595      1.00000
     65       3.3278      1.00000
     66       3.3298      1.00000
     67       3.4518      1.00000
     68       3.4918      1.00000
     69       3.4945      1.00000
     70       3.6425      1.00000
     71       3.7510      1.00000
     72       3.8055      1.00000
     73       7.6253      0.00000
     74       7.7484      0.00000
     75       7.9500      0.00000
     76       8.2968      0.00000
     77       8.3808      0.00000
     78       8.7170      0.00000
     79       8.8395      0.00000
     80       8.9537      0.00000
     81       9.2857      0.00000
     82       9.3421      0.00000
     83       9.5364      0.00000
     84       9.6188      0.00000
     85       9.7016      0.00000
     86       9.8205      0.00000
     87       9.8671      0.00000
     88      10.1198      0.00000
     89      10.2888      0.00000
     90      10.5281      0.00000
     91      10.6672      0.00000
     92      10.7642      0.00000

 k-point    22 :       0.1667    0.0000    0.3333
  band No.  band energies     occupation 
      1     -31.3507      1.00000
      2     -31.3459      1.00000
      3     -31.2315      1.00000
      4     -31.1301      1.00000
      5     -31.1180      1.00000
      6     -31.0120      1.00000
      7     -13.2227      1.00000
      8     -13.2041      1.00000
      9     -13.1546      1.00000
     10     -13.0473      1.00000
     11     -13.0173      1.00000
     12     -12.9679      1.00000
     13     -12.9583      1.00000
     14     -12.8908      1.00000
     15     -12.8657      1.00000
     16     -12.8215      1.00000
     17     -12.6254      1.00000
     18     -12.5719      1.00000
     19     -12.5318      1.00000
     20     -12.4769      1.00000
     21     -12.4088      1.00000
     22     -12.3846      1.00000
     23     -12.3487      1.00000
     24     -12.3340      1.00000
     25     -10.3012      1.00000
     26     -10.0257      1.00000
     27      -9.6107      1.00000
     28      -9.2851      1.00000
     29      -9.2056      1.00000
     30      -9.0183      1.00000
     31      -8.9847      1.00000
     32      -8.9105      1.00000
     33      -8.8522      1.00000
     34      -8.7615      1.00000
     35      -8.7578      1.00000
     36      -8.5981      1.00000
     37      -1.0982      1.00000
     38      -0.9860      1.00000
     39      -0.6346      1.00000
     40      -0.3533      1.00000
     41       0.2051      1.00000
     42       0.4092      1.00000
     43       0.7121      1.00000
     44       0.9552      1.00000
     45       0.9898      1.00000
     46       1.1717      1.00000
     47       1.3078      1.00000
     48       1.4690      1.00000
     49       1.5949      1.00000
     50       1.6517      1.00000
     51       1.7701      1.00000
     52       2.0739      1.00000
     53       2.2504      1.00000
     54       2.3550      1.00000
     55       2.4076      1.00000
     56       2.4651      1.00000
     57       2.6182      1.00000
     58       2.6838      1.00000
     59       2.8043      1.00000
     60       2.8248      1.00000
     61       2.9410      1.00000
     62       2.9434      1.00000
     63       3.0311      1.00000
     64       3.1130      1.00000
     65       3.2627      1.00000
     66       3.2790      1.00000
     67       3.3531      1.00000
     68       3.4544      1.00000
     69       3.4866      1.00000
     70       3.6361      1.00000
     71       3.6777      1.00000
     72       3.7964      1.00000
     73       7.5805      0.00000
     74       7.8330      0.00000
     75       8.0034      0.00000
     76       8.2699      0.00000
     77       8.4641      0.00000
     78       8.6485      0.00000
     79       8.6634      0.00000
     80       8.9495      0.00000
     81       9.0540      0.00000
     82       9.1745      0.00000
     83       9.4839      0.00000
     84       9.6044      0.00000
     85       9.6638      0.00000
     86       9.7436      0.00000
     87       9.8596      0.00000
     88      10.1062      0.00000
     89      10.2947      0.00000
     90      10.3383      0.00000
     91      10.5092      0.00000
     92      10.7527      0.00000

 k-point    23 :       0.0000   -0.1667   -0.3333
  band No.  band energies     occupation 
      1     -31.3507      1.00000
      2     -31.3459      1.00000
      3     -31.2315      1.00000
      4     -31.1301      1.00000
      5     -31.1180      1.00000
      6     -31.0120      1.00000
      7     -13.2227      1.00000
      8     -13.2041      1.00000
      9     -13.1546      1.00000
     10     -13.0473      1.00000
     11     -13.0173      1.00000
     12     -12.9679      1.00000
     13     -12.9583      1.00000
     14     -12.8908      1.00000
     15     -12.8657      1.00000
     16     -12.8215      1.00000
     17     -12.6254      1.00000
     18     -12.5719      1.00000
     19     -12.5318      1.00000
     20     -12.4769      1.00000
     21     -12.4088      1.00000
     22     -12.3846      1.00000
     23     -12.3487      1.00000
     24     -12.3340      1.00000
     25     -10.3012      1.00000
     26     -10.0257      1.00000
     27      -9.6107      1.00000
     28      -9.2851      1.00000
     29      -9.2056      1.00000
     30      -9.0183      1.00000
     31      -8.9847      1.00000
     32      -8.9105      1.00000
     33      -8.8522      1.00000
     34      -8.7615      1.00000
     35      -8.7578      1.00000
     36      -8.5981      1.00000
     37      -1.0982      1.00000
     38      -0.9860      1.00000
     39      -0.6346      1.00000
     40      -0.3533      1.00000
     41       0.2051      1.00000
     42       0.4092      1.00000
     43       0.7121      1.00000
     44       0.9552      1.00000
     45       0.9898      1.00000
     46       1.1717      1.00000
     47       1.3078      1.00000
     48       1.4690      1.00000
     49       1.5949      1.00000
     50       1.6517      1.00000
     51       1.7701      1.00000
     52       2.0739      1.00000
     53       2.2504      1.00000
     54       2.3550      1.00000
     55       2.4076      1.00000
     56       2.4651      1.00000
     57       2.6182      1.00000
     58       2.6838      1.00000
     59       2.8043      1.00000
     60       2.8248      1.00000
     61       2.9410      1.00000
     62       2.9434      1.00000
     63       3.0311      1.00000
     64       3.1130      1.00000
     65       3.2627      1.00000
     66       3.2790      1.00000
     67       3.3531      1.00000
     68       3.4544      1.00000
     69       3.4866      1.00000
     70       3.6361      1.00000
     71       3.6777      1.00000
     72       3.7964      1.00000
     73       7.5805      0.00000
     74       7.8330      0.00000
     75       8.0034      0.00000
     76       8.2699      0.00000
     77       8.4641      0.00000
     78       8.6485      0.00000
     79       8.6634      0.00000
     80       8.9495      0.00000
     81       9.0540      0.00000
     82       9.1745      0.00000
     83       9.4839      0.00000
     84       9.6044      0.00000
     85       9.6638      0.00000
     86       9.7436      0.00000
     87       9.8596      0.00000
     88      10.1062      0.00000
     89      10.2947      0.00000
     90      10.3383      0.00000
     91      10.5092      0.00000
     92      10.7527      0.00000

 k-point    24 :       0.3333    0.0000    0.3333
  band No.  band energies     occupation 
      1     -31.3496      1.00000
      2     -31.3457      1.00000
      3     -31.2091      1.00000
      4     -31.1420      1.00000
      5     -31.1135      1.00000
      6     -31.0291      1.00000
      7     -13.2187      1.00000
      8     -13.2152      1.00000
      9     -13.1258      1.00000
     10     -13.0824      1.00000
     11     -13.0370      1.00000
     12     -12.9812      1.00000
     13     -12.9572      1.00000
     14     -12.9029      1.00000
     15     -12.8459      1.00000
     16     -12.7745      1.00000
     17     -12.6423      1.00000
     18     -12.5926      1.00000
     19     -12.5275      1.00000
     20     -12.4874      1.00000
     21     -12.4540      1.00000
     22     -12.4169      1.00000
     23     -12.3664      1.00000
     24     -12.3092      1.00000
     25     -10.0542      1.00000
     26      -9.8217      1.00000
     27      -9.6575      1.00000
     28      -9.3955      1.00000
     29      -9.3455      1.00000
     30      -9.0889      1.00000
     31      -8.9506      1.00000
     32      -8.9194      1.00000
     33      -8.8212      1.00000
     34      -8.7947      1.00000
     35      -8.7308      1.00000
     36      -8.6279      1.00000
     37      -0.8532      1.00000
     38      -0.7836      1.00000
     39      -0.5891      1.00000
     40      -0.3344      1.00000
     41       0.3479      1.00000
     42       0.4111      1.00000
     43       0.6754      1.00000
     44       0.8447      1.00000
     45       1.0980      1.00000
     46       1.1986      1.00000
     47       1.3407      1.00000
     48       1.4426      1.00000
     49       1.5554      1.00000
     50       1.6153      1.00000
     51       1.7787      1.00000
     52       2.0103      1.00000
     53       2.0778      1.00000
     54       2.2563      1.00000
     55       2.3906      1.00000
     56       2.4711      1.00000
     57       2.6116      1.00000
     58       2.6459      1.00000
     59       2.7135      1.00000
     60       2.7661      1.00000
     61       2.8663      1.00000
     62       3.0182      1.00000
     63       3.0891      1.00000
     64       3.1576      1.00000
     65       3.1843      1.00000
     66       3.2431      1.00000
     67       3.3240      1.00000
     68       3.4356      1.00000
     69       3.5308      1.00000
     70       3.5592      1.00000
     71       3.6465      1.00000
     72       3.7125      1.00000
     73       7.2238      0.00000
     74       7.6951      0.00000
     75       8.1441      0.00000
     76       8.2057      0.00000
     77       8.3512      0.00000
     78       8.4952      0.00000
     79       8.7148      0.00000
     80       8.8958      0.00000
     81       8.9847      0.00000
     82       9.1582      0.00000
     83       9.1951      0.00000
     84       9.3362      0.00000
     85       9.4133      0.00000
     86       9.6724      0.00000
     87       9.9205      0.00000
     88      10.0605      0.00000
     89      10.2921      0.00000
     90      10.3556      0.00000
     91      10.5114      0.00000
     92      10.6512      0.00000

 k-point    25 :      -0.0000   -0.3333   -0.3333
  band No.  band energies     occupation 
      1     -31.3496      1.00000
      2     -31.3457      1.00000
      3     -31.2091      1.00000
      4     -31.1420      1.00000
      5     -31.1135      1.00000
      6     -31.0291      1.00000
      7     -13.2187      1.00000
      8     -13.2152      1.00000
      9     -13.1258      1.00000
     10     -13.0824      1.00000
     11     -13.0370      1.00000
     12     -12.9812      1.00000
     13     -12.9572      1.00000
     14     -12.9029      1.00000
     15     -12.8459      1.00000
     16     -12.7745      1.00000
     17     -12.6423      1.00000
     18     -12.5926      1.00000
     19     -12.5275      1.00000
     20     -12.4874      1.00000
     21     -12.4540      1.00000
     22     -12.4169      1.00000
     23     -12.3664      1.00000
     24     -12.3092      1.00000
     25     -10.0542      1.00000
     26      -9.8217      1.00000
     27      -9.6575      1.00000
     28      -9.3955      1.00000
     29      -9.3455      1.00000
     30      -9.0889      1.00000
     31      -8.9506      1.00000
     32      -8.9194      1.00000
     33      -8.8212      1.00000
     34      -8.7947      1.00000
     35      -8.7308      1.00000
     36      -8.6279      1.00000
     37      -0.8532      1.00000
     38      -0.7836      1.00000
     39      -0.5891      1.00000
     40      -0.3344      1.00000
     41       0.3479      1.00000
     42       0.4111      1.00000
     43       0.6754      1.00000
     44       0.8447      1.00000
     45       1.0980      1.00000
     46       1.1986      1.00000
     47       1.3407      1.00000
     48       1.4426      1.00000
     49       1.5554      1.00000
     50       1.6153      1.00000
     51       1.7787      1.00000
     52       2.0103      1.00000
     53       2.0778      1.00000
     54       2.2563      1.00000
     55       2.3906      1.00000
     56       2.4711      1.00000
     57       2.6116      1.00000
     58       2.6459      1.00000
     59       2.7135      1.00000
     60       2.7661      1.00000
     61       2.8663      1.00000
     62       3.0182      1.00000
     63       3.0891      1.00000
     64       3.1576      1.00000
     65       3.1843      1.00000
     66       3.2431      1.00000
     67       3.3240      1.00000
     68       3.4356      1.00000
     69       3.5308      1.00000
     70       3.5592      1.00000
     71       3.6465      1.00000
     72       3.7125      1.00000
     73       7.2238      0.00000
     74       7.6951      0.00000
     75       8.1441      0.00000
     76       8.2057      0.00000
     77       8.3512      0.00000
     78       8.4952      0.00000
     79       8.7148      0.00000
     80       8.8958      0.00000
     81       8.9847      0.00000
     82       9.1582      0.00000
     83       9.1951      0.00000
     84       9.3362      0.00000
     85       9.4133      0.00000
     86       9.6724      0.00000
     87       9.9205      0.00000
     88      10.0605      0.00000
     89      10.2921      0.00000
     90      10.3556      0.00000
     91      10.5115      0.00000
     92      10.6550      0.00000

 k-point    26 :       0.5000   -0.0000    0.3333
  band No.  band energies     occupation 
      1     -31.3491      1.00000
      2     -31.3456      1.00000
      3     -31.1842      1.00000
      4     -31.1676      1.00000
      5     -31.1018      1.00000
      6     -31.0410      1.00000
      7     -13.2332      1.00000
      8     -13.2140      1.00000
      9     -13.1301      1.00000
     10     -13.0857      1.00000
     11     -13.0300      1.00000
     12     -12.9952      1.00000
     13     -12.9614      1.00000
     14     -12.8959      1.00000
     15     -12.8357      1.00000
     16     -12.7451      1.00000
     17     -12.6552      1.00000
     18     -12.5931      1.00000
     19     -12.5361      1.00000
     20     -12.5221      1.00000
     21     -12.4356      1.00000
     22     -12.4248      1.00000
     23     -12.3949      1.00000
     24     -12.2924      1.00000
     25      -9.9029      1.00000
     26      -9.7694      1.00000
     27      -9.5656      1.00000
     28      -9.4853      1.00000
     29      -9.4407      1.00000
     30      -9.1419      1.00000
     31      -8.9771      1.00000
     32      -8.9566      1.00000
     33      -8.8224      1.00000
     34      -8.7449      1.00000
     35      -8.7037      1.00000
     36      -8.6531      1.00000
     37      -0.7201      1.00000
     38      -0.6208      1.00000
     39      -0.5399      1.00000
     40      -0.3915      1.00000
     41       0.3697      1.00000
     42       0.4827      1.00000
     43       0.7278      1.00000
     44       0.7866      1.00000
     45       1.0461      1.00000
     46       1.1776      1.00000
     47       1.3064      1.00000
     48       1.4631      1.00000
     49       1.4656      1.00000
     50       1.6755      1.00000
     51       1.7813      1.00000
     52       1.9659      1.00000
     53       1.9887      1.00000
     54       2.2904      1.00000
     55       2.3656      1.00000
     56       2.4087      1.00000
     57       2.5343      1.00000
     58       2.5817      1.00000
     59       2.6876      1.00000
     60       2.8096      1.00000
     61       2.9217      1.00000
     62       2.9584      1.00000
     63       3.0989      1.00000
     64       3.1719      1.00000
     65       3.1909      1.00000
     66       3.2298      1.00000
     67       3.3351      1.00000
     68       3.3816      1.00000
     69       3.5194      1.00000
     70       3.5435      1.00000
     71       3.6603      1.00000
     72       3.7869      1.00000
     73       7.0145      0.00000
     74       7.7027      0.00000
     75       7.9822      0.00000
     76       8.0610      0.00000
     77       8.2898      0.00000
     78       8.3481      0.00000
     79       8.7534      0.00000
     80       8.8730      0.00000
     81       8.9762      0.00000
     82       9.1003      0.00000
     83       9.2376      0.00000
     84       9.2924      0.00000
     85       9.5137      0.00000
     86       9.6570      0.00000
     87       9.7941      0.00000
     88       9.9280      0.00000
     89      10.2959      0.00000
     90      10.3582      0.00000
     91      10.5933      0.00000
     92      10.7579      0.00000

 k-point    27 :      -0.0000    0.5000   -0.3333
  band No.  band energies     occupation 
      1     -31.3491      1.00000
      2     -31.3456      1.00000
      3     -31.1842      1.00000
      4     -31.1676      1.00000
      5     -31.1018      1.00000
      6     -31.0410      1.00000
      7     -13.2332      1.00000
      8     -13.2140      1.00000
      9     -13.1301      1.00000
     10     -13.0857      1.00000
     11     -13.0300      1.00000
     12     -12.9952      1.00000
     13     -12.9614      1.00000
     14     -12.8959      1.00000
     15     -12.8357      1.00000
     16     -12.7451      1.00000
     17     -12.6552      1.00000
     18     -12.5931      1.00000
     19     -12.5361      1.00000
     20     -12.5221      1.00000
     21     -12.4356      1.00000
     22     -12.4248      1.00000
     23     -12.3949      1.00000
     24     -12.2924      1.00000
     25      -9.9029      1.00000
     26      -9.7694      1.00000
     27      -9.5656      1.00000
     28      -9.4853      1.00000
     29      -9.4407      1.00000
     30      -9.1419      1.00000
     31      -8.9771      1.00000
     32      -8.9566      1.00000
     33      -8.8224      1.00000
     34      -8.7449      1.00000
     35      -8.7037      1.00000
     36      -8.6531      1.00000
     37      -0.7201      1.00000
     38      -0.6208      1.00000
     39      -0.5399      1.00000
     40      -0.3915      1.00000
     41       0.3697      1.00000
     42       0.4827      1.00000
     43       0.7278      1.00000
     44       0.7866      1.00000
     45       1.0461      1.00000
     46       1.1776      1.00000
     47       1.3064      1.00000
     48       1.4631      1.00000
     49       1.4656      1.00000
     50       1.6755      1.00000
     51       1.7813      1.00000
     52       1.9659      1.00000
     53       1.9887      1.00000
     54       2.2904      1.00000
     55       2.3656      1.00000
     56       2.4087      1.00000
     57       2.5343      1.00000
     58       2.5817      1.00000
     59       2.6876      1.00000
     60       2.8096      1.00000
     61       2.9217      1.00000
     62       2.9584      1.00000
     63       3.0989      1.00000
     64       3.1719      1.00000
     65       3.1909      1.00000
     66       3.2298      1.00000
     67       3.3351      1.00000
     68       3.3816      1.00000
     69       3.5194      1.00000
     70       3.5435      1.00000
     71       3.6603      1.00000
     72       3.7869      1.00000
     73       7.0145      0.00000
     74       7.7027      0.00000
     75       7.9822      0.00000
     76       8.0610      0.00000
     77       8.2898      0.00000
     78       8.3481      0.00000
     79       8.7534      0.00000
     80       8.8730      0.00000
     81       8.9762      0.00000
     82       9.1003      0.00000
     83       9.2376      0.00000
     84       9.2924      0.00000
     85       9.5137      0.00000
     86       9.6570      0.00000
     87       9.7941      0.00000
     88       9.9280      0.00000
     89      10.2959      0.00000
     90      10.3582      0.00000
     91      10.5943      0.00000
     92      10.7625      0.00000

 k-point    28 :      -0.3333   -0.0000    0.3333
  band No.  band energies     occupation 
      1     -31.3496      1.00000
      2     -31.3457      1.00000
      3     -31.2091      1.00000
      4     -31.1420      1.00000
      5     -31.1135      1.00000
      6     -31.0291      1.00000
      7     -13.2278      1.00000
      8     -13.2116      1.00000
      9     -13.1299      1.00000
     10     -13.0650      1.00000
     11     -13.0270      1.00000
     12     -12.9974      1.00000
     13     -12.9448      1.00000
     14     -12.8998      1.00000
     15     -12.8663      1.00000
     16     -12.7789      1.00000
     17     -12.6524      1.00000
     18     -12.5830      1.00000
     19     -12.5209      1.00000
     20     -12.4784      1.00000
     21     -12.4455      1.00000
     22     -12.4151      1.00000
     23     -12.3840      1.00000
     24     -12.3093      1.00000
     25     -10.0399      1.00000
     26      -9.8989      1.00000
     27      -9.5399      1.00000
     28      -9.4058      1.00000
     29      -9.3389      1.00000
     30      -9.1617      1.00000
     31      -8.9605      1.00000
     32      -8.9196      1.00000
     33      -8.8458      1.00000
     34      -8.7695      1.00000
     35      -8.6778      1.00000
     36      -8.6495      1.00000
     37      -0.8436      1.00000
     38      -0.7964      1.00000
     39      -0.6026      1.00000
     40      -0.3309      1.00000
     41       0.3633      1.00000
     42       0.4110      1.00000
     43       0.7101      1.00000
     44       0.8479      1.00000
     45       1.0612      1.00000
     46       1.2662      1.00000
     47       1.2733      1.00000
     48       1.4168      1.00000
     49       1.5813      1.00000
     50       1.6414      1.00000
     51       1.8542      1.00000
     52       1.8870      1.00000
     53       2.1649      1.00000
     54       2.2244      1.00000
     55       2.4025      1.00000
     56       2.4832      1.00000
     57       2.5310      1.00000
     58       2.5991      1.00000
     59       2.6381      1.00000
     60       2.8030      1.00000
     61       2.8917      1.00000
     62       2.9813      1.00000
     63       3.0787      1.00000
     64       3.1800      1.00000
     65       3.2086      1.00000
     66       3.2647      1.00000
     67       3.3336      1.00000
     68       3.4723      1.00000
     69       3.5041      1.00000
     70       3.5778      1.00000
     71       3.6388      1.00000
     72       3.7575      1.00000
     73       7.2081      0.00000
     74       7.8843      0.00000
     75       7.9710      0.00000
     76       8.0616      0.00000
     77       8.3375      0.00000
     78       8.5005      0.00000
     79       8.8086      0.00000
     80       8.8584      0.00000
     81       8.9547      0.00000
     82       9.1153      0.00000
     83       9.2233      0.00000
     84       9.3857      0.00000
     85       9.5592      0.00000
     86       9.6776      0.00000
     87       9.7998      0.00000
     88      10.1574      0.00000
     89      10.2781      0.00000
     90      10.3647      0.00000
     91      10.5403      0.00000
     92      10.6509      0.00000

 k-point    29 :      -0.0000    0.3333   -0.3333
  band No.  band energies     occupation 
      1     -31.3496      1.00000
      2     -31.3457      1.00000
      3     -31.2091      1.00000
      4     -31.1420      1.00000
      5     -31.1135      1.00000
      6     -31.0291      1.00000
      7     -13.2278      1.00000
      8     -13.2116      1.00000
      9     -13.1299      1.00000
     10     -13.0650      1.00000
     11     -13.0270      1.00000
     12     -12.9974      1.00000
     13     -12.9448      1.00000
     14     -12.8998      1.00000
     15     -12.8663      1.00000
     16     -12.7789      1.00000
     17     -12.6524      1.00000
     18     -12.5830      1.00000
     19     -12.5209      1.00000
     20     -12.4784      1.00000
     21     -12.4455      1.00000
     22     -12.4151      1.00000
     23     -12.3840      1.00000
     24     -12.3093      1.00000
     25     -10.0399      1.00000
     26      -9.8989      1.00000
     27      -9.5399      1.00000
     28      -9.4058      1.00000
     29      -9.3389      1.00000
     30      -9.1617      1.00000
     31      -8.9605      1.00000
     32      -8.9196      1.00000
     33      -8.8458      1.00000
     34      -8.7695      1.00000
     35      -8.6778      1.00000
     36      -8.6495      1.00000
     37      -0.8436      1.00000
     38      -0.7964      1.00000
     39      -0.6026      1.00000
     40      -0.3309      1.00000
     41       0.3633      1.00000
     42       0.4110      1.00000
     43       0.7101      1.00000
     44       0.8479      1.00000
     45       1.0612      1.00000
     46       1.2662      1.00000
     47       1.2733      1.00000
     48       1.4168      1.00000
     49       1.5813      1.00000
     50       1.6414      1.00000
     51       1.8542      1.00000
     52       1.8870      1.00000
     53       2.1649      1.00000
     54       2.2244      1.00000
     55       2.4025      1.00000
     56       2.4832      1.00000
     57       2.5310      1.00000
     58       2.5991      1.00000
     59       2.6381      1.00000
     60       2.8030      1.00000
     61       2.8917      1.00000
     62       2.9813      1.00000
     63       3.0787      1.00000
     64       3.1800      1.00000
     65       3.2086      1.00000
     66       3.2647      1.00000
     67       3.3336      1.00000
     68       3.4723      1.00000
     69       3.5041      1.00000
     70       3.5778      1.00000
     71       3.6388      1.00000
     72       3.7575      1.00000
     73       7.2081      0.00000
     74       7.8843      0.00000
     75       7.9710      0.00000
     76       8.0616      0.00000
     77       8.3375      0.00000
     78       8.5005      0.00000
     79       8.8086      0.00000
     80       8.8584      0.00000
     81       8.9547      0.00000
     82       9.1153      0.00000
     83       9.2233      0.00000
     84       9.3857      0.00000
     85       9.5592      0.00000
     86       9.6776      0.00000
     87       9.7998      0.00000
     88      10.1574      0.00000
     89      10.2781      0.00000
     90      10.3647      0.00000
     91      10.5403      0.00000
     92      10.6532      0.00000

 k-point    30 :      -0.1667   -0.0000    0.3333
  band No.  band energies     occupation 
      1     -31.3507      1.00000
      2     -31.3459      1.00000
      3     -31.2315      1.00000
      4     -31.1301      1.00000
      5     -31.1180      1.00000
      6     -31.0120      1.00000
      7     -13.2218      1.00000
      8     -13.2052      1.00000
      9     -13.1516      1.00000
     10     -13.0697      1.00000
     11     -13.0053      1.00000
     12     -12.9658      1.00000
     13     -12.9158      1.00000
     14     -12.9076      1.00000
     15     -12.8829      1.00000
     16     -12.8291      1.00000
     17     -12.6380      1.00000
     18     -12.5588      1.00000
     19     -12.5217      1.00000
     20     -12.4783      1.00000
     21     -12.3941      1.00000
     22     -12.3834      1.00000
     23     -12.3593      1.00000
     24     -12.3439      1.00000
     25     -10.2978      1.00000
     26     -10.0544      1.00000
     27      -9.5174      1.00000
     28      -9.2751      1.00000
     29      -9.2297      1.00000
     30      -9.1791      1.00000
     31      -8.9404      1.00000
     32      -8.8882      1.00000
     33      -8.8191      1.00000
     34      -8.7857      1.00000
     35      -8.6986      1.00000
     36      -8.6254      1.00000
     37      -1.1102      1.00000
     38      -0.9738      1.00000
     39      -0.6532      1.00000
     40      -0.3500      1.00000
     41       0.1756      1.00000
     42       0.4498      1.00000
     43       0.7654      1.00000
     44       0.9827      1.00000
     45       1.0226      1.00000
     46       1.1647      1.00000
     47       1.2433      1.00000
     48       1.5129      1.00000
     49       1.5490      1.00000
     50       1.6540      1.00000
     51       1.8270      1.00000
     52       1.9649      1.00000
     53       2.2507      1.00000
     54       2.3254      1.00000
     55       2.3770      1.00000
     56       2.5006      1.00000
     57       2.5696      1.00000
     58       2.6459      1.00000
     59       2.7108      1.00000
     60       2.8224      1.00000
     61       2.9836      1.00000
     62       3.0127      1.00000
     63       3.0735      1.00000
     64       3.1366      1.00000
     65       3.2263      1.00000
     66       3.3233      1.00000
     67       3.3736      1.00000
     68       3.4588      1.00000
     69       3.5587      1.00000
     70       3.5743      1.00000
     71       3.6642      1.00000
     72       3.8305      1.00000
     73       7.5345      0.00000
     74       7.9146      0.00000
     75       8.0005      0.00000
     76       8.2176      0.00000
     77       8.3064      0.00000
     78       8.6168      0.00000
     79       8.9100      0.00000
     80       8.9281      0.00000
     81       9.1132      0.00000
     82       9.2206      0.00000
     83       9.3608      0.00000
     84       9.4136      0.00000
     85       9.7104      0.00000
     86       9.7743      0.00000
     87       9.8727      0.00000
     88      10.0732      0.00000
     89      10.3085      0.00000
     90      10.4699      0.00000
     91      10.5373      0.00000
     92      10.7805      0.00000

 k-point    31 :      -0.0000    0.1667   -0.3333
  band No.  band energies     occupation 
      1     -31.3507      1.00000
      2     -31.3459      1.00000
      3     -31.2315      1.00000
      4     -31.1301      1.00000
      5     -31.1180      1.00000
      6     -31.0120      1.00000
      7     -13.2218      1.00000
      8     -13.2052      1.00000
      9     -13.1516      1.00000
     10     -13.0697      1.00000
     11     -13.0053      1.00000
     12     -12.9658      1.00000
     13     -12.9158      1.00000
     14     -12.9076      1.00000
     15     -12.8829      1.00000
     16     -12.8291      1.00000
     17     -12.6380      1.00000
     18     -12.5588      1.00000
     19     -12.5217      1.00000
     20     -12.4783      1.00000
     21     -12.3941      1.00000
     22     -12.3834      1.00000
     23     -12.3593      1.00000
     24     -12.3439      1.00000
     25     -10.2978      1.00000
     26     -10.0544      1.00000
     27      -9.5174      1.00000
     28      -9.2751      1.00000
     29      -9.2297      1.00000
     30      -9.1791      1.00000
     31      -8.9404      1.00000
     32      -8.8882      1.00000
     33      -8.8191      1.00000
     34      -8.7857      1.00000
     35      -8.6986      1.00000
     36      -8.6254      1.00000
     37      -1.1102      1.00000
     38      -0.9738      1.00000
     39      -0.6532      1.00000
     40      -0.3500      1.00000
     41       0.1756      1.00000
     42       0.4498      1.00000
     43       0.7654      1.00000
     44       0.9827      1.00000
     45       1.0226      1.00000
     46       1.1647      1.00000
     47       1.2433      1.00000
     48       1.5129      1.00000
     49       1.5490      1.00000
     50       1.6540      1.00000
     51       1.8270      1.00000
     52       1.9649      1.00000
     53       2.2507      1.00000
     54       2.3254      1.00000
     55       2.3770      1.00000
     56       2.5006      1.00000
     57       2.5696      1.00000
     58       2.6459      1.00000
     59       2.7108      1.00000
     60       2.8224      1.00000
     61       2.9836      1.00000
     62       3.0127      1.00000
     63       3.0735      1.00000
     64       3.1366      1.00000
     65       3.2263      1.00000
     66       3.3233      1.00000
     67       3.3736      1.00000
     68       3.4588      1.00000
     69       3.5587      1.00000
     70       3.5743      1.00000
     71       3.6642      1.00000
     72       3.8305      1.00000
     73       7.5345      0.00000
     74       7.9146      0.00000
     75       8.0005      0.00000
     76       8.2176      0.00000
     77       8.3064      0.00000
     78       8.6168      0.00000
     79       8.9100      0.00000
     80       8.9281      0.00000
     81       9.1132      0.00000
     82       9.2206      0.00000
     83       9.3608      0.00000
     84       9.4136      0.00000
     85       9.7104      0.00000
     86       9.7743      0.00000
     87       9.8727      0.00000
     88      10.0732      0.00000
     89      10.3085      0.00000
     90      10.4699      0.00000
     91      10.5373      0.00000
     92      10.7803      0.00000

 k-point    32 :       0.1667    0.1667    0.3333
  band No.  band energies     occupation 
      1     -31.3500      1.00000
      2     -31.3458      1.00000
      3     -31.2122      1.00000
      4     -31.1384      1.00000
      5     -31.1194      1.00000
      6     -31.0231      1.00000
      7     -13.2362      1.00000
      8     -13.1949      1.00000
      9     -13.0961      1.00000
     10     -13.0597      1.00000
     11     -13.0044      1.00000
     12     -13.0005      1.00000
     13     -12.9718      1.00000
     14     -12.8891      1.00000
     15     -12.8441      1.00000
     16     -12.8202      1.00000
     17     -12.6420      1.00000
     18     -12.5420      1.00000
     19     -12.5368      1.00000
     20     -12.4771      1.00000
     21     -12.4582      1.00000
     22     -12.4384      1.00000
     23     -12.3948      1.00000
     24     -12.3063      1.00000
     25     -10.1111      1.00000
     26      -9.8571      1.00000
     27      -9.6979      1.00000
     28      -9.3517      1.00000
     29      -9.2948      1.00000
     30      -9.1075      1.00000
     31      -8.9135      1.00000
     32      -8.8932      1.00000
     33      -8.8498      1.00000
     34      -8.8061      1.00000
     35      -8.7403      1.00000
     36      -8.6244      1.00000
     37      -0.8612      1.00000
     38      -0.7894      1.00000
     39      -0.6789      1.00000
     40      -0.3806      1.00000
     41       0.2415      1.00000
     42       0.3870      1.00000
     43       0.7745      1.00000
     44       0.8873      1.00000
     45       1.2922      1.00000
     46       1.2965      1.00000
     47       1.3355      1.00000
     48       1.3988      1.00000
     49       1.4708      1.00000
     50       1.5135      1.00000
     51       1.8033      1.00000
     52       2.0351      1.00000
     53       2.1470      1.00000
     54       2.1860      1.00000
     55       2.2543      1.00000
     56       2.5385      1.00000
     57       2.5438      1.00000
     58       2.6654      1.00000
     59       2.6955      1.00000
     60       2.9000      1.00000
     61       2.9570      1.00000
     62       2.9639      1.00000
     63       3.0736      1.00000
     64       3.1585      1.00000
     65       3.2580      1.00000
     66       3.3161      1.00000
     67       3.3426      1.00000
     68       3.3687      1.00000
     69       3.4880      1.00000
     70       3.5011      1.00000
     71       3.6619      1.00000
     72       3.7940      1.00000
     73       7.2944      0.00000
     74       7.8225      0.00000
     75       8.1689      0.00000
     76       8.2930      0.00000
     77       8.3047      0.00000
     78       8.4978      0.00000
     79       8.5531      0.00000
     80       8.8030      0.00000
     81       8.9106      0.00000
     82       9.2264      0.00000
     83       9.2583      0.00000
     84       9.6374      0.00000
     85       9.6719      0.00000
     86       9.7157      0.00000
     87       9.7890      0.00000
     88      10.1316      0.00000
     89      10.2553      0.00000
     90      10.4485      0.00000
     91      10.4547      0.00000
     92      10.6699      0.00000

 k-point    33 :       0.3333    0.1667    0.3333
  band No.  band energies     occupation 
      1     -31.3491      1.00000
      2     -31.3456      1.00000
      3     -31.1842      1.00000
      4     -31.1675      1.00000
      5     -31.1018      1.00000
      6     -31.0410      1.00000
      7     -13.2871      1.00000
      8     -13.2047      1.00000
      9     -13.1378      1.00000
     10     -13.0582      1.00000
     11     -13.0038      1.00000
     12     -12.9807      1.00000
     13     -12.9186      1.00000
     14     -12.8833      1.00000
     15     -12.8659      1.00000
     16     -12.7485      1.00000
     17     -12.6618      1.00000
     18     -12.5904      1.00000
     19     -12.5643      1.00000
     20     -12.5271      1.00000
     21     -12.4885      1.00000
     22     -12.4158      1.00000
     23     -12.3796      1.00000
     24     -12.2631      1.00000
     25      -9.9169      1.00000
     26      -9.7742      1.00000
     27      -9.5938      1.00000
     28      -9.4740      1.00000
     29      -9.3829      1.00000
     30      -9.1454      1.00000
     31      -9.0167      1.00000
     32      -8.8991      1.00000
     33      -8.8510      1.00000
     34      -8.7624      1.00000
     35      -8.6957      1.00000
     36      -8.6540      1.00000
     37      -0.6848      1.00000
     38      -0.6019      1.00000
     39      -0.4664      1.00000
     40      -0.4433      1.00000
     41       0.2159      1.00000
     42       0.4347      1.00000
     43       0.8112      1.00000
     44       0.8770      1.00000
     45       1.0568      1.00000
     46       1.1429      1.00000
     47       1.2243      1.00000
     48       1.4457      1.00000
     49       1.4983      1.00000
     50       1.7305      1.00000
     51       1.8132      1.00000
     52       1.8767      1.00000
     53       1.9896      1.00000
     54       2.0566      1.00000
     55       2.2697      1.00000
     56       2.5170      1.00000
     57       2.6443      1.00000
     58       2.6526      1.00000
     59       2.7355      1.00000
     60       2.8860      1.00000
     61       2.9432      1.00000
     62       3.0290      1.00000
     63       3.0746      1.00000
     64       3.1466      1.00000
     65       3.2179      1.00000
     66       3.2731      1.00000
     67       3.3713      1.00000
     68       3.4037      1.00000
     69       3.4819      1.00000
     70       3.5335      1.00000
     71       3.6463      1.00000
     72       3.6935      1.00000
     73       7.0698      0.00000
     74       7.6277      0.00000
     75       7.9418      0.00000
     76       8.0104      0.00000
     77       8.1444      0.00000
     78       8.3245      0.00000
     79       8.3995      0.00000
     80       8.8266      0.00000
     81       9.0016      0.00000
     82       9.1222      0.00000
     83       9.4233      0.00000
     84       9.4714      0.00000
     85       9.6004      0.00000
     86       9.8677      0.00000
     87       9.9034      0.00000
     88      10.1525      0.00000
     89      10.1970      0.00000
     90      10.4347      0.00000
     91      10.5808      0.00000
     92      10.7235      0.00000

 k-point    34 :      -0.1667   -0.3333   -0.3333
  band No.  band energies     occupation 
      1     -31.3491      1.00000
      2     -31.3456      1.00000
      3     -31.1842      1.00000
      4     -31.1675      1.00000
      5     -31.1018      1.00000
      6     -31.0410      1.00000
      7     -13.2871      1.00000
      8     -13.2047      1.00000
      9     -13.1378      1.00000
     10     -13.0582      1.00000
     11     -13.0038      1.00000
     12     -12.9807      1.00000
     13     -12.9186      1.00000
     14     -12.8833      1.00000
     15     -12.8659      1.00000
     16     -12.7485      1.00000
     17     -12.6618      1.00000
     18     -12.5904      1.00000
     19     -12.5643      1.00000
     20     -12.5271      1.00000
     21     -12.4885      1.00000
     22     -12.4158      1.00000
     23     -12.3796      1.00000
     24     -12.2631      1.00000
     25      -9.9169      1.00000
     26      -9.7742      1.00000
     27      -9.5938      1.00000
     28      -9.4740      1.00000
     29      -9.3829      1.00000
     30      -9.1454      1.00000
     31      -9.0167      1.00000
     32      -8.8991      1.00000
     33      -8.8510      1.00000
     34      -8.7624      1.00000
     35      -8.6957      1.00000
     36      -8.6540      1.00000
     37      -0.6848      1.00000
     38      -0.6019      1.00000
     39      -0.4664      1.00000
     40      -0.4433      1.00000
     41       0.2159      1.00000
     42       0.4347      1.00000
     43       0.8112      1.00000
     44       0.8770      1.00000
     45       1.0568      1.00000
     46       1.1429      1.00000
     47       1.2243      1.00000
     48       1.4457      1.00000
     49       1.4983      1.00000
     50       1.7305      1.00000
     51       1.8132      1.00000
     52       1.8767      1.00000
     53       1.9896      1.00000
     54       2.0566      1.00000
     55       2.2697      1.00000
     56       2.5170      1.00000
     57       2.6443      1.00000
     58       2.6526      1.00000
     59       2.7355      1.00000
     60       2.8860      1.00000
     61       2.9432      1.00000
     62       3.0290      1.00000
     63       3.0746      1.00000
     64       3.1466      1.00000
     65       3.2179      1.00000
     66       3.2731      1.00000
     67       3.3713      1.00000
     68       3.4037      1.00000
     69       3.4819      1.00000
     70       3.5335      1.00000
     71       3.6463      1.00000
     72       3.6935      1.00000
     73       7.0698      0.00000
     74       7.6277      0.00000
     75       7.9418      0.00000
     76       8.0104      0.00000
     77       8.1444      0.00000
     78       8.3245      0.00000
     79       8.3995      0.00000
     80       8.8266      0.00000
     81       9.0016      0.00000
     82       9.1222      0.00000
     83       9.4233      0.00000
     84       9.4714      0.00000
     85       9.6004      0.00000
     86       9.8677      0.00000
     87       9.9034      0.00000
     88      10.1525      0.00000
     89      10.1970      0.00000
     90      10.4348      0.00000
     91      10.5810      0.00000
     92      10.7224      0.00000

 k-point    35 :       0.5000    0.1667    0.3333
  band No.  band energies     occupation 
      1     -31.3488      1.00000
      2     -31.3456      1.00000
      3     -31.2014      1.00000
      4     -31.1504      1.00000
      5     -31.0979      1.00000
      6     -31.0450      1.00000
      7     -13.3191      1.00000
      8     -13.1940      1.00000
      9     -13.1586      1.00000
     10     -13.0875      1.00000
     11     -13.0146      1.00000
     12     -12.9714      1.00000
     13     -12.9473      1.00000
     14     -12.8834      1.00000
     15     -12.7997      1.00000
     16     -12.7413      1.00000
     17     -12.6950      1.00000
     18     -12.6265      1.00000
     19     -12.5743      1.00000
     20     -12.5131      1.00000
     21     -12.4771      1.00000
     22     -12.4057      1.00000
     23     -12.3187      1.00000
     24     -12.2538      1.00000
     25      -9.9516      1.00000
     26      -9.7767      1.00000
     27      -9.5562      1.00000
     28      -9.4261      1.00000
     29      -9.3962      1.00000
     30      -9.1074      1.00000
     31      -9.0382      1.00000
     32      -8.9240      1.00000
     33      -8.8816      1.00000
     34      -8.7570      1.00000
     35      -8.7080      1.00000
     36      -8.6125      1.00000
     37      -0.7824      1.00000
     38      -0.7034      1.00000
     39      -0.3928      1.00000
     40      -0.2658      1.00000
     41       0.3396      1.00000
     42       0.3910      1.00000
     43       0.6487      1.00000
     44       0.7949      1.00000
     45       0.8959      1.00000
     46       1.1080      1.00000
     47       1.3093      1.00000
     48       1.4187      1.00000
     49       1.5566      1.00000
     50       1.7476      1.00000
     51       1.8146      1.00000
     52       1.9832      1.00000
     53       2.0113      1.00000
     54       2.1777      1.00000
     55       2.2344      1.00000
     56       2.5074      1.00000
     57       2.6113      1.00000
     58       2.7121      1.00000
     59       2.7630      1.00000
     60       2.8057      1.00000
     61       2.9177      1.00000
     62       2.9372      1.00000
     63       3.0482      1.00000
     64       3.1390      1.00000
     65       3.1551      1.00000
     66       3.3142      1.00000
     67       3.3834      1.00000
     68       3.4402      1.00000
     69       3.5006      1.00000
     70       3.5609      1.00000
     71       3.6229      1.00000
     72       3.7595      1.00000
     73       7.1168      0.00000
     74       7.5495      0.00000
     75       7.8224      0.00000
     76       7.9983      0.00000
     77       8.0326      0.00000
     78       8.2203      0.00000
     79       8.4638      0.00000
     80       8.8786      0.00000
     81       8.9393      0.00000
     82       9.2344      0.00000
     83       9.2824      0.00000
     84       9.5377      0.00000
     85       9.7107      0.00000
     86       9.8294      0.00000
     87       9.9387      0.00000
     88      10.0283      0.00000
     89      10.3934      0.00000
     90      10.5211      0.00000
     91      10.6302      0.00000
     92      10.6614      0.00000

 k-point    36 :      -0.1667    0.5000   -0.3333
  band No.  band energies     occupation 
      1     -31.3488      1.00000
      2     -31.3456      1.00000
      3     -31.2014      1.00000
      4     -31.1504      1.00000
      5     -31.0979      1.00000
      6     -31.0450      1.00000
      7     -13.3191      1.00000
      8     -13.1940      1.00000
      9     -13.1586      1.00000
     10     -13.0875      1.00000
     11     -13.0146      1.00000
     12     -12.9714      1.00000
     13     -12.9473      1.00000
     14     -12.8834      1.00000
     15     -12.7997      1.00000
     16     -12.7413      1.00000
     17     -12.6950      1.00000
     18     -12.6265      1.00000
     19     -12.5743      1.00000
     20     -12.5131      1.00000
     21     -12.4771      1.00000
     22     -12.4057      1.00000
     23     -12.3187      1.00000
     24     -12.2538      1.00000
     25      -9.9516      1.00000
     26      -9.7767      1.00000
     27      -9.5562      1.00000
     28      -9.4261      1.00000
     29      -9.3962      1.00000
     30      -9.1074      1.00000
     31      -9.0382      1.00000
     32      -8.9240      1.00000
     33      -8.8816      1.00000
     34      -8.7570      1.00000
     35      -8.7080      1.00000
     36      -8.6125      1.00000
     37      -0.7824      1.00000
     38      -0.7034      1.00000
     39      -0.3928      1.00000
     40      -0.2658      1.00000
     41       0.3396      1.00000
     42       0.3910      1.00000
     43       0.6487      1.00000
     44       0.7949      1.00000
     45       0.8959      1.00000
     46       1.1080      1.00000
     47       1.3093      1.00000
     48       1.4187      1.00000
     49       1.5566      1.00000
     50       1.7476      1.00000
     51       1.8146      1.00000
     52       1.9832      1.00000
     53       2.0113      1.00000
     54       2.1777      1.00000
     55       2.2344      1.00000
     56       2.5074      1.00000
     57       2.6113      1.00000
     58       2.7121      1.00000
     59       2.7630      1.00000
     60       2.8057      1.00000
     61       2.9177      1.00000
     62       2.9372      1.00000
     63       3.0482      1.00000
     64       3.1390      1.00000
     65       3.1551      1.00000
     66       3.3142      1.00000
     67       3.3834      1.00000
     68       3.4402      1.00000
     69       3.5006      1.00000
     70       3.5609      1.00000
     71       3.6229      1.00000
     72       3.7595      1.00000
     73       7.1168      0.00000
     74       7.5495      0.00000
     75       7.8224      0.00000
     76       7.9983      0.00000
     77       8.0326      0.00000
     78       8.2203      0.00000
     79       8.4638      0.00000
     80       8.8786      0.00000
     81       8.9393      0.00000
     82       9.2344      0.00000
     83       9.2824      0.00000
     84       9.5377      0.00000
     85       9.7107      0.00000
     86       9.8294      0.00000
     87       9.9387      0.00000
     88      10.0283      0.00000
     89      10.3934      0.00000
     90      10.5211      0.00000
     91      10.6302      0.00000
     92      10.6611      0.00000

 k-point    37 :      -0.3333    0.1667    0.3333
  band No.  band energies     occupation 
      1     -31.3495      1.00000
      2     -31.3457      1.00000
      3     -31.2256      1.00000
      4     -31.1252      1.00000
      5     -31.1145      1.00000
      6     -31.0281      1.00000
      7     -13.2888      1.00000
      8     -13.2056      1.00000
      9     -13.1674      1.00000
     10     -13.0754      1.00000
     11     -13.0296      1.00000
     12     -12.9828      1.00000
     13     -12.9740      1.00000
     14     -12.8661      1.00000
     15     -12.8479      1.00000
     16     -12.7775      1.00000
     17     -12.6601      1.00000
     18     -12.6175      1.00000
     19     -12.5562      1.00000
     20     -12.4699      1.00000
     21     -12.4355      1.00000
     22     -12.3883      1.00000
     23     -12.2947      1.00000
     24     -12.2776      1.00000
     25     -10.1451      1.00000
     26      -9.9200      1.00000
     27      -9.5117      1.00000
     28      -9.3511      1.00000
     29      -9.2789      1.00000
     30      -9.1233      1.00000
     31      -9.0222      1.00000
     32      -8.9178      1.00000
     33      -8.8244      1.00000
     34      -8.7873      1.00000
     35      -8.7000      1.00000
     36      -8.6060      1.00000
     37      -1.0267      1.00000
     38      -0.8818      1.00000
     39      -0.4506      1.00000
     40      -0.2319      1.00000
     41       0.2342      1.00000
     42       0.4675      1.00000
     43       0.6247      1.00000
     44       0.8291      1.00000
     45       0.8913      1.00000
     46       1.1074      1.00000
     47       1.2573      1.00000
     48       1.4201      1.00000
     49       1.6423      1.00000
     50       1.7457      1.00000
     51       1.9108      1.00000
     52       1.9422      1.00000
     53       2.1464      1.00000
     54       2.2524      1.00000
     55       2.3944      1.00000
     56       2.4782      1.00000
     57       2.5695      1.00000
     58       2.7146      1.00000
     59       2.7832      1.00000
     60       2.8025      1.00000
     61       2.9006      1.00000
     62       2.9938      1.00000
     63       3.0592      1.00000
     64       3.1078      1.00000
     65       3.1894      1.00000
     66       3.2740      1.00000
     67       3.3988      1.00000
     68       3.4292      1.00000
     69       3.5080      1.00000
     70       3.5959      1.00000
     71       3.6684      1.00000
     72       3.7194      1.00000
     73       7.4208      0.00000
     74       7.7192      0.00000
     75       7.9261      0.00000
     76       7.9967      0.00000
     77       8.2207      0.00000
     78       8.3204      0.00000
     79       8.5494      0.00000
     80       8.7610      0.00000
     81       9.0482      0.00000
     82       9.1750      0.00000
     83       9.3607      0.00000
     84       9.5314      0.00000
     85       9.6702      0.00000
     86       9.9068      0.00000
     87      10.0442      0.00000
     88      10.2485      0.00000
     89      10.3830      0.00000
     90      10.5093      0.00000
     91      10.6335      0.00000
     92      10.7662      0.00000

 k-point    38 :      -0.1667    0.3333   -0.3333
  band No.  band energies     occupation 
      1     -31.3495      1.00000
      2     -31.3457      1.00000
      3     -31.2256      1.00000
      4     -31.1252      1.00000
      5     -31.1145      1.00000
      6     -31.0281      1.00000
      7     -13.2888      1.00000
      8     -13.2056      1.00000
      9     -13.1674      1.00000
     10     -13.0754      1.00000
     11     -13.0296      1.00000
     12     -12.9828      1.00000
     13     -12.9740      1.00000
     14     -12.8661      1.00000
     15     -12.8479      1.00000
     16     -12.7775      1.00000
     17     -12.6601      1.00000
     18     -12.6175      1.00000
     19     -12.5562      1.00000
     20     -12.4699      1.00000
     21     -12.4355      1.00000
     22     -12.3883      1.00000
     23     -12.2947      1.00000
     24     -12.2776      1.00000
     25     -10.1451      1.00000
     26      -9.9200      1.00000
     27      -9.5117      1.00000
     28      -9.3511      1.00000
     29      -9.2789      1.00000
     30      -9.1233      1.00000
     31      -9.0222      1.00000
     32      -8.9178      1.00000
     33      -8.8244      1.00000
     34      -8.7873      1.00000
     35      -8.7000      1.00000
     36      -8.6060      1.00000
     37      -1.0267      1.00000
     38      -0.8818      1.00000
     39      -0.4506      1.00000
     40      -0.2319      1.00000
     41       0.2342      1.00000
     42       0.4675      1.00000
     43       0.6247      1.00000
     44       0.8291      1.00000
     45       0.8913      1.00000
     46       1.1074      1.00000
     47       1.2573      1.00000
     48       1.4201      1.00000
     49       1.6423      1.00000
     50       1.7457      1.00000
     51       1.9108      1.00000
     52       1.9422      1.00000
     53       2.1464      1.00000
     54       2.2524      1.00000
     55       2.3944      1.00000
     56       2.4782      1.00000
     57       2.5695      1.00000
     58       2.7146      1.00000
     59       2.7832      1.00000
     60       2.8025      1.00000
     61       2.9006      1.00000
     62       2.9938      1.00000
     63       3.0592      1.00000
     64       3.1078      1.00000
     65       3.1894      1.00000
     66       3.2740      1.00000
     67       3.3988      1.00000
     68       3.4292      1.00000
     69       3.5080      1.00000
     70       3.5959      1.00000
     71       3.6684      1.00000
     72       3.7194      1.00000
     73       7.4208      0.00000
     74       7.7192      0.00000
     75       7.9261      0.00000
     76       7.9967      0.00000
     77       8.2207      0.00000
     78       8.3204      0.00000
     79       8.5494      0.00000
     80       8.7610      0.00000
     81       9.0482      0.00000
     82       9.1750      0.00000
     83       9.3607      0.00000
     84       9.5314      0.00000
     85       9.6702      0.00000
     86       9.9068      0.00000
     87      10.0442      0.00000
     88      10.2485      0.00000
     89      10.3830      0.00000
     90      10.5092      0.00000
     91      10.6325      0.00000
     92      10.7640      0.00000

 k-point    39 :      -0.1667    0.1667    0.3333
  band No.  band energies     occupation 
      1     -31.3505      1.00000
      2     -31.3458      1.00000
      3     -31.2364      1.00000
      4     -31.1282      1.00000
      5     -31.1131      1.00000
      6     -31.0140      1.00000
      7     -13.2454      1.00000
      8     -13.2192      1.00000
      9     -13.1746      1.00000
     10     -13.0676      1.00000
     11     -13.0120      1.00000
     12     -12.9759      1.00000
     13     -12.9557      1.00000
     14     -12.8928      1.00000
     15     -12.8537      1.00000
     16     -12.8111      1.00000
     17     -12.6286      1.00000
     18     -12.5995      1.00000
     19     -12.5489      1.00000
     20     -12.4518      1.00000
     21     -12.4028      1.00000
     22     -12.3826      1.00000
     23     -12.3133      1.00000
     24     -12.2970      1.00000
     25     -10.3129      1.00000
     26     -10.0466      1.00000
     27      -9.5187      1.00000
     28      -9.2539      1.00000
     29      -9.2369      1.00000
     30      -9.0764      1.00000
     31      -8.9971      1.00000
     32      -8.9566      1.00000
     33      -8.8313      1.00000
     34      -8.7433      1.00000
     35      -8.6798      1.00000
     36      -8.6290      1.00000
     37      -1.1726      1.00000
     38      -0.9906      1.00000
     39      -0.5371      1.00000
     40      -0.3101      1.00000
     41       0.1631      1.00000
     42       0.5193      1.00000
     43       0.6380      1.00000
     44       0.7505      1.00000
     45       1.0404      1.00000
     46       1.1006      1.00000
     47       1.2974      1.00000
     48       1.4824      1.00000
     49       1.5316      1.00000
     50       1.6537      1.00000
     51       1.9046      1.00000
     52       2.0499      1.00000
     53       2.1598      1.00000
     54       2.2949      1.00000
     55       2.4866      1.00000
     56       2.5398      1.00000
     57       2.6772      1.00000
     58       2.7082      1.00000
     59       2.8127      1.00000
     60       2.8512      1.00000
     61       2.9091      1.00000
     62       2.9499      1.00000
     63       3.0458      1.00000
     64       3.1453      1.00000
     65       3.2697      1.00000
     66       3.3160      1.00000
     67       3.3750      1.00000
     68       3.4274      1.00000
     69       3.4619      1.00000
     70       3.5637      1.00000
     71       3.7045      1.00000
     72       3.7631      1.00000
     73       7.6509      0.00000
     74       7.8337      0.00000
     75       7.9756      0.00000
     76       8.1191      0.00000
     77       8.2896      0.00000
     78       8.6073      0.00000
     79       8.6753      0.00000
     80       8.7074      0.00000
     81       9.1084      0.00000
     82       9.1499      0.00000
     83       9.5133      0.00000
     84       9.6482      0.00000
     85       9.6903      0.00000
     86       9.7829      0.00000
     87       9.9772      0.00000
     88      10.1975      0.00000
     89      10.3208      0.00000
     90      10.5753      0.00000
     91      10.6818      0.00000
     92      10.8347      0.00000

 k-point    40 :      -0.1667    0.1667   -0.3333
  band No.  band energies     occupation 
      1     -31.3505      1.00000
      2     -31.3458      1.00000
      3     -31.2364      1.00000
      4     -31.1282      1.00000
      5     -31.1131      1.00000
      6     -31.0140      1.00000
      7     -13.2454      1.00000
      8     -13.2192      1.00000
      9     -13.1746      1.00000
     10     -13.0676      1.00000
     11     -13.0120      1.00000
     12     -12.9759      1.00000
     13     -12.9557      1.00000
     14     -12.8928      1.00000
     15     -12.8537      1.00000
     16     -12.8111      1.00000
     17     -12.6286      1.00000
     18     -12.5995      1.00000
     19     -12.5489      1.00000
     20     -12.4518      1.00000
     21     -12.4028      1.00000
     22     -12.3826      1.00000
     23     -12.3133      1.00000
     24     -12.2970      1.00000
     25     -10.3129      1.00000
     26     -10.0466      1.00000
     27      -9.5187      1.00000
     28      -9.2539      1.00000
     29      -9.2369      1.00000
     30      -9.0764      1.00000
     31      -8.9971      1.00000
     32      -8.9566      1.00000
     33      -8.8313      1.00000
     34      -8.7433      1.00000
     35      -8.6798      1.00000
     36      -8.6290      1.00000
     37      -1.1726      1.00000
     38      -0.9906      1.00000
     39      -0.5371      1.00000
     40      -0.3101      1.00000
     41       0.1631      1.00000
     42       0.5193      1.00000
     43       0.6380      1.00000
     44       0.7505      1.00000
     45       1.0404      1.00000
     46       1.1006      1.00000
     47       1.2974      1.00000
     48       1.4824      1.00000
     49       1.5316      1.00000
     50       1.6537      1.00000
     51       1.9046      1.00000
     52       2.0499      1.00000
     53       2.1598      1.00000
     54       2.2949      1.00000
     55       2.4866      1.00000
     56       2.5398      1.00000
     57       2.6772      1.00000
     58       2.7082      1.00000
     59       2.8127      1.00000
     60       2.8512      1.00000
     61       2.9091      1.00000
     62       2.9499      1.00000
     63       3.0458      1.00000
     64       3.1453      1.00000
     65       3.2697      1.00000
     66       3.3160      1.00000
     67       3.3750      1.00000
     68       3.4274      1.00000
     69       3.4619      1.00000
     70       3.5637      1.00000
     71       3.7045      1.00000
     72       3.7631      1.00000
     73       7.6509      0.00000
     74       7.8337      0.00000
     75       7.9756      0.00000
     76       8.1191      0.00000
     77       8.2896      0.00000
     78       8.6073      0.00000
     79       8.6753      0.00000
     80       8.7074      0.00000
     81       9.1084      0.00000
     82       9.1499      0.00000
     83       9.5133      0.00000
     84       9.6482      0.00000
     85       9.6903      0.00000
     86       9.7829      0.00000
     87       9.9772      0.00000
     88      10.1975      0.00000
     89      10.3208      0.00000
     90      10.5754      0.00000
     91      10.6818      0.00000
     92      10.8420      0.00000

 k-point    41 :       0.3333    0.3333    0.3333
  band No.  band energies     occupation 
      1     -31.3484      1.00000
      2     -31.3455      1.00000
      3     -31.1964      1.00000
      4     -31.1557      1.00000
      5     -31.0842      1.00000
      6     -31.0589      1.00000
      7     -13.3683      1.00000
      8     -13.2217      1.00000
      9     -13.1259      1.00000
     10     -13.0904      1.00000
     11     -13.0302      1.00000
     12     -12.9599      1.00000
     13     -12.8975      1.00000
     14     -12.8881      1.00000
     15     -12.7711      1.00000
     16     -12.7105      1.00000
     17     -12.6816      1.00000
     18     -12.6674      1.00000
     19     -12.6214      1.00000
     20     -12.5601      1.00000
     21     -12.5006      1.00000
     22     -12.3960      1.00000
     23     -12.2898      1.00000
     24     -12.2206      1.00000
     25      -9.9148      1.00000
     26      -9.6996      1.00000
     27      -9.5874      1.00000
     28      -9.4199      1.00000
     29      -9.4038      1.00000
     30      -9.1015      1.00000
     31      -9.0689      1.00000
     32      -8.9200      1.00000
     33      -8.9035      1.00000
     34      -8.7601      1.00000
     35      -8.7252      1.00000
     36      -8.5974      1.00000
     37      -0.7459      1.00000
     38      -0.6283      1.00000
     39      -0.2364      1.00000
     40      -0.1136      1.00000
     41       0.0839      1.00000
     42       0.3016      1.00000
     43       0.7299      1.00000
     44       0.8481      1.00000
     45       0.8723      1.00000
     46       0.9008      1.00000
     47       1.2418      1.00000
     48       1.4638      1.00000
     49       1.6413      1.00000
     50       1.6887      1.00000
     51       1.8670      1.00000
     52       1.9503      1.00000
     53       1.9748      1.00000
     54       2.0117      1.00000
     55       2.2866      1.00000
     56       2.4125      1.00000
     57       2.6907      1.00000
     58       2.7344      1.00000
     59       2.7937      1.00000
     60       2.9047      1.00000
     61       2.9312      1.00000
     62       2.9767      1.00000
     63       3.0540      1.00000
     64       3.2010      1.00000
     65       3.2168      1.00000
     66       3.2556      1.00000
     67       3.2902      1.00000
     68       3.4875      1.00000
     69       3.4891      1.00000
     70       3.5154      1.00000
     71       3.6745      1.00000
     72       3.7804      1.00000
     73       7.0773      0.00000
     74       7.3054      0.00000
     75       7.5087      0.00000
     76       7.8704      0.00000
     77       7.9378      0.00000
     78       8.2515      0.00000
     79       8.4227      0.00000
     80       8.7922      0.00000
     81       9.0940      0.00000
     82       9.1800      0.00000
     83       9.3104      0.00000
     84       9.3937      0.00000
     85       9.6796      0.00000
     86      10.0047      0.00000
     87      10.1630      0.00000
     88      10.2576      0.00000
     89      10.3333      0.00000
     90      10.6244      0.00000
     91      10.6387      0.00000
     92      10.6686      0.00000

 k-point    42 :       0.5000    0.3333    0.3333
  band No.  band energies     occupation 
      1     -31.3482      1.00000
      2     -31.3455      1.00000
      3     -31.2186      1.00000
      4     -31.1333      1.00000
      5     -31.0874      1.00000
      6     -31.0558      1.00000
      7     -13.3687      1.00000
      8     -13.1980      1.00000
      9     -13.1589      1.00000
     10     -13.1193      1.00000
     11     -13.0560      1.00000
     12     -13.0268      1.00000
     13     -12.9085      1.00000
     14     -12.8656      1.00000
     15     -12.8069      1.00000
     16     -12.7170      1.00000
     17     -12.6986      1.00000
     18     -12.6465      1.00000
     19     -12.5885      1.00000
     20     -12.5331      1.00000
     21     -12.4638      1.00000
     22     -12.3720      1.00000
     23     -12.2408      1.00000
     24     -12.2180      1.00000
     25      -9.9700      1.00000
     26      -9.7388      1.00000
     27      -9.5990      1.00000
     28      -9.4251      1.00000
     29      -9.2904      1.00000
     30      -9.0906      1.00000
     31      -9.0463      1.00000
     32      -8.9434      1.00000
     33      -8.9120      1.00000
     34      -8.7525      1.00000
     35      -8.7126      1.00000
     36      -8.5935      1.00000
     37      -0.9118      1.00000
     38      -0.7725      1.00000
     39      -0.1207      1.00000
     40      -0.0967      1.00000
     41       0.1297      1.00000
     42       0.3575      1.00000
     43       0.5668      1.00000
     44       0.7453      1.00000
     45       0.8472      1.00000
     46       1.0701      1.00000
     47       1.2226      1.00000
     48       1.4716      1.00000
     49       1.5981      1.00000
     50       1.7216      1.00000
     51       1.7895      1.00000
     52       1.9216      1.00000
     53       2.1057      1.00000
     54       2.1985      1.00000
     55       2.2770      1.00000
     56       2.3948      1.00000
     57       2.5766      1.00000
     58       2.7786      1.00000
     59       2.7931      1.00000
     60       2.8694      1.00000
     61       2.9302      1.00000
     62       2.9782      1.00000
     63       3.0834      1.00000
     64       3.1309      1.00000
     65       3.1564      1.00000
     66       3.1878      1.00000
     67       3.3767      1.00000
     68       3.4661      1.00000
     69       3.4946      1.00000
     70       3.5517      1.00000
     71       3.7934      1.00000
     72       3.8413      1.00000
     73       7.0497      0.00000
     74       7.2844      0.00000
     75       7.4417      0.00000
     76       7.9164      0.00000
     77       7.9507      0.00000
     78       8.1853      0.00000
     79       8.7081      0.00000
     80       8.7959      0.00000
     81       9.1135      0.00000
     82       9.1760      0.00000
     83       9.2490      0.00000
     84       9.5243      0.00000
     85       9.7104      0.00000
     86       9.8592      0.00000
     87      10.2410      0.00000
     88      10.2901      0.00000
     89      10.4343      0.00000
     90      10.6157      0.00000
     91      10.7277      0.00000
     92      10.7656      0.00000

 k-point    43 :      -0.3333    0.5000   -0.3333
  band No.  band energies     occupation 
      1     -31.3482      1.00000
      2     -31.3455      1.00000
      3     -31.2186      1.00000
      4     -31.1333      1.00000
      5     -31.0874      1.00000
      6     -31.0558      1.00000
      7     -13.3687      1.00000
      8     -13.1980      1.00000
      9     -13.1589      1.00000
     10     -13.1193      1.00000
     11     -13.0560      1.00000
     12     -13.0268      1.00000
     13     -12.9085      1.00000
     14     -12.8656      1.00000
     15     -12.8069      1.00000
     16     -12.7170      1.00000
     17     -12.6986      1.00000
     18     -12.6465      1.00000
     19     -12.5885      1.00000
     20     -12.5331      1.00000
     21     -12.4638      1.00000
     22     -12.3720      1.00000
     23     -12.2408      1.00000
     24     -12.2180      1.00000
     25      -9.9700      1.00000
     26      -9.7388      1.00000
     27      -9.5990      1.00000
     28      -9.4251      1.00000
     29      -9.2904      1.00000
     30      -9.0906      1.00000
     31      -9.0463      1.00000
     32      -8.9434      1.00000
     33      -8.9120      1.00000
     34      -8.7525      1.00000
     35      -8.7126      1.00000
     36      -8.5935      1.00000
     37      -0.9118      1.00000
     38      -0.7725      1.00000
     39      -0.1207      1.00000
     40      -0.0967      1.00000
     41       0.1297      1.00000
     42       0.3575      1.00000
     43       0.5668      1.00000
     44       0.7453      1.00000
     45       0.8472      1.00000
     46       1.0701      1.00000
     47       1.2226      1.00000
     48       1.4716      1.00000
     49       1.5981      1.00000
     50       1.7216      1.00000
     51       1.7895      1.00000
     52       1.9216      1.00000
     53       2.1057      1.00000
     54       2.1985      1.00000
     55       2.2770      1.00000
     56       2.3948      1.00000
     57       2.5766      1.00000
     58       2.7786      1.00000
     59       2.7931      1.00000
     60       2.8694      1.00000
     61       2.9302      1.00000
     62       2.9782      1.00000
     63       3.0834      1.00000
     64       3.1309      1.00000
     65       3.1564      1.00000
     66       3.1878      1.00000
     67       3.3767      1.00000
     68       3.4661      1.00000
     69       3.4946      1.00000
     70       3.5517      1.00000
     71       3.7934      1.00000
     72       3.8413      1.00000
     73       7.0497      0.00000
     74       7.2844      0.00000
     75       7.4417      0.00000
     76       7.9164      0.00000
     77       7.9507      0.00000
     78       8.1853      0.00000
     79       8.7081      0.00000
     80       8.7959      0.00000
     81       9.1135      0.00000
     82       9.1760      0.00000
     83       9.2490      0.00000
     84       9.5243      0.00000
     85       9.7104      0.00000
     86       9.8592      0.00000
     87      10.2410      0.00000
     88      10.2901      0.00000
     89      10.4343      0.00000
     90      10.6157      0.00000
     91      10.7279      0.00000
     92      10.7653      0.00000

 k-point    44 :      -0.3333    0.3333    0.3333
  band No.  band energies     occupation 
      1     -31.3488      1.00000
      2     -31.3456      1.00000
      3     -31.2292      1.00000
      4     -31.1220      1.00000
      5     -31.1047      1.00000
      6     -31.0382      1.00000
      7     -13.3197      1.00000
      8     -13.2289      1.00000
      9     -13.1484      1.00000
     10     -13.1190      1.00000
     11     -13.0550      1.00000
     12     -13.0217      1.00000
     13     -12.9610      1.00000
     14     -12.8486      1.00000
     15     -12.8452      1.00000
     16     -12.7598      1.00000
     17     -12.6703      1.00000
     18     -12.6122      1.00000
     19     -12.5744      1.00000
     20     -12.4893      1.00000
     21     -12.4375      1.00000
     22     -12.3690      1.00000
     23     -12.2428      1.00000
     24     -12.2406      1.00000
     25     -10.0846      1.00000
     26      -9.8677      1.00000
     27      -9.5170      1.00000
     28      -9.3948      1.00000
     29      -9.2452      1.00000
     30      -9.0856      1.00000
     31      -9.0452      1.00000
     32      -8.9809      1.00000
     33      -8.8388      1.00000
     34      -8.7641      1.00000
     35      -8.6652      1.00000
     36      -8.6286      1.00000
     37      -1.0431      1.00000
     38      -0.8693      1.00000
     39      -0.2493      1.00000
     40      -0.1581      1.00000
     41       0.1256      1.00000
     42       0.5055      1.00000
     43       0.6009      1.00000
     44       0.6301      1.00000
     45       0.9297      1.00000
     46       1.1214      1.00000
     47       1.2443      1.00000
     48       1.4575      1.00000
     49       1.5450      1.00000
     50       1.6456      1.00000
     51       1.8640      1.00000
     52       2.0261      1.00000
     53       2.2072      1.00000
     54       2.2223      1.00000
     55       2.3720      1.00000
     56       2.4611      1.00000
     57       2.5525      1.00000
     58       2.6770      1.00000
     59       2.7460      1.00000
     60       2.8689      1.00000
     61       2.9359      1.00000
     62       3.0139      1.00000
     63       3.0176      1.00000
     64       3.1232      1.00000
     65       3.2084      1.00000
     66       3.3092      1.00000
     67       3.3648      1.00000
     68       3.4435      1.00000
     69       3.5662      1.00000
     70       3.5858      1.00000
     71       3.6870      1.00000
     72       3.7276      1.00000
     73       7.2311      0.00000
     74       7.4654      0.00000
     75       7.6715      0.00000
     76       7.9563      0.00000
     77       8.0554      0.00000
     78       8.2971      0.00000
     79       8.7068      0.00000
     80       8.8175      0.00000
     81       8.9677      0.00000
     82       9.2134      0.00000
     83       9.2990      0.00000
     84       9.5715      0.00000
     85       9.6082      0.00000
     86       9.9420      0.00000
     87      10.2676      0.00000
     88      10.3709      0.00000
     89      10.4577      0.00000
     90      10.5101      0.00000
     91      10.6841      0.00000
     92      10.8162      0.00000

 k-point    45 :      -0.3333    0.3333   -0.3333
  band No.  band energies     occupation 
      1     -31.3488      1.00000
      2     -31.3456      1.00000
      3     -31.2292      1.00000
      4     -31.1220      1.00000
      5     -31.1047      1.00000
      6     -31.0382      1.00000
      7     -13.3197      1.00000
      8     -13.2289      1.00000
      9     -13.1484      1.00000
     10     -13.1190      1.00000
     11     -13.0550      1.00000
     12     -13.0217      1.00000
     13     -12.9610      1.00000
     14     -12.8486      1.00000
     15     -12.8452      1.00000
     16     -12.7598      1.00000
     17     -12.6703      1.00000
     18     -12.6122      1.00000
     19     -12.5744      1.00000
     20     -12.4893      1.00000
     21     -12.4375      1.00000
     22     -12.3690      1.00000
     23     -12.2428      1.00000
     24     -12.2406      1.00000
     25     -10.0846      1.00000
     26      -9.8677      1.00000
     27      -9.5170      1.00000
     28      -9.3948      1.00000
     29      -9.2452      1.00000
     30      -9.0856      1.00000
     31      -9.0452      1.00000
     32      -8.9809      1.00000
     33      -8.8388      1.00000
     34      -8.7641      1.00000
     35      -8.6652      1.00000
     36      -8.6286      1.00000
     37      -1.0431      1.00000
     38      -0.8693      1.00000
     39      -0.2493      1.00000
     40      -0.1581      1.00000
     41       0.1256      1.00000
     42       0.5055      1.00000
     43       0.6009      1.00000
     44       0.6301      1.00000
     45       0.9297      1.00000
     46       1.1214      1.00000
     47       1.2443      1.00000
     48       1.4575      1.00000
     49       1.5450      1.00000
     50       1.6456      1.00000
     51       1.8640      1.00000
     52       2.0261      1.00000
     53       2.2072      1.00000
     54       2.2223      1.00000
     55       2.3720      1.00000
     56       2.4611      1.00000
     57       2.5525      1.00000
     58       2.6770      1.00000
     59       2.7460      1.00000
     60       2.8689      1.00000
     61       2.9359      1.00000
     62       3.0139      1.00000
     63       3.0176      1.00000
     64       3.1232      1.00000
     65       3.2084      1.00000
     66       3.3092      1.00000
     67       3.3648      1.00000
     68       3.4435      1.00000
     69       3.5662      1.00000
     70       3.5858      1.00000
     71       3.6870      1.00000
     72       3.7276      1.00000
     73       7.2311      0.00000
     74       7.4654      0.00000
     75       7.6715      0.00000
     76       7.9563      0.00000
     77       8.0554      0.00000
     78       8.2971      0.00000
     79       8.7068      0.00000
     80       8.8175      0.00000
     81       8.9677      0.00000
     82       9.2134      0.00000
     83       9.2990      0.00000
     84       9.5715      0.00000
     85       9.6082      0.00000
     86       9.9420      0.00000
     87      10.2676      0.00000
     88      10.3709      0.00000
     89      10.4577      0.00000
     90      10.5101      0.00000
     91      10.6841      0.00000
     92      10.8166      0.00000

 k-point    46 :      -0.1667    0.3333    0.3333
  band No.  band energies     occupation 
      1     -31.3495      1.00000
      2     -31.3457      1.00000
      3     -31.2256      1.00000
      4     -31.1252      1.00000
      5     -31.1145      1.00000
      6     -31.0281      1.00000
      7     -13.2924      1.00000
      8     -13.1990      1.00000
      9     -13.1589      1.00000
     10     -13.0984      1.00000
     11     -13.0013      1.00000
     12     -12.9977      1.00000
     13     -12.9779      1.00000
     14     -12.8807      1.00000
     15     -12.8299      1.00000
     16     -12.7804      1.00000
     17     -12.6513      1.00000
     18     -12.6143      1.00000
     19     -12.5602      1.00000
     20     -12.4795      1.00000
     21     -12.4264      1.00000
     22     -12.4003      1.00000
     23     -12.2901      1.00000
     24     -12.2763      1.00000
     25     -10.1380      1.00000
     26      -9.9136      1.00000
     27      -9.5414      1.00000
     28      -9.3678      1.00000
     29      -9.2981      1.00000
     30      -9.0787      1.00000
     31      -8.9552      1.00000
     32      -8.9127      1.00000
     33      -8.8863      1.00000
     34      -8.7657      1.00000
     35      -8.7192      1.00000
     36      -8.6108      1.00000
     37      -1.0061      1.00000
     38      -0.9063      1.00000
     39      -0.4388      1.00000
     40      -0.2257      1.00000
     41       0.2439      1.00000
     42       0.5021      1.00000
     43       0.5824      1.00000
     44       0.7088      1.00000
     45       0.9794      1.00000
     46       1.0722      1.00000
     47       1.2837      1.00000
     48       1.4895      1.00000
     49       1.5806      1.00000
     50       1.7050      1.00000
     51       1.8428      1.00000
     52       2.0088      1.00000
     53       2.1404      1.00000
     54       2.3149      1.00000
     55       2.3635      1.00000
     56       2.5232      1.00000
     57       2.6712      1.00000
     58       2.7336      1.00000
     59       2.7568      1.00000
     60       2.7714      1.00000
     61       2.8976      1.00000
     62       3.0083      1.00000
     63       3.0488      1.00000
     64       3.1039      1.00000
     65       3.1753      1.00000
     66       3.3245      1.00000
     67       3.3838      1.00000
     68       3.4572      1.00000
     69       3.5208      1.00000
     70       3.5362      1.00000
     71       3.5648      1.00000
     72       3.7351      1.00000
     73       7.3562      0.00000
     74       7.6856      0.00000
     75       7.9911      0.00000
     76       8.0733      0.00000
     77       8.2483      0.00000
     78       8.3545      0.00000
     79       8.6316      0.00000
     80       8.7592      0.00000
     81       8.8952      0.00000
     82       9.0869      0.00000
     83       9.4756      0.00000
     84       9.5341      0.00000
     85       9.7209      0.00000
     86       9.8296      0.00000
     87       9.8966      0.00000
     88      10.2078      0.00000
     89      10.4056      0.00000
     90      10.5288      0.00000
     91      10.6559      0.00000
     92      10.6890      0.00000

 k-point    47 :      -0.3333    0.1667   -0.3333
  band No.  band energies     occupation 
      1     -31.3495      1.00000
      2     -31.3457      1.00000
      3     -31.2256      1.00000
      4     -31.1252      1.00000
      5     -31.1145      1.00000
      6     -31.0281      1.00000
      7     -13.2924      1.00000
      8     -13.1990      1.00000
      9     -13.1589      1.00000
     10     -13.0984      1.00000
     11     -13.0013      1.00000
     12     -12.9977      1.00000
     13     -12.9779      1.00000
     14     -12.8807      1.00000
     15     -12.8299      1.00000
     16     -12.7804      1.00000
     17     -12.6513      1.00000
     18     -12.6143      1.00000
     19     -12.5602      1.00000
     20     -12.4795      1.00000
     21     -12.4264      1.00000
     22     -12.4003      1.00000
     23     -12.2901      1.00000
     24     -12.2763      1.00000
     25     -10.1380      1.00000
     26      -9.9136      1.00000
     27      -9.5414      1.00000
     28      -9.3678      1.00000
     29      -9.2981      1.00000
     30      -9.0787      1.00000
     31      -8.9552      1.00000
     32      -8.9127      1.00000
     33      -8.8863      1.00000
     34      -8.7657      1.00000
     35      -8.7192      1.00000
     36      -8.6108      1.00000
     37      -1.0061      1.00000
     38      -0.9063      1.00000
     39      -0.4388      1.00000
     40      -0.2257      1.00000
     41       0.2439      1.00000
     42       0.5021      1.00000
     43       0.5824      1.00000
     44       0.7088      1.00000
     45       0.9794      1.00000
     46       1.0722      1.00000
     47       1.2837      1.00000
     48       1.4895      1.00000
     49       1.5806      1.00000
     50       1.7050      1.00000
     51       1.8428      1.00000
     52       2.0088      1.00000
     53       2.1404      1.00000
     54       2.3149      1.00000
     55       2.3635      1.00000
     56       2.5232      1.00000
     57       2.6712      1.00000
     58       2.7336      1.00000
     59       2.7568      1.00000
     60       2.7714      1.00000
     61       2.8976      1.00000
     62       3.0083      1.00000
     63       3.0488      1.00000
     64       3.1039      1.00000
     65       3.1753      1.00000
     66       3.3245      1.00000
     67       3.3838      1.00000
     68       3.4572      1.00000
     69       3.5208      1.00000
     70       3.5362      1.00000
     71       3.5648      1.00000
     72       3.7351      1.00000
     73       7.3562      0.00000
     74       7.6856      0.00000
     75       7.9911      0.00000
     76       8.0733      0.00000
     77       8.2483      0.00000
     78       8.3545      0.00000
     79       8.6316      0.00000
     80       8.7592      0.00000
     81       8.8952      0.00000
     82       9.0869      0.00000
     83       9.4756      0.00000
     84       9.5341      0.00000
     85       9.7209      0.00000
     86       9.8296      0.00000
     87       9.8966      0.00000
     88      10.2078      0.00000
     89      10.4056      0.00000
     90      10.5288      0.00000
     91      10.6561      0.00000
     92      10.6898      0.00000

 k-point    48 :       0.5000    0.5000    0.3333
  band No.  band energies     occupation 
      1     -31.3479      1.00000
      2     -31.3454      1.00000
      3     -31.2251      1.00000
      4     -31.1269      1.00000
      5     -31.0767      1.00000
      6     -31.0665      1.00000
      7     -13.3530      1.00000
      8     -13.2380      1.00000
      9     -13.1448      1.00000
     10     -13.1224      1.00000
     11     -13.0939      1.00000
     12     -13.0567      1.00000
     13     -12.9212      1.00000
     14     -12.8449      1.00000
     15     -12.8230      1.00000
     16     -12.7305      1.00000
     17     -12.7081      1.00000
     18     -12.6249      1.00000
     19     -12.5790      1.00000
     20     -12.5176      1.00000
     21     -12.4507      1.00000
     22     -12.3595      1.00000
     23     -12.2139      1.00000
     24     -12.2100      1.00000
     25      -9.9456      1.00000
     26      -9.6703      1.00000
     27      -9.6626      1.00000
     28      -9.4864      1.00000
     29      -9.2041      1.00000
     30      -9.1044      1.00000
     31      -9.0397      1.00000
     32      -8.9889      1.00000
     33      -8.9000      1.00000
     34      -8.7402      1.00000
     35      -8.6748      1.00000
     36      -8.6241      1.00000
     37      -0.9708      1.00000
     38      -0.8044      1.00000
     39      -0.0607      1.00000
     40      -0.0192      1.00000
     41       0.0663      1.00000
     42       0.3705      1.00000
     43       0.6829      1.00000
     44       0.6897      1.00000
     45       0.8420      1.00000
     46       0.9975      1.00000
     47       1.1807      1.00000
     48       1.5293      1.00000
     49       1.5412      1.00000
     50       1.6622      1.00000
     51       1.6860      1.00000
     52       1.9284      1.00000
     53       2.1660      1.00000
     54       2.2956      1.00000
     55       2.3837      1.00000
     56       2.5564      1.00000
     57       2.5713      1.00000
     58       2.5855      1.00000
     59       2.7015      1.00000
     60       2.7395      1.00000
     61       2.8951      1.00000
     62       2.9445      1.00000
     63       3.0682      1.00000
     64       3.1132      1.00000
     65       3.1981      1.00000
     66       3.3475      1.00000
     67       3.3839      1.00000
     68       3.4152      1.00000
     69       3.5646      1.00000
     70       3.5983      1.00000
     71       3.8242      1.00000
     72       3.8761      1.00000
     73       6.7996      0.00000
     74       7.2859      0.00000
     75       7.4128      0.00000
     76       7.8764      0.00000
     77       7.9544      0.00000
     78       8.2259      0.00000
     79       8.5130      0.00000
     80       9.0206      0.00000
     81       9.1134      0.00000
     82       9.3057      0.00000
     83       9.3896      0.00000
     84       9.6371      0.00000
     85       9.6956      0.00000
     86       9.8773      0.00000
     87      10.0092      0.00000
     88      10.2507      0.00000
     89      10.5256      0.00000
     90      10.6020      0.00000
     91      10.8231      0.00000
     92      10.8341      0.00000

 k-point    49 :      -0.3333    0.5000    0.3333
  band No.  band energies     occupation 
      1     -31.3482      1.00000
      2     -31.3455      1.00000
      3     -31.2186      1.00000
      4     -31.1333      1.00000
      5     -31.0874      1.00000
      6     -31.0558      1.00000
      7     -13.3711      1.00000
      8     -13.2074      1.00000
      9     -13.1467      1.00000
     10     -13.1172      1.00000
     11     -13.0454      1.00000
     12     -13.0110      1.00000
     13     -12.9532      1.00000
     14     -12.8616      1.00000
     15     -12.7889      1.00000
     16     -12.7296      1.00000
     17     -12.7102      1.00000
     18     -12.6171      1.00000
     19     -12.5957      1.00000
     20     -12.5400      1.00000
     21     -12.4558      1.00000
     22     -12.3780      1.00000
     23     -12.2401      1.00000
     24     -12.2180      1.00000
     25      -9.9706      1.00000
     26      -9.7321      1.00000
     27      -9.5420      1.00000
     28      -9.4965      1.00000
     29      -9.3120      1.00000
     30      -9.1400      1.00000
     31      -8.9829      1.00000
     32      -8.9342      1.00000
     33      -8.8433      1.00000
     34      -8.7869      1.00000
     35      -8.7248      1.00000
     36      -8.6088      1.00000
     37      -0.9022      1.00000
     38      -0.7824      1.00000
     39      -0.1206      1.00000
     40      -0.0986      1.00000
     41       0.1369      1.00000
     42       0.3607      1.00000
     43       0.6177      1.00000
     44       0.6568      1.00000
     45       0.9485      1.00000
     46       1.0435      1.00000
     47       1.0989      1.00000
     48       1.5527      1.00000
     49       1.6154      1.00000
     50       1.7490      1.00000
     51       1.7896      1.00000
     52       1.9251      1.00000
     53       2.0171      1.00000
     54       2.1382      1.00000
     55       2.2785      1.00000
     56       2.4252      1.00000
     57       2.6747      1.00000
     58       2.7735      1.00000
     59       2.7815      1.00000
     60       2.8651      1.00000
     61       2.8942      1.00000
     62       3.0009      1.00000
     63       3.0723      1.00000
     64       3.1182      1.00000
     65       3.1771      1.00000
     66       3.3174      1.00000
     67       3.3302      1.00000
     68       3.3726      1.00000
     69       3.5399      1.00000
     70       3.6499      1.00000
     71       3.7006      1.00000
     72       3.8085      1.00000
     73       7.0069      0.00000
     74       7.2955      0.00000
     75       7.5107      0.00000
     76       7.8696      0.00000
     77       7.9339      0.00000
     78       8.2455      0.00000
     79       8.4742      0.00000
     80       8.7337      0.00000
     81       9.0882      0.00000
     82       9.3211      0.00000
     83       9.3962      0.00000
     84       9.5290      0.00000
     85       9.8241      0.00000
     86      10.0243      0.00000
     87      10.1253      0.00000
     88      10.1727      0.00000
     89      10.4410      0.00000
     90      10.5840      0.00000
     91      10.7971      0.00000
     92      10.8697      0.00000

 k-point    50 :       0.5000    0.3333   -0.3333
  band No.  band energies     occupation 
      1     -31.3482      1.00000
      2     -31.3455      1.00000
      3     -31.2186      1.00000
      4     -31.1333      1.00000
      5     -31.0874      1.00000
      6     -31.0558      1.00000
      7     -13.3711      1.00000
      8     -13.2074      1.00000
      9     -13.1467      1.00000
     10     -13.1172      1.00000
     11     -13.0454      1.00000
     12     -13.0110      1.00000
     13     -12.9532      1.00000
     14     -12.8616      1.00000
     15     -12.7889      1.00000
     16     -12.7296      1.00000
     17     -12.7102      1.00000
     18     -12.6171      1.00000
     19     -12.5957      1.00000
     20     -12.5400      1.00000
     21     -12.4559      1.00000
     22     -12.3780      1.00000
     23     -12.2401      1.00000
     24     -12.2180      1.00000
     25      -9.9706      1.00000
     26      -9.7321      1.00000
     27      -9.5420      1.00000
     28      -9.4965      1.00000
     29      -9.3120      1.00000
     30      -9.1400      1.00000
     31      -8.9829      1.00000
     32      -8.9342      1.00000
     33      -8.8433      1.00000
     34      -8.7869      1.00000
     35      -8.7248      1.00000
     36      -8.6088      1.00000
     37      -0.9022      1.00000
     38      -0.7824      1.00000
     39      -0.1206      1.00000
     40      -0.0986      1.00000
     41       0.1369      1.00000
     42       0.3607      1.00000
     43       0.6177      1.00000
     44       0.6568      1.00000
     45       0.9485      1.00000
     46       1.0435      1.00000
     47       1.0989      1.00000
     48       1.5527      1.00000
     49       1.6154      1.00000
     50       1.7490      1.00000
     51       1.7896      1.00000
     52       1.9251      1.00000
     53       2.0171      1.00000
     54       2.1382      1.00000
     55       2.2785      1.00000
     56       2.4252      1.00000
     57       2.6747      1.00000
     58       2.7735      1.00000
     59       2.7815      1.00000
     60       2.8651      1.00000
     61       2.8942      1.00000
     62       3.0009      1.00000
     63       3.0723      1.00000
     64       3.1182      1.00000
     65       3.1771      1.00000
     66       3.3174      1.00000
     67       3.3302      1.00000
     68       3.3726      1.00000
     69       3.5399      1.00000
     70       3.6499      1.00000
     71       3.7006      1.00000
     72       3.8085      1.00000
     73       7.0069      0.00000
     74       7.2955      0.00000
     75       7.5107      0.00000
     76       7.8696      0.00000
     77       7.9339      0.00000
     78       8.2455      0.00000
     79       8.4742      0.00000
     80       8.7337      0.00000
     81       9.0882      0.00000
     82       9.3211      0.00000
     83       9.3962      0.00000
     84       9.5290      0.00000
     85       9.8241      0.00000
     86      10.0243      0.00000
     87      10.1253      0.00000
     88      10.1727      0.00000
     89      10.4410      0.00000
     90      10.5840      0.00000
     91      10.7995      0.00000
     92      10.9092      0.00000

 k-point    51 :      -0.1667    0.5000    0.3333
  band No.  band energies     occupation 
      1     -31.3488      1.00000
      2     -31.3456      1.00000
      3     -31.2014      1.00000
      4     -31.1504      1.00000
      5     -31.0979      1.00000
      6     -31.0450      1.00000
      7     -13.3225      1.00000
      8     -13.2143      1.00000
      9     -13.1141      1.00000
     10     -13.0764      1.00000
     11     -13.0214      1.00000
     12     -13.0043      1.00000
     13     -12.9480      1.00000
     14     -12.8895      1.00000
     15     -12.7844      1.00000
     16     -12.7443      1.00000
     17     -12.6999      1.00000
     18     -12.6103      1.00000
     19     -12.5552      1.00000
     20     -12.5482      1.00000
     21     -12.4601      1.00000
     22     -12.4201      1.00000
     23     -12.3147      1.00000
     24     -12.2537      1.00000
     25      -9.9584      1.00000
     26      -9.7283      1.00000
     27      -9.5648      1.00000
     28      -9.4761      1.00000
     29      -9.4180      1.00000
     30      -9.1202      1.00000
     31      -8.9802      1.00000
     32      -8.9110      1.00000
     33      -8.8370      1.00000
     34      -8.7908      1.00000
     35      -8.7376      1.00000
     36      -8.6128      1.00000
     37      -0.7799      1.00000
     38      -0.7173      1.00000
     39      -0.3757      1.00000
     40      -0.2673      1.00000
     41       0.3476      1.00000
     42       0.3941      1.00000
     43       0.6471      1.00000
     44       0.7214      1.00000
     45       0.9501      1.00000
     46       1.1204      1.00000
     47       1.2878      1.00000
     48       1.5073      1.00000
     49       1.5580      1.00000
     50       1.7524      1.00000
     51       1.8645      1.00000
     52       1.8735      1.00000
     53       1.9114      1.00000
     54       2.1419      1.00000
     55       2.3261      1.00000
     56       2.5084      1.00000
     57       2.5986      1.00000
     58       2.7235      1.00000
     59       2.7484      1.00000
     60       2.8311      1.00000
     61       2.9176      1.00000
     62       2.9439      1.00000
     63       3.0623      1.00000
     64       3.1126      1.00000
     65       3.1556      1.00000
     66       3.3251      1.00000
     67       3.3909      1.00000
     68       3.4701      1.00000
     69       3.5117      1.00000
     70       3.5594      1.00000
     71       3.5975      1.00000
     72       3.7555      1.00000
     73       7.0760      0.00000
     74       7.5447      0.00000
     75       7.8712      0.00000
     76       7.9217      0.00000
     77       8.1211      0.00000
     78       8.2046      0.00000
     79       8.4991      0.00000
     80       8.7600      0.00000
     81       8.9548      0.00000
     82       9.1447      0.00000
     83       9.4280      0.00000
     84       9.5752      0.00000
     85       9.7191      0.00000
     86       9.8439      0.00000
     87       9.9326      0.00000
     88       9.9550      0.00000
     89      10.3148      0.00000
     90      10.4975      0.00000
     91      10.6470      0.00000
     92      10.7924      0.00000

 k-point    52 :       0.5000    0.1667   -0.3333
  band No.  band energies     occupation 
      1     -31.3488      1.00000
      2     -31.3456      1.00000
      3     -31.2014      1.00000
      4     -31.1504      1.00000
      5     -31.0979      1.00000
      6     -31.0450      1.00000
      7     -13.3225      1.00000
      8     -13.2143      1.00000
      9     -13.1141      1.00000
     10     -13.0764      1.00000
     11     -13.0214      1.00000
     12     -13.0043      1.00000
     13     -12.9480      1.00000
     14     -12.8895      1.00000
     15     -12.7844      1.00000
     16     -12.7443      1.00000
     17     -12.6999      1.00000
     18     -12.6103      1.00000
     19     -12.5552      1.00000
     20     -12.5482      1.00000
     21     -12.4601      1.00000
     22     -12.4201      1.00000
     23     -12.3147      1.00000
     24     -12.2537      1.00000
     25      -9.9584      1.00000
     26      -9.7283      1.00000
     27      -9.5648      1.00000
     28      -9.4761      1.00000
     29      -9.4180      1.00000
     30      -9.1202      1.00000
     31      -8.9802      1.00000
     32      -8.9110      1.00000
     33      -8.8370      1.00000
     34      -8.7908      1.00000
     35      -8.7376      1.00000
     36      -8.6128      1.00000
     37      -0.7799      1.00000
     38      -0.7173      1.00000
     39      -0.3757      1.00000
     40      -0.2673      1.00000
     41       0.3476      1.00000
     42       0.3941      1.00000
     43       0.6471      1.00000
     44       0.7214      1.00000
     45       0.9501      1.00000
     46       1.1204      1.00000
     47       1.2878      1.00000
     48       1.5073      1.00000
     49       1.5580      1.00000
     50       1.7524      1.00000
     51       1.8645      1.00000
     52       1.8735      1.00000
     53       1.9114      1.00000
     54       2.1419      1.00000
     55       2.3261      1.00000
     56       2.5084      1.00000
     57       2.5986      1.00000
     58       2.7235      1.00000
     59       2.7484      1.00000
     60       2.8311      1.00000
     61       2.9176      1.00000
     62       2.9439      1.00000
     63       3.0623      1.00000
     64       3.1126      1.00000
     65       3.1556      1.00000
     66       3.3251      1.00000
     67       3.3909      1.00000
     68       3.4701      1.00000
     69       3.5117      1.00000
     70       3.5594      1.00000
     71       3.5975      1.00000
     72       3.7555      1.00000
     73       7.0760      0.00000
     74       7.5447      0.00000
     75       7.8712      0.00000
     76       7.9217      0.00000
     77       8.1211      0.00000
     78       8.2046      0.00000
     79       8.4991      0.00000
     80       8.7600      0.00000
     81       8.9548      0.00000
     82       9.1447      0.00000
     83       9.4280      0.00000
     84       9.5752      0.00000
     85       9.7191      0.00000
     86       9.8439      0.00000
     87       9.9326      0.00000
     88       9.9550      0.00000
     89      10.3148      0.00000
     90      10.4975      0.00000
     91      10.6475      0.00000
     92      10.7780      0.00000

 k-point    53 :      -0.3333   -0.3333    0.3333
  band No.  band energies     occupation 
      1     -31.3484      1.00000
      2     -31.3455      1.00000
      3     -31.1964      1.00000
      4     -31.1557      1.00000
      5     -31.0842      1.00000
      6     -31.0589      1.00000
      7     -13.3732      1.00000
      8     -13.2305      1.00000
      9     -13.1014      1.00000
     10     -13.0683      1.00000
     11     -13.0125      1.00000
     12     -13.0034      1.00000
     13     -12.9156      1.00000
     14     -12.8854      1.00000
     15     -12.7816      1.00000
     16     -12.6937      1.00000
     17     -12.6725      1.00000
     18     -12.6698      1.00000
     19     -12.6408      1.00000
     20     -12.5490      1.00000
     21     -12.4826      1.00000
     22     -12.4110      1.00000
     23     -12.2895      1.00000
     24     -12.2206      1.00000
     25      -9.9274      1.00000
     26      -9.6497      1.00000
     27      -9.5392      1.00000
     28      -9.4750      1.00000
     29      -9.4631      1.00000
     30      -9.1571      1.00000
     31      -8.9981      1.00000
     32      -8.9031      1.00000
     33      -8.8436      1.00000
     34      -8.7786      1.00000
     35      -8.7664      1.00000
     36      -8.6005      1.00000
     37      -0.7633      1.00000
     38      -0.6102      1.00000
     39      -0.2731      1.00000
     40      -0.0554      1.00000
     41       0.0348      1.00000
     42       0.3578      1.00000
     43       0.6861      1.00000
     44       0.7891      1.00000
     45       0.8359      1.00000
     46       1.0650      1.00000
     47       1.2733      1.00000
     48       1.4432      1.00000
     49       1.6672      1.00000
     50       1.7421      1.00000
     51       1.7752      1.00000
     52       1.7948      1.00000
     53       1.9987      1.00000
     54       2.0660      1.00000
     55       2.2728      1.00000
     56       2.4873      1.00000
     57       2.6374      1.00000
     58       2.6505      1.00000
     59       2.7520      1.00000
     60       2.9289      1.00000
     61       2.9435      1.00000
     62       3.0618      1.00000
     63       3.0656      1.00000
     64       3.1229      1.00000
     65       3.1450      1.00000
     66       3.2579      1.00000
     67       3.3981      1.00000
     68       3.4832      1.00000
     69       3.5203      1.00000
     70       3.6126      1.00000
     71       3.6266      1.00000
     72       3.7797      1.00000
     73       7.0431      0.00000
     74       7.2683      0.00000
     75       7.6096      0.00000
     76       7.8665      0.00000
     77       7.9318      0.00000
     78       8.3193      0.00000
     79       8.3251      0.00000
     80       8.4681      0.00000
     81       8.8848      0.00000
     82       9.3891      0.00000
     83       9.5323      0.00000
     84       9.7312      0.00000
     85       9.7371      0.00000
     86       9.9281      0.00000
     87       9.9618      0.00000
     88      10.2722      0.00000
     89      10.2803      0.00000
     90      10.6316      0.00000
     91      10.7364      0.00000
     92      10.8325      0.00000

 k-point    54 :      -0.1667   -0.3333    0.3333
  band No.  band energies     occupation 
      1     -31.3490      1.00000
      2     -31.3456      1.00000
      3     -31.1842      1.00000
      4     -31.1675      1.00000
      5     -31.1018      1.00000
      6     -31.0410      1.00000
      7     -13.2937      1.00000
      8     -13.2240      1.00000
      9     -13.0659      1.00000
     10     -13.0515      1.00000
     11     -13.0180      1.00000
     12     -12.9977      1.00000
     13     -12.9458      1.00000
     14     -12.9039      1.00000
     15     -12.8531      1.00000
     16     -12.7523      1.00000
     17     -12.6359      1.00000
     18     -12.6075      1.00000
     19     -12.5653      1.00000
     20     -12.5077      1.00000
     21     -12.4691      1.00000
     22     -12.4468      1.00000
     23     -12.3787      1.00000
     24     -12.2630      1.00000
     25      -9.9139      1.00000
     26      -9.7899      1.00000
     27      -9.5624      1.00000
     28      -9.4620      1.00000
     29      -9.4056      1.00000
     30      -9.1672      1.00000
     31      -9.0113      1.00000
     32      -8.8914      1.00000
     33      -8.8258      1.00000
     34      -8.7824      1.00000
     35      -8.7314      1.00000
     36      -8.6225      1.00000
     37      -0.7106      1.00000
     38      -0.5905      1.00000
     39      -0.4937      1.00000
     40      -0.4049      1.00000
     41       0.2136      1.00000
     42       0.4573      1.00000
     43       0.7652      1.00000
     44       0.8734      1.00000
     45       1.0847      1.00000
     46       1.1902      1.00000
     47       1.2544      1.00000
     48       1.3895      1.00000
     49       1.5211      1.00000
     50       1.7626      1.00000
     51       1.8168      1.00000
     52       1.8840      1.00000
     53       1.9220      1.00000
     54       2.1065      1.00000
     55       2.2751      1.00000
     56       2.5158      1.00000
     57       2.5461      1.00000
     58       2.5630      1.00000
     59       2.7307      1.00000
     60       2.8121      1.00000
     61       2.9662      1.00000
     62       3.0174      1.00000
     63       3.1119      1.00000
     64       3.1748      1.00000
     65       3.1965      1.00000
     66       3.2958      1.00000
     67       3.4256      1.00000
     68       3.4506      1.00000
     69       3.4730      1.00000
     70       3.5772      1.00000
     71       3.6363      1.00000
     72       3.7150      1.00000
     73       7.0399      0.00000
     74       7.6812      0.00000
     75       7.9231      0.00000
     76       7.9838      0.00000
     77       8.1054      0.00000
     78       8.1572      0.00000
     79       8.6004      0.00000
     80       8.8196      0.00000
     81       8.8391      0.00000
     82       9.2515      0.00000
     83       9.4308      0.00000
     84       9.5329      0.00000
     85       9.6564      0.00000
     86       9.7489      0.00000
     87       9.9259      0.00000
     88      10.0170      0.00000
     89      10.2002      0.00000
     90      10.4523      0.00000
     91      10.5896      0.00000
     92      10.7686      0.00000

 k-point    55 :       0.3333    0.1667   -0.3333
  band No.  band energies     occupation 
      1     -31.3490      1.00000
      2     -31.3456      1.00000
      3     -31.1842      1.00000
      4     -31.1675      1.00000
      5     -31.1018      1.00000
      6     -31.0410      1.00000
      7     -13.2937      1.00000
      8     -13.2240      1.00000
      9     -13.0659      1.00000
     10     -13.0515      1.00000
     11     -13.0180      1.00000
     12     -12.9977      1.00000
     13     -12.9458      1.00000
     14     -12.9039      1.00000
     15     -12.8531      1.00000
     16     -12.7523      1.00000
     17     -12.6359      1.00000
     18     -12.6075      1.00000
     19     -12.5653      1.00000
     20     -12.5077      1.00000
     21     -12.4691      1.00000
     22     -12.4468      1.00000
     23     -12.3787      1.00000
     24     -12.2630      1.00000
     25      -9.9139      1.00000
     26      -9.7899      1.00000
     27      -9.5624      1.00000
     28      -9.4620      1.00000
     29      -9.4056      1.00000
     30      -9.1672      1.00000
     31      -9.0113      1.00000
     32      -8.8914      1.00000
     33      -8.8258      1.00000
     34      -8.7824      1.00000
     35      -8.7314      1.00000
     36      -8.6225      1.00000
     37      -0.7106      1.00000
     38      -0.5905      1.00000
     39      -0.4937      1.00000
     40      -0.4049      1.00000
     41       0.2136      1.00000
     42       0.4573      1.00000
     43       0.7652      1.00000
     44       0.8734      1.00000
     45       1.0847      1.00000
     46       1.1902      1.00000
     47       1.2544      1.00000
     48       1.3895      1.00000
     49       1.5211      1.00000
     50       1.7626      1.00000
     51       1.8168      1.00000
     52       1.8840      1.00000
     53       1.9220      1.00000
     54       2.1065      1.00000
     55       2.2751      1.00000
     56       2.5158      1.00000
     57       2.5461      1.00000
     58       2.5630      1.00000
     59       2.7307      1.00000
     60       2.8121      1.00000
     61       2.9662      1.00000
     62       3.0174      1.00000
     63       3.1119      1.00000
     64       3.1748      1.00000
     65       3.1965      1.00000
     66       3.2958      1.00000
     67       3.4256      1.00000
     68       3.4506      1.00000
     69       3.4730      1.00000
     70       3.5772      1.00000
     71       3.6363      1.00000
     72       3.7150      1.00000
     73       7.0399      0.00000
     74       7.6812      0.00000
     75       7.9231      0.00000
     76       7.9838      0.00000
     77       8.1054      0.00000
     78       8.1572      0.00000
     79       8.6004      0.00000
     80       8.8196      0.00000
     81       8.8391      0.00000
     82       9.2515      0.00000
     83       9.4308      0.00000
     84       9.5329      0.00000
     85       9.6564      0.00000
     86       9.7489      0.00000
     87       9.9259      0.00000
     88      10.0170      0.00000
     89      10.2002      0.00000
     90      10.4523      0.00000
     91      10.5896      0.00000
     92      10.7680      0.00000

 k-point    56 :      -0.1667   -0.1667    0.3333
  band No.  band energies     occupation 
      1     -31.3500      1.00000
      2     -31.3458      1.00000
      3     -31.2122      1.00000
      4     -31.1384      1.00000
      5     -31.1194      1.00000
      6     -31.0231      1.00000
      7     -13.2388      1.00000
      8     -13.2061      1.00000
      9     -13.0704      1.00000
     10     -13.0618      1.00000
     11     -13.0075      1.00000
     12     -12.9691      1.00000
     13     -12.9655      1.00000
     14     -12.9256      1.00000
     15     -12.8731      1.00000
     16     -12.8185      1.00000
     17     -12.6283      1.00000
     18     -12.5486      1.00000
     19     -12.4993      1.00000
     20     -12.4704      1.00000
     21     -12.4636      1.00000
     22     -12.4360      1.00000
     23     -12.4241      1.00000
     24     -12.3063      1.00000
     25     -10.0870      1.00000
     26      -9.9538      1.00000
     27      -9.5575      1.00000
     28      -9.3501      1.00000
     29      -9.2973      1.00000
     30      -9.2150      1.00000
     31      -8.9428      1.00000
     32      -8.8501      1.00000
     33      -8.8419      1.00000
     34      -8.8133      1.00000
     35      -8.6972      1.00000
     36      -8.6408      1.00000
     37      -0.8545      1.00000
     38      -0.7969      1.00000
     39      -0.7070      1.00000
     40      -0.3656      1.00000
     41       0.2906      1.00000
     42       0.3421      1.00000
     43       0.8740      1.00000
     44       0.8928      1.00000
     45       1.1977      1.00000
     46       1.2475      1.00000
     47       1.3265      1.00000
     48       1.3406      1.00000
     49       1.5348      1.00000
     50       1.6564      1.00000
     51       1.8696      1.00000
     52       1.9510      1.00000
     53       2.1019      1.00000
     54       2.2357      1.00000
     55       2.2391      1.00000
     56       2.4544      1.00000
     57       2.4856      1.00000
     58       2.5390      1.00000
     59       2.6679      1.00000
     60       2.8945      1.00000
     61       2.9945      1.00000
     62       3.0798      1.00000
     63       3.0937      1.00000
     64       3.1877      1.00000
     65       3.2315      1.00000
     66       3.2621      1.00000
     67       3.3748      1.00000
     68       3.4054      1.00000
     69       3.5139      1.00000
     70       3.5496      1.00000
     71       3.6814      1.00000
     72       3.7739      1.00000
     73       7.2422      0.00000
     74       7.9097      0.00000
     75       8.1454      0.00000
     76       8.1499      0.00000
     77       8.1923      0.00000
     78       8.4923      0.00000
     79       8.8481      0.00000
     80       8.8996      0.00000
     81       8.9867      0.00000
     82       9.0311      0.00000
     83       9.2833      0.00000
     84       9.4195      0.00000
     85       9.6171      0.00000
     86       9.8317      0.00000
     87       9.9024      0.00000
     88       9.9384      0.00000
     89      10.0751      0.00000
     90      10.5414      0.00000
     91      10.6494      0.00000
     92      10.7854      0.00000


--------------------------------------------------------------------------------------------------------


 soft charge-density along one line, spin component           1
         0         1         2         3         4         5         6         7         8         9
 total charge-density along one line
 
 soft charge-density along one line, spin component           2
         0         1         2         3         4         5         6         7         8         9
 total charge-density along one line
 
 pseudopotential strength for first ion, spin component:           1
  8.575  14.616  -0.000   0.002   0.001  -0.000   0.005   0.004
 14.616  24.913  -0.000   0.003   0.002  -0.000   0.008   0.006
 -0.000  -0.000   2.032  -0.000  -0.000   5.869  -0.001  -0.001
  0.002   0.003  -0.000   2.032  -0.000  -0.001   5.869  -0.000
  0.001   0.002  -0.000  -0.000   2.032  -0.001  -0.000   5.870
 -0.000  -0.000   5.869  -0.001  -0.001  16.855  -0.004  -0.003
  0.005   0.008  -0.001   5.869  -0.000  -0.004  16.855  -0.001
  0.004   0.006  -0.001  -0.000   5.870  -0.003  -0.001  16.856
 pseudopotential strength for first ion, spin component:           2
  8.575  14.616  -0.000   0.002   0.001  -0.000   0.005   0.004
 14.616  24.913  -0.000   0.003   0.002  -0.000   0.008   0.006
 -0.000  -0.000   2.032  -0.000  -0.000   5.869  -0.001  -0.001
  0.002   0.003  -0.000   2.032  -0.000  -0.001   5.869  -0.000
  0.001   0.002  -0.000  -0.000   2.032  -0.001  -0.000   5.870
 -0.000  -0.000   5.869  -0.001  -0.001  16.855  -0.004  -0.003
  0.005   0.008  -0.001   5.869  -0.000  -0.004  16.855  -0.001
  0.004   0.006  -0.001  -0.000   5.870  -0.003  -0.001  16.856
 total augmentation occupancy for first ion, spin component:           1
 10.302  -4.242  -0.025  -0.133  -0.086   0.006   0.024   0.015
 -4.242   1.762   0.016   0.058   0.035  -0.003  -0.010  -0.006
 -0.025   0.016   2.210   0.086   0.045  -0.298  -0.013  -0.008
 -0.133   0.058   0.086   2.337   0.019  -0.013  -0.316  -0.003
 -0.086   0.035   0.045   0.019   2.241  -0.008  -0.003  -0.302
  0.006  -0.003  -0.298  -0.013  -0.008   0.041   0.002   0.001
  0.024  -0.010  -0.013  -0.316  -0.003   0.002   0.043   0.001
  0.015  -0.006  -0.008  -0.003  -0.302   0.001   0.001   0.041
 total augmentation occupancy for first ion, spin component:           2
  0.000  -0.000   0.000   0.000  -0.000  -0.000  -0.000   0.000
 -0.000   0.000  -0.000  -0.000   0.000   0.000   0.000  -0.000
  0.000  -0.000   0.000   0.000   0.000  -0.000  -0.000  -0.000
  0.000  -0.000   0.000   0.000  -0.000  -0.000  -0.000   0.000
 -0.000   0.000   0.000  -0.000  -0.000   0.000   0.000   0.000
 -0.000   0.000  -0.000  -0.000   0.000   0.000   0.000  -0.000
 -0.000   0.000  -0.000  -0.000   0.000   0.000   0.000  -0.000
  0.000  -0.000  -0.000   0.000   0.000  -0.000  -0.000  -0.000


------------------------ aborting loop because EDIFF is reached ----------------------------------------


 


 total charge     
 
# of ion       s       p       d       tot
------------------------------------------
    1        0.368   0.445   0.000   0.812
    2        0.368   0.445   0.000   0.812
    3        0.368   0.445   0.000   0.812
    4        0.368   0.445   0.000   0.812
    5        0.373   0.472   0.000   0.845
    6        0.373   0.472   0.000   0.845
    7        0.157   0.309   0.000   0.466
    8        0.157   0.309   0.000   0.466
    9        0.157   0.309   0.000   0.466
   10        0.157   0.309   0.000   0.466
   11        0.129   0.238   0.000   0.367
   12        0.129   0.238   0.000   0.367
   13        1.235   2.562   0.000   3.797
   14        1.235   2.562   0.000   3.797
   15        1.235   2.562   0.000   3.797
   16        1.235   2.562   0.000   3.797
   17        1.231   2.512   0.000   3.744
   18        1.231   2.512   0.000   3.744
   19        1.231   2.512   0.000   3.744
   20        1.231   2.512   0.000   3.744
   21        1.239   2.498   0.000   3.736
   22        1.239   2.498   0.000   3.736
   23        1.235   2.510   0.000   3.745
   24        1.235   2.510   0.000   3.745
   25        2.019   5.846   0.249   8.114
   26        2.019   5.846   0.249   8.114
   27        2.020   5.854   0.269   8.142
   28        2.020   5.854   0.269   8.142
   29        2.021   5.858   0.262   8.141
   30        2.021   5.858   0.262   8.141
--------------------------------------------------
tot         30.032  69.862   1.560 101.454
 


 magnetization (x)
 
# of ion       s       p       d       tot
------------------------------------------
    1       -0.000  -0.000   0.000  -0.000
    2       -0.000  -0.000   0.000  -0.000
    3        0.000  -0.000   0.000   0.000
    4       -0.000  -0.000   0.000  -0.000
    5        0.000  -0.000   0.000   0.000
    6        0.000  -0.000   0.000   0.000
    7        0.000  -0.000   0.000  -0.000
    8       -0.000  -0.000   0.000  -0.000
    9       -0.000  -0.000   0.000  -0.000
   10       -0.000  -0.000   0.000  -0.000
   11       -0.000   0.000   0.000   0.000
   12       -0.000  -0.000   0.000  -0.000
   13        0.000   0.000   0.000   0.000
   14        0.000   0.000   0.000   0.000
   15        0.000  -0.000   0.000   0.000
   16        0.000   0.000   0.000   0.000
   17        0.000  -0.000   0.000  -0.000
   18        0.000   0.000   0.000   0.000
   19        0.000  -0.000   0.000   0.000
   20        0.000   0.000   0.000   0.000
   21        0.000  -0.000   0.000  -0.000
   22        0.000  -0.000   0.000  -0.000
   23        0.000   0.000   0.000   0.000
   24        0.000   0.000   0.000   0.000
   25        0.000   0.000   0.000   0.000
   26        0.000  -0.000   0.000   0.000
   27        0.000   0.000   0.000   0.000
   28        0.000   0.000   0.000   0.000
   29        0.000  -0.000   0.000  -0.000
   30        0.000  -0.000   0.000  -0.000
--------------------------------------------------
tot          0.000  -0.000   0.000   0.000
 
    CHARGE:  cpu time    0.2688: real time    0.2689
    FORLOC:  cpu time    0.0037: real time    0.0037
    FORNL :  cpu time    1.4740: real time    1.4754
    STRESS:  cpu time   39.1293: real time   39.1646
    FORCOR:  cpu time    0.0852: real time    0.0890
    FORHAR:  cpu time    0.0060: real time    0.0062
    MIXING:  cpu time    0.0009: real time    0.0009
    OFIELD:  cpu time    0.0002: real time    0.0002

  FORCE on cell =-STRESS in cart. coord.  units (eV):
  Direction    XX          YY          ZZ          XY          YZ          ZX
  --------------------------------------------------------------------------------------
  Alpha Z   532.56483   532.56483   532.56483
  Ewald   -2371.29926 -2557.47603 -2347.20380     0.00002    -0.00003   -15.01997
  Hartree   607.77791   512.03012   632.40171     0.00001    -0.00000   -21.27918
  E(xc)    -575.80806  -576.93244  -575.31488     0.00000    -0.00000     0.03027
  Local     -46.64891   245.07012  -101.46050    -0.00004     0.00004    41.32850
  n-local  -326.37152  -322.46119  -326.22605    -0.00000    -0.00000    -1.87591
  augment    33.55934    32.63879    33.66827     0.00000    -0.00000    -0.03568
  Kinetic  2146.19143  2134.47478  2151.54973     0.00000    -0.00000    -3.13751
  Fock        0.00000     0.00000     0.00000     0.00000     0.00000     0.00000
  -------------------------------------------------------------------------------------
  Total      -0.03425    -0.09102    -0.02068    -0.00000    -0.00000     0.01051
  in kB      -0.14574    -0.38732    -0.08800    -0.00001    -0.00001     0.04473
  external pressure =       -0.21 kB  Pullay stress =        0.00 kB


 VOLUME and BASIS-vectors are now :
 -----------------------------------------------------------------------------
  energy-cutoff  :      520.00
  volume of cell :      376.50
      direct lattice vectors                 reciprocal lattice vectors
    -3.014808381 -4.962165438  0.068196703    -0.165843589 -0.100762461  0.000195834
    -3.014808416  4.962165460  0.068196707    -0.165843589  0.100762460  0.000195834
    -0.014858586 -0.000000008-12.583122738    -0.001797644  0.000000000 -0.079469406

  length of vectors
     5.806617449  5.806617486 12.583131511     0.194054652  0.194054651  0.079489735


 FORCES acting on ions
    electron-ion (+dipol)            ewald-force                    non-local-force                 convergence-correction
 -----------------------------------------------------------------------------------------------
   -.150E+02 -.512E+01 -.955E+01   0.143E+02 0.506E+01 0.848E+01   0.701E+00 0.655E-01 0.104E+01   -.695E-03 -.597E-03 0.123E-02
   -.150E+02 0.512E+01 -.955E+01   0.143E+02 -.506E+01 0.848E+01   0.701E+00 -.655E-01 0.104E+01   -.699E-03 0.598E-03 0.123E-02
   0.150E+02 0.512E+01 0.955E+01   -.143E+02 -.506E+01 -.848E+01   -.701E+00 -.659E-01 -.104E+01   0.695E-03 0.598E-03 -.124E-02
   0.150E+02 -.512E+01 0.955E+01   -.143E+02 0.506E+01 -.848E+01   -.701E+00 0.659E-01 -.104E+01   0.697E-03 -.598E-03 -.124E-02
   0.103E+02 0.138E-04 0.179E+02   -.103E+02 -.126E-04 -.191E+02   -.651E-01 -.334E-05 0.106E+01   0.122E-02 0.104E-05 0.623E-03
   -.103E+02 -.953E-05 -.179E+02   0.103E+02 0.608E-05 0.191E+02   0.652E-01 0.496E-05 -.106E+01   -.123E-02 0.449E-06 -.621E-03
   -.961E+00 0.706E+01 -.387E+01   0.521E+00 -.574E+01 0.434E+01   0.428E+00 -.126E+01 -.451E+00   0.204E-03 0.102E-03 -.315E-03
   -.961E+00 -.706E+01 -.387E+01   0.521E+00 0.574E+01 0.434E+01   0.428E+00 0.126E+01 -.451E+00   0.205E-03 -.102E-03 -.315E-03
   0.961E+00 -.706E+01 0.387E+01   -.521E+00 0.574E+01 -.434E+01   -.428E+00 0.126E+01 0.451E+00   -.205E-03 -.102E-03 0.315E-03
   0.961E+00 0.706E+01 0.387E+01   -.521E+00 -.574E+01 -.434E+01   -.428E+00 -.126E+01 0.451E+00   -.205E-03 0.102E-03 0.315E-03
   -.221E+01 0.483E-08 -.114E+02   0.129E+01 0.363E-06 0.102E+02   0.892E+00 0.550E-06 0.121E+01   0.399E-03 -.260E-06 0.349E-03
   0.221E+01 -.178E-05 0.114E+02   -.129E+01 0.145E-05 -.102E+02   -.892E+00 0.332E-06 -.121E+01   -.399E-03 0.162E-06 -.349E-03
   -.144E+02 0.177E+02 -.322E+02   0.111E+02 -.217E+02 0.298E+02   0.322E+01 0.393E+01 0.249E+01   -.255E-02 -.123E-02 -.329E-02
   -.144E+02 -.177E+02 -.322E+02   0.111E+02 0.217E+02 0.298E+02   0.322E+01 -.393E+01 0.249E+01   -.255E-02 0.124E-02 -.329E-02
   0.144E+02 -.177E+02 0.322E+02   -.111E+02 0.216E+02 -.298E+02   -.322E+01 -.393E+01 -.249E+01   0.255E-02 0.124E-02 0.330E-02
   0.144E+02 0.177E+02 0.322E+02   -.111E+02 -.216E+02 -.298E+02   -.322E+01 0.393E+01 -.249E+01   0.254E-02 -.124E-02 0.330E-02
   0.585E+01 0.387E+02 -.495E+01   -.390E+01 -.420E+02 0.768E+01   -.195E+01 0.333E+01 -.274E+01   0.209E-02 0.568E-03 0.371E-02
   0.585E+01 -.387E+02 -.495E+01   -.390E+01 0.420E+02 0.768E+01   -.195E+01 -.333E+01 -.274E+01   0.209E-02 -.577E-03 0.371E-02
   -.585E+01 -.387E+02 0.495E+01   0.390E+01 0.420E+02 -.769E+01   0.195E+01 -.333E+01 0.274E+01   -.209E-02 -.566E-03 -.371E-02
   -.585E+01 0.387E+02 0.495E+01   0.390E+01 -.420E+02 -.769E+01   0.195E+01 0.333E+01 0.274E+01   -.209E-02 0.577E-03 -.371E-02
   0.123E+02 0.118E-04 -.384E+02   -.528E+01 -.102E-04 0.418E+02   -.700E+01 0.138E-06 -.338E+01   0.530E-02 -.838E-06 0.316E-04
   -.123E+02 0.586E-05 0.384E+02   0.527E+01 -.118E-04 -.418E+02   0.700E+01 -.287E-05 0.338E+01   -.531E-02 0.728E-05 -.233E-04
   -.515E+02 -.134E-05 -.446E+02   0.478E+02 -.721E-05 0.498E+02   0.378E+01 -.109E-05 -.519E+01   -.515E-02 0.792E-05 0.321E-02
   0.515E+02 0.717E-05 0.446E+02   -.478E+02 -.562E-05 -.498E+02   -.378E+01 0.154E-05 0.519E+01   0.515E-02 -.208E-05 -.321E-02
   0.526E+02 0.179E-04 -.394E+02   -.512E+02 -.184E-04 0.401E+02   -.132E+01 -.972E-06 -.732E+00   -.139E-03 0.912E-06 -.306E-03
   -.526E+02 0.300E-04 0.394E+02   0.512E+02 -.274E-04 -.401E+02   0.132E+01 0.940E-06 0.732E+00   0.118E-03 -.336E-05 0.302E-03
   -.285E-02 -.296E+02 -.481E-02   0.241E-02 0.269E+02 0.478E-02   0.409E-03 0.273E+01 0.652E-04   0.174E-05 -.368E-03 0.214E-05
   -.284E-02 0.296E+02 -.480E-02   0.241E-02 -.269E+02 0.477E-02   0.407E-03 -.273E+01 0.649E-04   0.398E-06 0.361E-03 0.427E-05
   0.390E-03 -.305E+00 0.749E-03   -.500E-03 0.140E+01 -.682E-03   0.866E-04 -.109E+01 -.125E-04   0.325E-05 -.414E-02 -.376E-05
   0.390E-03 0.305E+00 0.760E-03   -.496E-03 -.140E+01 -.689E-03   0.865E-04 0.109E+01 -.101E-04   -.217E-06 0.413E-02 -.103E-04
 -----------------------------------------------------------------------------------------------
   -.124E-02 -.109E-04 0.306E-03   -.384E-13 0.124E-13 0.212E-13   0.973E-03 0.763E-05 -.717E-04   -.351E-04 0.409E-05 0.558E-05
 
 
 POSITION                                       TOTAL-FORCE (eV/Angst)
 -----------------------------------------------------------------------------------
     -3.93132     -1.60936     -2.30676        -0.002580      0.000518     -0.000668
     -3.93132      1.60936     -2.30676        -0.002578     -0.000519     -0.000669
     -2.11315      1.60937    -10.13995         0.002505     -0.000843      0.000413
     -2.11315     -1.60937    -10.13995         0.002505      0.000843      0.000411
     -2.40432      0.00000     -7.34469         0.001052     -0.000001     -0.000273
     -3.64016     -0.00000     -5.10205        -0.001024      0.000002      0.000294
     -2.21452      1.84419     -3.96651        -0.002267      0.001786     -0.000716
     -2.21452     -1.84419     -3.96651        -0.002267     -0.001786     -0.000716
     -3.82996     -1.84418     -8.48021         0.002264     -0.001764      0.000736
     -3.82996      1.84418     -8.48021         0.002264      0.001764      0.000735
     -2.47217     -0.00000     -1.01261        -0.000608      0.000001      0.001475
     -3.57230     -0.00000    -11.43413         0.000682      0.000000     -0.001445
     -4.18611     -1.53635     -4.19828        -0.002070     -0.000987      0.002147
     -4.18611      1.53635     -4.19828        -0.002071      0.000983      0.002146
     -1.85836      1.53635     -8.24844         0.002089      0.001012     -0.002058
     -1.85836     -1.53635     -8.24844         0.002090     -0.001009     -0.002057
     -2.03658      1.85032     -1.88593         0.001902      0.002593      0.000296
     -2.03658     -1.85032     -1.88593         0.001903     -0.002591      0.000297
     -4.00790     -1.85032    -10.56080        -0.001895     -0.002582     -0.000235
     -4.00790      1.85032    -10.56080        -0.001895      0.002581     -0.000234
     -1.76175      0.00000     -5.49062        -0.001163      0.000001      0.004868
     -4.28272      0.00000     -6.95612         0.001180     -0.000002     -0.004911
     -4.47802      0.00000     -1.36896        -0.001071     -0.000002      0.000393
     -1.56646      0.00000    -11.07777         0.001071      0.000001     -0.000290
     -0.35016      0.00000     -3.25325        -0.004491     -0.000001      0.002005
     -5.69430      0.00000     -9.19349         0.004515      0.000000     -0.002084
     -3.02226     -3.14486     -6.22338        -0.000012      0.002044      0.000027
     -3.02226      3.14486     -6.22338        -0.000012     -0.002043      0.000026
     -3.01481     -3.32217      0.06820        -0.000010      0.002087      0.000043
     -3.01481      3.32217      0.06820        -0.000009     -0.002088      0.000043
 -----------------------------------------------------------------------------------
    total drift:                               -0.000300      0.000001      0.000240


--------------------------------------------------------------------------------------------------------



  FREE ENERGIE OF THE ION-ELECTRON SYSTEM (eV)
  ---------------------------------------------------
  free  energy   TOTEN  =      -340.70363384 eV

  energy  without entropy=     -340.70363384  energy(sigma->0) =     -340.70363384
 


--------------------------------------------------------------------------------------------------------


    POTLOK:  cpu time    0.9238: real time    0.9281


--------------------------------------------------------------------------------------------------------




--------------------------------------------------------------------------------------------------------


  
 reached required accuracy - stopping structural energy minimisation
     LOOP+:  cpu time  481.1453: real time  481.8840
    4ORBIT:  cpu time    0.0000: real time    0.0000
 


 total charge     
 
# of ion       s       p       d       tot
------------------------------------------
    1        0.368   0.445   0.000   0.812
    2        0.368   0.445   0.000   0.812
    3        0.368   0.445   0.000   0.812
    4        0.368   0.445   0.000   0.812
    5        0.373   0.472   0.000   0.845
    6        0.373   0.472   0.000   0.845
    7        0.157   0.309   0.000   0.466
    8        0.157   0.309   0.000   0.466
    9        0.157   0.309   0.000   0.466
   10        0.157   0.309   0.000   0.466
   11        0.129   0.238   0.000   0.367
   12        0.129   0.238   0.000   0.367
   13        1.235   2.562   0.000   3.797
   14        1.235   2.562   0.000   3.797
   15        1.235   2.562   0.000   3.797
   16        1.235   2.562   0.000   3.797
   17        1.231   2.512   0.000   3.744
   18        1.231   2.512   0.000   3.744
   19        1.231   2.512   0.000   3.744
   20        1.231   2.512   0.000   3.744
   21        1.239   2.498   0.000   3.736
   22        1.239   2.498   0.000   3.736
   23        1.235   2.510   0.000   3.745
   24        1.235   2.510   0.000   3.745
   25        2.019   5.846   0.249   8.114
   26        2.019   5.846   0.249   8.114
   27        2.020   5.854   0.269   8.142
   28        2.020   5.854   0.269   8.142
   29        2.021   5.858   0.262   8.141
   30        2.021   5.858   0.262   8.141
--------------------------------------------------
tot         30.032  69.862   1.560 101.454
 


 magnetization (x)
 
# of ion       s       p       d       tot
------------------------------------------
    1       -0.000  -0.000   0.000  -0.000
    2       -0.000  -0.000   0.000  -0.000
    3        0.000  -0.000   0.000   0.000
    4       -0.000  -0.000   0.000  -0.000
    5        0.000  -0.000   0.000   0.000
    6        0.000  -0.000   0.000   0.000
    7        0.000  -0.000   0.000  -0.000
    8       -0.000  -0.000   0.000  -0.000
    9       -0.000  -0.000   0.000  -0.000
   10       -0.000  -0.000   0.000  -0.000
   11       -0.000   0.000   0.000   0.000
   12       -0.000  -0.000   0.000  -0.000
   13        0.000   0.000   0.000   0.000
   14        0.000   0.000   0.000   0.000
   15        0.000  -0.000   0.000   0.000
   16        0.000   0.000   0.000   0.000
   17        0.000  -0.000   0.000  -0.000
   18        0.000   0.000   0.000   0.000
   19        0.000  -0.000   0.000   0.000
   20        0.000   0.000   0.000   0.000
   21        0.000  -0.000   0.000  -0.000
   22        0.000  -0.000   0.000  -0.000
   23        0.000   0.000   0.000   0.000
   24        0.000   0.000   0.000   0.000
   25        0.000   0.000   0.000   0.000
   26        0.000  -0.000   0.000   0.000
   27        0.000   0.000   0.000   0.000
   28        0.000   0.000   0.000   0.000
   29        0.000  -0.000   0.000  -0.000
   30        0.000  -0.000   0.000  -0.000
--------------------------------------------------
tot          0.000  -0.000   0.000   0.000
 

 total amount of memory used by VASP MPI-rank0    71882. kBytes
=======================================================================

   base      :      30000. kBytes
   nonlr-proj:       6210. kBytes
   fftplans  :       1588. kBytes
   grid      :       6160. kBytes
   one-center:         62. kBytes
   wavefun   :      27862. kBytes
 
  
  
 General timing and accounting informations for this job:
 ========================================================
  
                  Total CPU time used (sec):      497.335
                            User time (sec):      488.888
                          System time (sec):        8.447
                         Elapsed time (sec):      498.777
  
                   Maximum memory used (kb):      148120.
                   Average memory used (kb):           0.
  
                          Minor page faults:        63025
                          Major page faults:            0
                 Voluntary context switches:         1804
