Mg Ca Sr P2                             
   1.00000000000000     
     4.3926312994975003    0.0012498848945856   -0.0016917554697444
    -2.1946289152052283    3.8051278377052573    0.0017007488602751
    -0.0016659202954584    0.0009829273490762    8.1261201861505388
   Ca   Mg   Sr   P 
     1     1     1     2
Direct
  0.0000849007381022  0.9999139272220227  0.0003357526839418
  0.3326400359650028  0.6673562615540442  0.7264014694461511
  0.6671789955654318  0.3328227582880033  0.3572876468557246
  0.3336588186524994  0.6663399545559038  0.1736843101132503
  0.6664371890789591  0.3335670983800190  0.7422908509009417
 
  0.00000000E+00  0.00000000E+00  0.00000000E+00
  0.00000000E+00  0.00000000E+00  0.00000000E+00
  0.00000000E+00  0.00000000E+00  0.00000000E+00
  0.00000000E+00  0.00000000E+00  0.00000000E+00
  0.00000000E+00  0.00000000E+00  0.00000000E+00
