K4 Mg4 In4 P8                           
   1.00000000000000     
     7.0217487999959989   -0.0015486679405898    0.0801092679743341
    -0.0019277951127270    8.1583388482859593    0.0005925452140782
     0.1427707115607348    0.0001512551377019    8.4171063127249361
   K    Mg   In   P 
     4     4     4     8
Direct
  0.3841985570820922  0.4978288178414674  0.8409273160733589
  0.6158908981101248 -0.0018180112699802  0.6587486067279348
  0.6151472150923450  0.5025570322926107  0.1588852544404621
  0.3848355408611705  0.0022165788647273  0.3411834864400947
  0.1353366607959857  0.1619025166874708  0.7389770389974696
  0.8651860153094033  0.6639127449088521  0.7616571539867732
  0.8652005779302534  0.8361556751822248  0.2615825468847889
  0.1347477224071204  0.3361469493096480  0.2384217808941511
  0.6863255084749145  0.3585353045391690  0.5169130352659054
  0.3142674332921832  0.8580050002825771  0.9831962942705176
  0.3132118014484619  0.6416636436829238  0.4829323633127964
  0.6857893038181724  0.1423929022429534  0.0167837186033194
  0.1642051305515489  0.8356480618105383  0.7031914974142642
  0.8367898625532315  0.3358046724477145  0.7966393338622022
  0.8356637466971185  0.1644023513472475  0.2967370658460026
  0.1636954841358667  0.6640928661153563  0.2029584753744514
  0.3121381103592348  0.3273815393536858  0.5130692556628842
  0.6880101528433585  0.8279683085363095  0.9870570598326146
  0.6873395269143311  0.6728191481749219  0.4871415921493963
  0.3120207513230764  0.1723838976495734  0.0129971239606114
 
  0.00000000E+00  0.00000000E+00  0.00000000E+00
  0.00000000E+00  0.00000000E+00  0.00000000E+00
  0.00000000E+00  0.00000000E+00  0.00000000E+00
  0.00000000E+00  0.00000000E+00  0.00000000E+00
  0.00000000E+00  0.00000000E+00  0.00000000E+00
  0.00000000E+00  0.00000000E+00  0.00000000E+00
  0.00000000E+00  0.00000000E+00  0.00000000E+00
  0.00000000E+00  0.00000000E+00  0.00000000E+00
  0.00000000E+00  0.00000000E+00  0.00000000E+00
  0.00000000E+00  0.00000000E+00  0.00000000E+00
  0.00000000E+00  0.00000000E+00  0.00000000E+00
  0.00000000E+00  0.00000000E+00  0.00000000E+00
  0.00000000E+00  0.00000000E+00  0.00000000E+00
  0.00000000E+00  0.00000000E+00  0.00000000E+00
  0.00000000E+00  0.00000000E+00  0.00000000E+00
  0.00000000E+00  0.00000000E+00  0.00000000E+00
  0.00000000E+00  0.00000000E+00  0.00000000E+00
  0.00000000E+00  0.00000000E+00  0.00000000E+00
  0.00000000E+00  0.00000000E+00  0.00000000E+00
  0.00000000E+00  0.00000000E+00  0.00000000E+00
