K12 Zn3 P6                              
   1.00000000000000     
     5.6183665263868576   -0.0015221153827014   -0.0027206754136509
    -2.8105006260554499    4.8653539103571335    0.0028417886785494
    -0.0127088977114504    0.0079863579209687   26.0313730922275042
   K    Zn   P 
    12     3     6
Direct
  0.0019165605198511  0.9991390332411448  0.7917589607752953
  0.9989502211139327  0.0018832136478607  0.2082530972719192
  0.6660700548063749  0.3330154616411199  0.1250111740454371
  0.6675590053111136  0.3335180490229644  0.5417574407189611
  0.3333172381218147  0.6675643967608527  0.4582476703717728
  0.3331641533077146  0.6660189516006562  0.8749885002446791
  0.0022975131055573  0.9993894089596610  0.6156389212558318
  0.9991757704167790  0.0022378604503918  0.3843417214897284
  0.6647124495806471  0.3302191221278846  0.9490138616669116
  0.6694040034501025  0.3329912021969654  0.7177331830723835
  0.3325983343357035  0.6691228170391529  0.2822674102599320
  0.3305600930095184  0.6643816579266859  0.0509696295691697
  0.9971752307220327  0.9970973829876768  0.0000000566362892
  0.6664038452811328  0.3365975527080396  0.3337668720999639
  0.3366771640411255  0.6665413969448213  0.6662373721852471
  0.9984936663028944  0.9977873261076124  0.9158444291900296
  0.9978615384067464  0.9984089517733534  0.0841553722805113
  0.6655669248710899  0.3365423790028713  0.2494575359919316
  0.6662214750370643  0.3351216791623848  0.4178433618912721
  0.3351537667908879  0.6664651163303358  0.5821637488822582
  0.3367209914679096  0.6659570403675641  0.7505496801004826
 
  0.00000000E+00  0.00000000E+00  0.00000000E+00
  0.00000000E+00  0.00000000E+00  0.00000000E+00
  0.00000000E+00  0.00000000E+00  0.00000000E+00
  0.00000000E+00  0.00000000E+00  0.00000000E+00
  0.00000000E+00  0.00000000E+00  0.00000000E+00
  0.00000000E+00  0.00000000E+00  0.00000000E+00
  0.00000000E+00  0.00000000E+00  0.00000000E+00
  0.00000000E+00  0.00000000E+00  0.00000000E+00
  0.00000000E+00  0.00000000E+00  0.00000000E+00
  0.00000000E+00  0.00000000E+00  0.00000000E+00
  0.00000000E+00  0.00000000E+00  0.00000000E+00
  0.00000000E+00  0.00000000E+00  0.00000000E+00
  0.00000000E+00  0.00000000E+00  0.00000000E+00
  0.00000000E+00  0.00000000E+00  0.00000000E+00
  0.00000000E+00  0.00000000E+00  0.00000000E+00
  0.00000000E+00  0.00000000E+00  0.00000000E+00
  0.00000000E+00  0.00000000E+00  0.00000000E+00
  0.00000000E+00  0.00000000E+00  0.00000000E+00
  0.00000000E+00  0.00000000E+00  0.00000000E+00
  0.00000000E+00  0.00000000E+00  0.00000000E+00
  0.00000000E+00  0.00000000E+00  0.00000000E+00
