Li12 Ca3 N6                             
   1.00000000000000     
     3.4113015728357716    0.0668819574175903    0.8886804592429929
    -1.6485431312859209    2.9872571226892748   -0.8886910981424612
     5.1933422388394934   -2.9973963961211827   22.2146354925300074
   Li   Ca   N 
    12     3     6
Direct
  0.0549438444361385  0.9450814899723269  0.8057495881486237
  0.9450100948284567  0.0549992326412714  0.1942332140813064
  0.7223027139302793  0.2777118130604515  0.1389390623242593
  0.6110077193196539  0.3889453722681115  0.5277382547322480
  0.3887040849008505  0.6112506561593056  0.4722914700114383
  0.2779326899590627  0.7220874014114143  0.8610236412363947
  0.8511213230052792  0.1488424261407250  0.5741533834642848
  0.1484951855884813  0.8514749657907067  0.4259297141391022
  0.5189228175890502  0.4811002659814257  0.9073384737251017
  0.8138519881792936  0.1861631148963517  0.7594533871835608
  0.1860149728252537  0.8139951591991423  0.2405322383884523
  0.4816115031843025  0.5184101041688568  0.0925942838461901
  0.0002871113507030  0.9997413817624654 -0.0000345867986870
  0.6678650395875599  0.3321350740194474  0.3331949922698474
  0.3320742873214399  0.6679139688550088  0.6668103730463771
  0.8417013973325712  0.1583222812677798  0.9126362683753605
  0.1587786907694479  0.8412393296083341  0.0873276618843892
  0.5086779796436193  0.4913349391488212  0.2458659545064132
  0.8257383072987620  0.1742285463406764  0.4206332876722035
  0.1738359382239408  0.8261325911799973  0.5794412226873378
  0.4911223107258888  0.5088898861273522  0.7541481150758040
 
  0.00000000E+00  0.00000000E+00  0.00000000E+00
  0.00000000E+00  0.00000000E+00  0.00000000E+00
  0.00000000E+00  0.00000000E+00  0.00000000E+00
  0.00000000E+00  0.00000000E+00  0.00000000E+00
  0.00000000E+00  0.00000000E+00  0.00000000E+00
  0.00000000E+00  0.00000000E+00  0.00000000E+00
  0.00000000E+00  0.00000000E+00  0.00000000E+00
  0.00000000E+00  0.00000000E+00  0.00000000E+00
  0.00000000E+00  0.00000000E+00  0.00000000E+00
  0.00000000E+00  0.00000000E+00  0.00000000E+00
  0.00000000E+00  0.00000000E+00  0.00000000E+00
  0.00000000E+00  0.00000000E+00  0.00000000E+00
  0.00000000E+00  0.00000000E+00  0.00000000E+00
  0.00000000E+00  0.00000000E+00  0.00000000E+00
  0.00000000E+00  0.00000000E+00  0.00000000E+00
  0.00000000E+00  0.00000000E+00  0.00000000E+00
  0.00000000E+00  0.00000000E+00  0.00000000E+00
  0.00000000E+00  0.00000000E+00  0.00000000E+00
  0.00000000E+00  0.00000000E+00  0.00000000E+00
  0.00000000E+00  0.00000000E+00  0.00000000E+00
  0.00000000E+00  0.00000000E+00  0.00000000E+00
