Li8 P4 Ca2                              
   1.00000000000000     
     4.5751343138047522   -0.0000153694085541    0.0023127519017024
    -0.0000153658007272    4.5751546893292501    0.0023523020165071
    -2.2795031844759626   -2.2793860892035633   14.7679338293168048
   Li   P    Ca
     8     4     2
Direct
  0.4344709022999578  0.6864073062444229  0.8700857419729747
  0.6863636506379385  0.4344345542905096  0.3700838279212772
  0.5655684402418499  0.3136025637444097  0.1299224854466726
  0.3135516020295648  0.5655614689163339  0.6299121632082200
  0.9792604298833654  0.2289246462051566  0.9571868245869528
  0.2289101923272168  0.9792315177735498  0.4571835549038524
  0.0207877231996871  0.7710738003411969  0.0428156949699518
  0.7710605146827482  0.0207678767346185  0.5428116129724814
  0.6874678796580836  0.9357935239301995  0.3727519249736168
  0.9358313063394660  0.6874757117484812  0.8727495299199923
  0.3125324857296844  0.0641943011605136  0.6272487033677608
  0.0641933729721748  0.3125253216850585  0.1272472736961558
  0.1268608885856587  0.8731321549590201  0.2500009855419197
  0.8731406114125971  0.1268752522665289  0.7499996765181857
 
  0.00000000E+00  0.00000000E+00  0.00000000E+00
  0.00000000E+00  0.00000000E+00  0.00000000E+00
  0.00000000E+00  0.00000000E+00  0.00000000E+00
  0.00000000E+00  0.00000000E+00  0.00000000E+00
  0.00000000E+00  0.00000000E+00  0.00000000E+00
  0.00000000E+00  0.00000000E+00  0.00000000E+00
  0.00000000E+00  0.00000000E+00  0.00000000E+00
  0.00000000E+00  0.00000000E+00  0.00000000E+00
  0.00000000E+00  0.00000000E+00  0.00000000E+00
  0.00000000E+00  0.00000000E+00  0.00000000E+00
  0.00000000E+00  0.00000000E+00  0.00000000E+00
  0.00000000E+00  0.00000000E+00  0.00000000E+00
  0.00000000E+00  0.00000000E+00  0.00000000E+00
  0.00000000E+00  0.00000000E+00  0.00000000E+00
