K6 Sr6 Ga6 N12                          
   1.00000000000000     
    -3.0254464146422357   -6.2483088128435931    0.1242149149086077
    -3.0260319032924619    6.2486092613883750    0.1251090724103952
     0.2023481995612884   -0.0009703532973767  -13.4401990824529030
   Ga   K    N    Sr
     6     6    12     6
Direct
  0.8382409970437612  0.5026193991505745  0.1790387993901272
  0.5028867479649114  0.8383351600042952  0.1789675111208812
  0.1616808109557487  0.4971808784441599  0.8210087333236183
  0.4972961038420980  0.1617253715756437  0.8209942582353201
  0.3968262254443563  0.3967861087318733  0.5904028600953086
  0.6032168681369161  0.6031725974100094  0.4095976171383406
  0.1344366734440172  0.4797088292901464  0.3261439904654794
  0.4796883046514963  0.1342980271278747  0.3261407405585262
  0.8656836000738852  0.5203149488430202  0.6738724485474806
  0.5202817005508286  0.8655759932054450  0.6738590402720642
  0.3531085134417052  0.3531390590107983  0.0888065398061611
  0.6469020910315073  0.6469153339469870  0.9111674163340592
  0.8566702976734131  0.6003066296132420  0.3387353710372314
  0.6004068690872277  0.8566796360067542  0.3388066613475976
  0.1433352019774878  0.3996018096080018  0.6612311848916810
  0.3996815500319796  0.1433180160971813  0.6612200510576884
  0.1513648686880137  0.5754649614070172  0.1378455797387708
  0.5753143099061278  0.1513769391722787  0.1378440217674133
  0.8486163842730002  0.4246174645265385  0.8621646128628212
  0.4245553669823622  0.8486306902412240  0.8621547295417434
  0.2782229224742890  0.2781564347700781  0.4466728263521129
  0.7218634419537041  0.7217581489039470  0.5533277688150103
  0.7842865614343284  0.7849243105914581  0.1085888886041096
  0.2152849105760967  0.2155346367425277  0.8913993479778762
  0.9794716226880763  0.9793801744577612  0.2661351787232631
  0.0206209548313818  0.0205698602560409  0.7338574914017814
  0.8615387392206424  0.1384169140684824  0.5000111865519653
  0.1385193208084750  0.8615027540736537  0.4999920061101168
  0.8374373655050629  0.1625634016367754  0.0000036157065872
  0.1625606753071075  0.8374255110862171  0.0000095222248835
 
  0.00000000E+00  0.00000000E+00  0.00000000E+00
  0.00000000E+00  0.00000000E+00  0.00000000E+00
  0.00000000E+00  0.00000000E+00  0.00000000E+00
  0.00000000E+00  0.00000000E+00  0.00000000E+00
  0.00000000E+00  0.00000000E+00  0.00000000E+00
  0.00000000E+00  0.00000000E+00  0.00000000E+00
  0.00000000E+00  0.00000000E+00  0.00000000E+00
  0.00000000E+00  0.00000000E+00  0.00000000E+00
  0.00000000E+00  0.00000000E+00  0.00000000E+00
  0.00000000E+00  0.00000000E+00  0.00000000E+00
  0.00000000E+00  0.00000000E+00  0.00000000E+00
  0.00000000E+00  0.00000000E+00  0.00000000E+00
  0.00000000E+00  0.00000000E+00  0.00000000E+00
  0.00000000E+00  0.00000000E+00  0.00000000E+00
  0.00000000E+00  0.00000000E+00  0.00000000E+00
  0.00000000E+00  0.00000000E+00  0.00000000E+00
  0.00000000E+00  0.00000000E+00  0.00000000E+00
  0.00000000E+00  0.00000000E+00  0.00000000E+00
  0.00000000E+00  0.00000000E+00  0.00000000E+00
  0.00000000E+00  0.00000000E+00  0.00000000E+00
  0.00000000E+00  0.00000000E+00  0.00000000E+00
  0.00000000E+00  0.00000000E+00  0.00000000E+00
  0.00000000E+00  0.00000000E+00  0.00000000E+00
  0.00000000E+00  0.00000000E+00  0.00000000E+00
  0.00000000E+00  0.00000000E+00  0.00000000E+00
  0.00000000E+00  0.00000000E+00  0.00000000E+00
  0.00000000E+00  0.00000000E+00  0.00000000E+00
  0.00000000E+00  0.00000000E+00  0.00000000E+00
  0.00000000E+00  0.00000000E+00  0.00000000E+00
  0.00000000E+00  0.00000000E+00  0.00000000E+00
