Sr6 Li6 Ga6 P12                         
   1.00000000000000     
    -3.5506722394763504   -6.1311137336890944    0.0340033164980291
    -3.5506738081418225    6.1311143914268946    0.0339937585963792
    -0.2112093722866127    0.0000118477750431  -14.5573602026907842
   Ga   Li   P    Sr
     6     6    12     6
Direct
  0.8065981060834096  0.4820465285524826  0.1863177746055507
  0.4820482023450463  0.8066003705503197  0.1863165891604194
  0.1934032478812342  0.5179539409142985  0.8136815509674152
  0.5179513908241572  0.1934018130635176  0.8136826415439602
  0.3832110302159304  0.3832106780934537  0.5820946492711556
  0.6167851239603338  0.6167849928271001  0.4179053897389841
  0.2100112015158383  0.5321757679639064  0.3222708017045613
  0.5321770001139895  0.2100108439625157  0.3222704735857993
  0.7899911837660242  0.4678242963565770  0.6777287957749135
  0.4678243965559695  0.7899908069217889  0.6777296781568803
  0.3820318994962851  0.3820310577703022  0.0673480258347191
  0.6179672381139186  0.6179688277008443  0.9326536898178669
  0.8771955338960320  0.5569565051376674  0.3466060994311816
  0.5569563301816465  0.8771950129170667  0.3466056711435690
  0.1228073776955642  0.4430446233700750  0.6533939568138806
  0.4430451346932194  0.1228078620025599  0.6533944285451487
  0.1365142398195271  0.4826976659052569  0.1476846116027265
  0.4826988282470275  0.1365144307521305  0.1476846647063685
  0.8634830378074518  0.5173044963912765  0.8523144551679648
  0.5173028771613134  0.8634842894502486  0.8523145383671842
  0.2711953356399808  0.2711949452594647  0.4247233906870395
  0.7288063423259925  0.7288061309283851  0.5752775942348286
  0.7401987269810349  0.7401979270326376  0.1003874643821465
  0.2597998588417540  0.2598007950296403  0.8996131869189589
  0.0206170970122039  0.0206170699102772  0.2547561799326352
  0.9793808939572693  0.9793804122880346  0.7452443709782529
  0.8204415806653279  0.1795568425392721  0.5000000115276944
  0.1795581383798042  0.8204412306208019  0.4999998463707579
  0.8282087708162281  0.1717900397157743 -0.0000004054041037
  0.1717898750065080  0.8282097960723308 -0.0000001255684512
 
  0.00000000E+00  0.00000000E+00  0.00000000E+00
  0.00000000E+00  0.00000000E+00  0.00000000E+00
  0.00000000E+00  0.00000000E+00  0.00000000E+00
  0.00000000E+00  0.00000000E+00  0.00000000E+00
  0.00000000E+00  0.00000000E+00  0.00000000E+00
  0.00000000E+00  0.00000000E+00  0.00000000E+00
  0.00000000E+00  0.00000000E+00  0.00000000E+00
  0.00000000E+00  0.00000000E+00  0.00000000E+00
  0.00000000E+00  0.00000000E+00  0.00000000E+00
  0.00000000E+00  0.00000000E+00  0.00000000E+00
  0.00000000E+00  0.00000000E+00  0.00000000E+00
  0.00000000E+00  0.00000000E+00  0.00000000E+00
  0.00000000E+00  0.00000000E+00  0.00000000E+00
  0.00000000E+00  0.00000000E+00  0.00000000E+00
  0.00000000E+00  0.00000000E+00  0.00000000E+00
  0.00000000E+00  0.00000000E+00  0.00000000E+00
  0.00000000E+00  0.00000000E+00  0.00000000E+00
  0.00000000E+00  0.00000000E+00  0.00000000E+00
  0.00000000E+00  0.00000000E+00  0.00000000E+00
  0.00000000E+00  0.00000000E+00  0.00000000E+00
  0.00000000E+00  0.00000000E+00  0.00000000E+00
  0.00000000E+00  0.00000000E+00  0.00000000E+00
  0.00000000E+00  0.00000000E+00  0.00000000E+00
  0.00000000E+00  0.00000000E+00  0.00000000E+00
  0.00000000E+00  0.00000000E+00  0.00000000E+00
  0.00000000E+00  0.00000000E+00  0.00000000E+00
  0.00000000E+00  0.00000000E+00  0.00000000E+00
  0.00000000E+00  0.00000000E+00  0.00000000E+00
  0.00000000E+00  0.00000000E+00  0.00000000E+00
  0.00000000E+00  0.00000000E+00  0.00000000E+00
