Li4 Ca4 In4 P8                          
   1.00000000000000     
     6.9223014326245895    0.0000001229185636    0.0082645642947923
     0.0000001812579556    8.4610004553621856   -0.0000001810607861
     0.0489423042789440   -0.0000001547839075    7.2912152722041021
   Li   Ca   In   P 
     4     4     4     8
Direct
  0.3661882491754344  0.3809767300544740  0.9150293286227765
  0.6338114780962782  0.8809770936977437  0.5849706636591298
  0.6338114286115909  0.6190229521395281  0.0849705787681976
  0.3661882865085136  0.1190232353943275  0.4150290411307795
  0.0057027115455150  0.1271567939110276  0.7458677074588136
  0.9942973199640561  0.6271570423017201  0.7541321882060947
  0.9942973622183158  0.8728430530447918  0.2541322622163703
  0.0057027784639462  0.3728432093723563  0.2458676967562145
  0.6281378044692841  0.3647698161967944  0.5879877148115691
  0.3718621849190762  0.8647697619750665  0.9120122103468695
  0.3718627209193829  0.6352301296869902  0.4120124274573506
  0.6281372262848196  0.1352300426173081  0.0879876042042525
  0.2450761287379093  0.8766977696700572  0.5840116193304855
  0.7549241876793052  0.3766975459354380  0.9159882859580722
  0.7549239585289552  0.1233024070837809  0.4159880074053204
  0.2450761364407658  0.6233022243617782  0.0840117874897225
  0.2534936985969953  0.3804881065813902  0.5776348619825760
  0.7465064290752756  0.8804877441212442  0.9223654860779958
  0.7465059224342914  0.6195124442247878  0.4223655264782294
  0.2534939873302747  0.1195118976293950  0.0776350016391588
 
  0.00000000E+00  0.00000000E+00  0.00000000E+00
  0.00000000E+00  0.00000000E+00  0.00000000E+00
  0.00000000E+00  0.00000000E+00  0.00000000E+00
  0.00000000E+00  0.00000000E+00  0.00000000E+00
  0.00000000E+00  0.00000000E+00  0.00000000E+00
  0.00000000E+00  0.00000000E+00  0.00000000E+00
  0.00000000E+00  0.00000000E+00  0.00000000E+00
  0.00000000E+00  0.00000000E+00  0.00000000E+00
  0.00000000E+00  0.00000000E+00  0.00000000E+00
  0.00000000E+00  0.00000000E+00  0.00000000E+00
  0.00000000E+00  0.00000000E+00  0.00000000E+00
  0.00000000E+00  0.00000000E+00  0.00000000E+00
  0.00000000E+00  0.00000000E+00  0.00000000E+00
  0.00000000E+00  0.00000000E+00  0.00000000E+00
  0.00000000E+00  0.00000000E+00  0.00000000E+00
  0.00000000E+00  0.00000000E+00  0.00000000E+00
  0.00000000E+00  0.00000000E+00  0.00000000E+00
  0.00000000E+00  0.00000000E+00  0.00000000E+00
  0.00000000E+00  0.00000000E+00  0.00000000E+00
  0.00000000E+00  0.00000000E+00  0.00000000E+00
