K6 Ca6 Ga6 P12                          
   1.00000000000000     
    -3.4165697677955436   -7.2452170869894976    0.2373431642193800
    -3.4166577820264226    7.2452687677732603    0.2375564200378048
     0.6966865784597314   -0.0002395181978392  -15.3747971883649601
   Ga   K    P    Ca
     6     6    12     6
Direct
  0.8568017199936802  0.5397374502406406  0.1764411242859893
  0.5397431228913944  0.8568039126629018  0.1764391078513236
  0.1431632035307635  0.4602251653731282  0.8235546717038696
  0.4602171781655640  0.1431561940953907  0.8235603227434992
  0.4008988121923612  0.4008950070012404  0.5885755811633474
  0.5990981584258943  0.5991072393585525  0.4114365506465256
  0.1051969102162634  0.4282764961018454  0.3026550705739038
  0.4283285797189016  0.1052654370171882  0.3026695180429766
  0.8948135988527476  0.5717418416273997  0.6973668440538502
  0.5717325887474084  0.8948095476180772  0.6973572909832194
  0.3541980183047084  0.3541964537780489  0.0911699165187326
  0.6459129662570191  0.6459014453934689  0.9087684721446193
  0.8591311620128219  0.5780556161253280  0.3476966874599622
  0.5780357063590664  0.8591271251479176  0.3476991054013615
  0.1408741645501258  0.4219617976940876  0.6523055870042784
  0.4219787488523669  0.1408815211389122  0.6522957235590220
  0.1594351271693672  0.5781539332779237  0.1234307178760417
  0.5781467358201403  0.1594357561901016  0.1234338716924906
  0.8405326690888330  0.4217846784708038  0.8765716372407535
  0.4217944250861625  0.8405299864728334  0.8765692264456764
  0.2557709596167206  0.2557877515795163  0.4374883820568983
  0.7442221450471422  0.7442128603934314  0.5625217474808338
  0.8261005077704722  0.8261019068071924  0.1180516356205004
  0.1739042969109168  0.1738945367076959  0.8819344431516952
  0.9352193425329746  0.9352215255242885  0.2942381237529267
  0.0647911303258995  0.0647866487754010  0.7057534603161432
  0.8578560416086308  0.1421129193973886  0.5000103325959276
  0.1421388662450507  0.8578789518147685  0.4999954798467029
  0.8338376923585388  0.1661214299970311  0.0000031957795146
  0.1661254213480569  0.8338348642175029  0.0000061720074138
 
  0.00000000E+00  0.00000000E+00  0.00000000E+00
  0.00000000E+00  0.00000000E+00  0.00000000E+00
  0.00000000E+00  0.00000000E+00  0.00000000E+00
  0.00000000E+00  0.00000000E+00  0.00000000E+00
  0.00000000E+00  0.00000000E+00  0.00000000E+00
  0.00000000E+00  0.00000000E+00  0.00000000E+00
  0.00000000E+00  0.00000000E+00  0.00000000E+00
  0.00000000E+00  0.00000000E+00  0.00000000E+00
  0.00000000E+00  0.00000000E+00  0.00000000E+00
  0.00000000E+00  0.00000000E+00  0.00000000E+00
  0.00000000E+00  0.00000000E+00  0.00000000E+00
  0.00000000E+00  0.00000000E+00  0.00000000E+00
  0.00000000E+00  0.00000000E+00  0.00000000E+00
  0.00000000E+00  0.00000000E+00  0.00000000E+00
  0.00000000E+00  0.00000000E+00  0.00000000E+00
  0.00000000E+00  0.00000000E+00  0.00000000E+00
  0.00000000E+00  0.00000000E+00  0.00000000E+00
  0.00000000E+00  0.00000000E+00  0.00000000E+00
  0.00000000E+00  0.00000000E+00  0.00000000E+00
  0.00000000E+00  0.00000000E+00  0.00000000E+00
  0.00000000E+00  0.00000000E+00  0.00000000E+00
  0.00000000E+00  0.00000000E+00  0.00000000E+00
  0.00000000E+00  0.00000000E+00  0.00000000E+00
  0.00000000E+00  0.00000000E+00  0.00000000E+00
  0.00000000E+00  0.00000000E+00  0.00000000E+00
  0.00000000E+00  0.00000000E+00  0.00000000E+00
  0.00000000E+00  0.00000000E+00  0.00000000E+00
  0.00000000E+00  0.00000000E+00  0.00000000E+00
  0.00000000E+00  0.00000000E+00  0.00000000E+00
  0.00000000E+00  0.00000000E+00  0.00000000E+00
