Li4 Ca4 Al4 N8                          
   1.00000000000000     
     5.7509503601782725   -0.0000000014183441   -0.0237297458263913
    -0.0000000011476146    6.8413445020730830    0.0000000049807375
     0.0043350641976915    0.0000000050624845    5.7798510410622859
   Li   Ca   Al   N 
     4     4     4     8
Direct
  0.3682894111770949  0.4012782663740708  0.9085571693251637
  0.6317106092821874  0.9012784515330665  0.5914428400504619
  0.6317106101982262  0.5987215468117810  0.0914428511326477
  0.3682894119380578  0.0987217328871708  0.4085571717552341
  0.0283508590255295  0.1283379589885101  0.7408652509954123
  0.9716491045975530  0.6283379946710426  0.7591348037735983
  0.9716491095947006  0.8716620064051170  0.2591348060226011
  0.0283508547050388  0.3716620423361405  0.2408652519817949
  0.6203765309756264  0.3603114559981577  0.5733991889905141
  0.3796233894746948  0.8603115304475466  0.9266008077001402
  0.3796233941909151  0.6396884697969440  0.4266008097733405
  0.6203765297193371  0.1396885465585527  0.0733991899746655
  0.2693357759958417  0.8525918835683655  0.6075575950109879
  0.7306640937074391  0.3525915989639543  0.8924423841183469
  0.7306640925812786  0.1474083994864230  0.3924423853219139
  0.2693357755980159  0.6474081157980081  0.1075575970660623
  0.2888815785375982  0.3934374085522023  0.5652683316352451
  0.7111186457427507  0.8934373498930128  0.9347316145062692
  0.7111186425918419  0.6065626522172280  0.4347316164437629
  0.2888815803662581  0.1065625887127197  0.0652683344218374
 
  0.00000000E+00  0.00000000E+00  0.00000000E+00
  0.00000000E+00  0.00000000E+00  0.00000000E+00
  0.00000000E+00  0.00000000E+00  0.00000000E+00
  0.00000000E+00  0.00000000E+00  0.00000000E+00
  0.00000000E+00  0.00000000E+00  0.00000000E+00
  0.00000000E+00  0.00000000E+00  0.00000000E+00
  0.00000000E+00  0.00000000E+00  0.00000000E+00
  0.00000000E+00  0.00000000E+00  0.00000000E+00
  0.00000000E+00  0.00000000E+00  0.00000000E+00
  0.00000000E+00  0.00000000E+00  0.00000000E+00
  0.00000000E+00  0.00000000E+00  0.00000000E+00
  0.00000000E+00  0.00000000E+00  0.00000000E+00
  0.00000000E+00  0.00000000E+00  0.00000000E+00
  0.00000000E+00  0.00000000E+00  0.00000000E+00
  0.00000000E+00  0.00000000E+00  0.00000000E+00
  0.00000000E+00  0.00000000E+00  0.00000000E+00
  0.00000000E+00  0.00000000E+00  0.00000000E+00
  0.00000000E+00  0.00000000E+00  0.00000000E+00
  0.00000000E+00  0.00000000E+00  0.00000000E+00
  0.00000000E+00  0.00000000E+00  0.00000000E+00
