Na4 Sr4 Al4 N8                          
   1.00000000000000     
     6.1600163578976392    0.0000000274373595   -0.1053740945283276
     0.0000000174008438    7.4589788824609542   -0.0000000719361046
    -0.0774071739301746   -0.0000000616372183    6.1087129435436838
   Na   Sr   Al   N 
     4     4     4     8
Direct
  0.3620323607262328  0.4040963700508685  0.9154267437518857
  0.6379641025587744  0.9041030481893456  0.5845701869608204
  0.6379640908362642  0.5958969553097478  0.0845703943427058
  0.3620323402942518  0.0959036544818498  0.4154269383789141
  0.0211579804191456  0.1202252909011918  0.7424037804469457
  0.9788383642004181  0.6202294660334835  0.7576049117677665
  0.9788384364781735  0.8797705521195933  0.2576048903555786
  0.0211580213018425  0.3797746905741616  0.2424037380434087
  0.6199283779161144  0.3640567070499535  0.5616188116196841
  0.3800732592690561  0.8640546435391817  0.9383803715489375
  0.3800732451100705  0.6359453476515416  0.4383804155401655
  0.6199283659110875  0.1359432888199195  0.0616188509498673
  0.2691320433754014  0.8277459224001553  0.6278336000576592
  0.7308686271369038  0.3277436772585813  0.8721645061694192
  0.7308686325758543  0.1722563263172604  0.3721645007161867
  0.2691320641088124  0.6722540635362617  0.1278335917719795
  0.3038440134134858  0.4002791464872557  0.5431459152868441
  0.6961608475566046  0.9002774761900109  0.9568509382424744
  0.6961608240980153  0.5997225358788617  0.4568509660492926
  0.3038440027134985  0.0997208372107668  0.0431459479994788
 
  0.00000000E+00  0.00000000E+00  0.00000000E+00
  0.00000000E+00  0.00000000E+00  0.00000000E+00
  0.00000000E+00  0.00000000E+00  0.00000000E+00
  0.00000000E+00  0.00000000E+00  0.00000000E+00
  0.00000000E+00  0.00000000E+00  0.00000000E+00
  0.00000000E+00  0.00000000E+00  0.00000000E+00
  0.00000000E+00  0.00000000E+00  0.00000000E+00
  0.00000000E+00  0.00000000E+00  0.00000000E+00
  0.00000000E+00  0.00000000E+00  0.00000000E+00
  0.00000000E+00  0.00000000E+00  0.00000000E+00
  0.00000000E+00  0.00000000E+00  0.00000000E+00
  0.00000000E+00  0.00000000E+00  0.00000000E+00
  0.00000000E+00  0.00000000E+00  0.00000000E+00
  0.00000000E+00  0.00000000E+00  0.00000000E+00
  0.00000000E+00  0.00000000E+00  0.00000000E+00
  0.00000000E+00  0.00000000E+00  0.00000000E+00
  0.00000000E+00  0.00000000E+00  0.00000000E+00
  0.00000000E+00  0.00000000E+00  0.00000000E+00
  0.00000000E+00  0.00000000E+00  0.00000000E+00
  0.00000000E+00  0.00000000E+00  0.00000000E+00
