Li8 N4 Mg2                              
   1.00000000000000     
     3.6410605112753083    0.0000961552678540   -0.0003699567525524
     0.0000938097524533    3.6414290222669043   -0.0015191263163506
    -1.8221837753089456   -1.8260273087278214   11.6112655991525990
   Li   N    Mg
     8     4     2
Direct
  0.4329054876579596  0.6750630620495750  0.8584457977221056
  0.6756777654135104  0.4329098868286576  0.3584354290241532
  0.5670292537170659  0.3249912743620983  0.1415462805404738
  0.3242991233849796  0.5670721344094429  0.6415685331720419
  0.9799187772579091  0.2278457503677336  0.9565097813154226
  0.2280211241949555  0.9797082037867088  0.4564621979360415
  0.0202735606940472  0.7721390374737631  0.0434851702291826
  0.7719112755707054  0.0201908747460334  0.5435392714997039
  0.6804494009239177  0.9366152454481907  0.3656998432437653
  0.9366328734494400  0.6803183649101369  0.8657354342892418
  0.3195090172403660  0.0633575954600687  0.6343077074738631
  0.0633487567294722  0.3197032546643689  0.1342674150913498
  0.1192479990084678  0.8808364298859256  0.2499852683496623
  0.8807755847572039  0.1192488856072970  0.7500118701129925
 
  0.00000000E+00  0.00000000E+00  0.00000000E+00
  0.00000000E+00  0.00000000E+00  0.00000000E+00
  0.00000000E+00  0.00000000E+00  0.00000000E+00
  0.00000000E+00  0.00000000E+00  0.00000000E+00
  0.00000000E+00  0.00000000E+00  0.00000000E+00
  0.00000000E+00  0.00000000E+00  0.00000000E+00
  0.00000000E+00  0.00000000E+00  0.00000000E+00
  0.00000000E+00  0.00000000E+00  0.00000000E+00
  0.00000000E+00  0.00000000E+00  0.00000000E+00
  0.00000000E+00  0.00000000E+00  0.00000000E+00
  0.00000000E+00  0.00000000E+00  0.00000000E+00
  0.00000000E+00  0.00000000E+00  0.00000000E+00
  0.00000000E+00  0.00000000E+00  0.00000000E+00
  0.00000000E+00  0.00000000E+00  0.00000000E+00
