Na6 Sr6 Al6 N12                         
   1.00000000000000     
    -3.0832100491074290   -5.3564277448513886    0.0749673417947505
    -3.0832100836346643    5.3564277643932385    0.0749674007292660
     0.0051879158211912   -0.0000000668399498  -12.8514174047976706
   Al   Na   N    Sr
     6     6    12     6
Direct
  0.8203799148082248  0.4958960475706753  0.1863619281371056
  0.4958960330994452  0.8203799080239814  0.1863619302053930
  0.1796199782850805  0.5041023406385132  0.8136380843914410
  0.5041023470756576  0.1796199802572682  0.8136380841413802
  0.3904507635504197  0.3904507674039119  0.5860783287341577
  0.6095509807440700  0.6095509841227242  0.4139222412583025
  0.1750213825435126  0.5159891540058313  0.3245485082980467
  0.5159891897435920  0.1750213827708356  0.3245484976136362
  0.8249781717320566  0.4840088857291279  0.6754516317032889
  0.4840088628415385  0.8249781678042625  0.6754516342124802
  0.3783295079594649  0.3783295104830255  0.0750215378475768
  0.6216701352401272  0.6216701362668636  0.9249792520965497
  0.8489192969333016  0.5698788360017205  0.3395489466465271
  0.5698788171143889  0.8489192877496633  0.3395489497183106
  0.1510786365292170  0.4301194955464600  0.6604497913822791
  0.4301195116101266  0.1510786454349335  0.6604497844419382
  0.1507941963051783  0.5585221995304500  0.1477568156275912
  0.5585221960604100  0.1507941924096152  0.1477568125486273
  0.8492050932534492  0.4414763004077897  0.8522425874646247
  0.4414763062740770  0.8492050942606854  0.8522425822228648
  0.2920847494202067  0.2920847503755208  0.4420704754166107
  0.7079177977953244  0.7079178025863732  0.5579311812675046
  0.7474016288151077  0.7474016303552820  0.1188139652595142
  0.2526000985394772  0.2526000972092924  0.8811857250588651
  0.0132913758540914  0.0132913747580583  0.2627434875044353
  0.9866988527805542  0.9866988644687114  0.7372560570571048
  0.8302328220291727  0.1697801666596470  0.5000005574606139
  0.1697801837733878  0.8302328421325816  0.5000005424690315
  0.8351055796066723  0.1648956020664905  0.0000000427463074
  0.1648955896826816  0.8351055529697049  0.0000000370678982
 
  0.00000000E+00  0.00000000E+00  0.00000000E+00
  0.00000000E+00  0.00000000E+00  0.00000000E+00
  0.00000000E+00  0.00000000E+00  0.00000000E+00
  0.00000000E+00  0.00000000E+00  0.00000000E+00
  0.00000000E+00  0.00000000E+00  0.00000000E+00
  0.00000000E+00  0.00000000E+00  0.00000000E+00
  0.00000000E+00  0.00000000E+00  0.00000000E+00
  0.00000000E+00  0.00000000E+00  0.00000000E+00
  0.00000000E+00  0.00000000E+00  0.00000000E+00
  0.00000000E+00  0.00000000E+00  0.00000000E+00
  0.00000000E+00  0.00000000E+00  0.00000000E+00
  0.00000000E+00  0.00000000E+00  0.00000000E+00
  0.00000000E+00  0.00000000E+00  0.00000000E+00
  0.00000000E+00  0.00000000E+00  0.00000000E+00
  0.00000000E+00  0.00000000E+00  0.00000000E+00
  0.00000000E+00  0.00000000E+00  0.00000000E+00
  0.00000000E+00  0.00000000E+00  0.00000000E+00
  0.00000000E+00  0.00000000E+00  0.00000000E+00
  0.00000000E+00  0.00000000E+00  0.00000000E+00
  0.00000000E+00  0.00000000E+00  0.00000000E+00
  0.00000000E+00  0.00000000E+00  0.00000000E+00
  0.00000000E+00  0.00000000E+00  0.00000000E+00
  0.00000000E+00  0.00000000E+00  0.00000000E+00
  0.00000000E+00  0.00000000E+00  0.00000000E+00
  0.00000000E+00  0.00000000E+00  0.00000000E+00
  0.00000000E+00  0.00000000E+00  0.00000000E+00
  0.00000000E+00  0.00000000E+00  0.00000000E+00
  0.00000000E+00  0.00000000E+00  0.00000000E+00
  0.00000000E+00  0.00000000E+00  0.00000000E+00
  0.00000000E+00  0.00000000E+00  0.00000000E+00
