Li4 Ca4 In4 N8                          
   1.00000000000000     
     6.1081501456475111    0.0000001293404242   -0.0007931367461016
     0.0000000914394665    7.1515810347691593   -0.0000000661796355
     0.0302302307398308   -0.0000000646431322    6.1625911848250867
   Li   Ca   In   N 
     4     4     4     8
Direct
  0.3370783244232941  0.3960101022794350  0.9151915682702652
  0.6629187106243815  0.8960129658181150  0.5848062098665637
  0.6629187675009118  0.6039870384821521  0.0848062081904686
  0.3370783777872727  0.1039898859208104  0.4151915689707263
  0.0222213739974772  0.1285205137423501  0.7495603061890781
  0.9777778214128543  0.6285221808160805  0.7504406582753911
  0.9777777997855417  0.8714778332446137  0.2504406800762034
  0.0222213518928230  0.3714794696493907  0.2495603016944778
  0.6235549831450053  0.3542454784903747  0.5927891486011234
  0.3764450995208297  0.8542457175366737  0.9072118734268240
  0.3764451113449345  0.6457542770693361  0.4072118459512725
  0.6235549958215310  0.1457545376890783  0.0927890755218704
  0.2335895884628682  0.8759430677808084  0.5836068108481303
  0.7664137998645510  0.3759415591167213  0.9163931983668905
  0.7664137594388942  0.1240584489474264  0.4163931890663158
  0.2335895558930193  0.6240569143612716  0.0836067813720306
  0.2623918748454286  0.3804634474310309  0.5789877146502445
  0.7376084226248554  0.8804639314216446  0.9210125797469738
  0.7376084103858100  0.6195360751585369  0.4210125710871541
  0.2623918712277304  0.1195365550441425  0.0789877098279749
 
  0.00000000E+00  0.00000000E+00  0.00000000E+00
  0.00000000E+00  0.00000000E+00  0.00000000E+00
  0.00000000E+00  0.00000000E+00  0.00000000E+00
  0.00000000E+00  0.00000000E+00  0.00000000E+00
  0.00000000E+00  0.00000000E+00  0.00000000E+00
  0.00000000E+00  0.00000000E+00  0.00000000E+00
  0.00000000E+00  0.00000000E+00  0.00000000E+00
  0.00000000E+00  0.00000000E+00  0.00000000E+00
  0.00000000E+00  0.00000000E+00  0.00000000E+00
  0.00000000E+00  0.00000000E+00  0.00000000E+00
  0.00000000E+00  0.00000000E+00  0.00000000E+00
  0.00000000E+00  0.00000000E+00  0.00000000E+00
  0.00000000E+00  0.00000000E+00  0.00000000E+00
  0.00000000E+00  0.00000000E+00  0.00000000E+00
  0.00000000E+00  0.00000000E+00  0.00000000E+00
  0.00000000E+00  0.00000000E+00  0.00000000E+00
  0.00000000E+00  0.00000000E+00  0.00000000E+00
  0.00000000E+00  0.00000000E+00  0.00000000E+00
  0.00000000E+00  0.00000000E+00  0.00000000E+00
  0.00000000E+00  0.00000000E+00  0.00000000E+00
