Li12 Sr3 P6                             
   1.00000000000000     
     4.1283596518949093   -0.1414186782640401   -1.1169292428572322
    -2.0856699419759273    3.7354354851259637    0.0163632954576879
    -6.1626661422381872   -3.5478893700873178   26.8551704530348196
   Li   Sr   P 
    12     3     6
Direct
 -0.1134936999823653 -0.0558490663966335  0.8043866827758522
  0.1150132091716624  0.0566007906523636  0.1956013263237956
  0.5498386828289551  0.2746213316900448  0.1375813763384755
  0.7824883857573239  0.3913401440584036  0.5290271681711773
  0.2150888887342166  0.6081410071646052  0.4709130372459722
  0.4518853371319508  0.7262171938665282  0.8624150525921325
  0.2806941159928212  0.1402380712405309  0.5701334622745073
 -0.2831625087827814 -0.1413830115543258  0.4297858140827591
  0.9488947194761804  0.4744417350278188  0.9035522606976231
  0.3887595707286725  0.1950272464494136  0.7633290068172299
  0.6119948837735788  0.8047493860682043  0.2366502773306873
  0.0526143148617865  0.5260034472074100  0.0965104391641870
  0.0004860635641363  0.0002883084375399  0.0000259411270550
  0.6640190918987255  0.3318077826407576  0.3332479070690519
  0.3345458891233197  0.6677798436432304  0.6667233846140077
  0.3177378059846392  0.1590055068675096  0.9124628031403550
 -0.3161572913225008 -0.1583087362436465  0.0876229801271529
  0.9810013806764617  0.4894526090179506  0.2456013174788909
  0.3482671757299347  0.1742045937323919  0.4209514635814071
  0.6496126140416991  0.8249866349705299  0.5790271951787722
  0.0198713706115823  0.5106351814593734  0.7544511038689078
 
  0.00000000E+00  0.00000000E+00  0.00000000E+00
  0.00000000E+00  0.00000000E+00  0.00000000E+00
  0.00000000E+00  0.00000000E+00  0.00000000E+00
  0.00000000E+00  0.00000000E+00  0.00000000E+00
  0.00000000E+00  0.00000000E+00  0.00000000E+00
  0.00000000E+00  0.00000000E+00  0.00000000E+00
  0.00000000E+00  0.00000000E+00  0.00000000E+00
  0.00000000E+00  0.00000000E+00  0.00000000E+00
  0.00000000E+00  0.00000000E+00  0.00000000E+00
  0.00000000E+00  0.00000000E+00  0.00000000E+00
  0.00000000E+00  0.00000000E+00  0.00000000E+00
  0.00000000E+00  0.00000000E+00  0.00000000E+00
  0.00000000E+00  0.00000000E+00  0.00000000E+00
  0.00000000E+00  0.00000000E+00  0.00000000E+00
  0.00000000E+00  0.00000000E+00  0.00000000E+00
  0.00000000E+00  0.00000000E+00  0.00000000E+00
  0.00000000E+00  0.00000000E+00  0.00000000E+00
  0.00000000E+00  0.00000000E+00  0.00000000E+00
  0.00000000E+00  0.00000000E+00  0.00000000E+00
  0.00000000E+00  0.00000000E+00  0.00000000E+00
  0.00000000E+00  0.00000000E+00  0.00000000E+00
