Li4 Mg4 In4 P8                          
   1.00000000000000     
     6.6342850002713005    0.0000464183229916    0.1650578085460025
     0.0000641872054130    8.0640505456287386   -0.0003169232751265
     0.2125322909922605   -0.0002804515276857    7.3370562032395217
   Li   Mg   In   P 
     4     4     4     8
Direct
  0.3374472431675886  0.3856833654832908  0.9160486294293635
  0.6622540515201637  0.8857486202537684  0.5838526802966775
  0.6623409072521692  0.6142122455569773  0.0838350479732241
  0.3377567769866188  0.1142204142696291  0.4161126628661565
  0.0178934710945425  0.1335128861369686  0.7779950912427781
  0.9820656462465802  0.6334975052859434  0.7220105547857478
  0.9820616051356034  0.8665097626302859  0.2219870302842041
  0.0192799881023075  0.3662100460113004  0.2787911856107036
  0.6179764618591510  0.3539880835796033  0.5878274221852406
  0.3819856564049417  0.8539032492418134  0.9119751113505703
  0.3820426328292055  0.6461442225138445  0.4119619078555461
  0.6179604125890225  0.1461112989998735  0.0879455852095595
  0.2279817356242643  0.8764501057527766  0.6076686637441128
  0.7715830939948484  0.3764075299256375  0.8921444846303416
  0.7717092808744733  0.1236317671075864  0.3922604506378271
  0.2280222136064155  0.6236091297792986  0.1076510580060124
  0.2296227259763281  0.3815471140979323  0.5837140737795238
  0.7702005180363883  0.8814587846440466  0.9163136859336383
  0.7702634729100937  0.6186089179165686  0.4162829752431776
  0.2295521057892936  0.1185449508128622  0.0836216989355878
 
  0.00000000E+00  0.00000000E+00  0.00000000E+00
  0.00000000E+00  0.00000000E+00  0.00000000E+00
  0.00000000E+00  0.00000000E+00  0.00000000E+00
  0.00000000E+00  0.00000000E+00  0.00000000E+00
  0.00000000E+00  0.00000000E+00  0.00000000E+00
  0.00000000E+00  0.00000000E+00  0.00000000E+00
  0.00000000E+00  0.00000000E+00  0.00000000E+00
  0.00000000E+00  0.00000000E+00  0.00000000E+00
  0.00000000E+00  0.00000000E+00  0.00000000E+00
  0.00000000E+00  0.00000000E+00  0.00000000E+00
  0.00000000E+00  0.00000000E+00  0.00000000E+00
  0.00000000E+00  0.00000000E+00  0.00000000E+00
  0.00000000E+00  0.00000000E+00  0.00000000E+00
  0.00000000E+00  0.00000000E+00  0.00000000E+00
  0.00000000E+00  0.00000000E+00  0.00000000E+00
  0.00000000E+00  0.00000000E+00  0.00000000E+00
  0.00000000E+00  0.00000000E+00  0.00000000E+00
  0.00000000E+00  0.00000000E+00  0.00000000E+00
  0.00000000E+00  0.00000000E+00  0.00000000E+00
  0.00000000E+00  0.00000000E+00  0.00000000E+00
