Li6 Ca6 Ga6 N12                         
   1.00000000000000     
    -2.9124195230569305   -5.0797654207585889    0.0767228619950330
    -2.9124109467910171    5.0797601012030960    0.0767103716601940
     0.0358110127975588    0.0000150351140210  -12.0322091110689957
   Ga   Li   N    Ca
     6     6    12     6
Direct
  0.8129416647861419  0.4871831898273100  0.1845521284705551
  0.4871835575027870  0.8129411865050705  0.1845511164844271
  0.1870502950116311  0.5128102829436184  0.8154499108903122
  0.5128087155702410  0.1870508325311785  0.8154489031776005
  0.3846428760772167  0.3846234527137423  0.5868765872060564
  0.6153790417531516  0.6153709940109806  0.4131156177034331
  0.1868847220183750  0.5397088108721269  0.3231878646740816
  0.5397080462789416  0.1868856793030963  0.3231878621683752
  0.8131081699804319  0.4602884523730538  0.6768153307764149
  0.4602910039596327  0.8131119895286643  0.6768157070127472
  0.3882209279090091  0.3882192262975989  0.0727099624057554
  0.6117830809210660  0.6117849057484697  0.9272877100536583
  0.8741042874717944  0.5567039142014822  0.3467872639477105
  0.5567026898225478  0.8741098722612974  0.3467863446462417
  0.1258803245047152  0.4433069153802177  0.6532144942765680
  0.4433032438093854  0.1258943683196207  0.6532119456100977
  0.1403273204990796  0.4906198364106290  0.1442401938161371
  0.4906210149227804  0.1403245981365276  0.1442399228871184
  0.8596782394156730  0.5093727614301394  0.8557615164908272
  0.5093711484367284  0.8596764850333604  0.8557622800625960
  0.2701303648653515  0.2701313106546806  0.4249049138700009
  0.7298725251276424  0.7298733028094352  0.5750952980144910
  0.7589758663062566  0.7589747589443264  0.1050162261141381
  0.2410319295114030  0.2410332792576731  0.8949800354610637
  0.0461798620808148  0.0461794589262836  0.2536217120952304
  0.9538240957026682  0.9538234060098827  0.7463752951712933
  0.8308527729699728  0.1691430606587191  0.5000019162759175
  0.1691423184863230  0.8308560546967605  0.5000026711591419
  0.8373390262365544  0.1626604353260401 -0.0000003795765185
  0.1626608680616980  0.8373371788880063 -0.0000003513454646
 
  0.00000000E+00  0.00000000E+00  0.00000000E+00
  0.00000000E+00  0.00000000E+00  0.00000000E+00
  0.00000000E+00  0.00000000E+00  0.00000000E+00
  0.00000000E+00  0.00000000E+00  0.00000000E+00
  0.00000000E+00  0.00000000E+00  0.00000000E+00
  0.00000000E+00  0.00000000E+00  0.00000000E+00
  0.00000000E+00  0.00000000E+00  0.00000000E+00
  0.00000000E+00  0.00000000E+00  0.00000000E+00
  0.00000000E+00  0.00000000E+00  0.00000000E+00
  0.00000000E+00  0.00000000E+00  0.00000000E+00
  0.00000000E+00  0.00000000E+00  0.00000000E+00
  0.00000000E+00  0.00000000E+00  0.00000000E+00
  0.00000000E+00  0.00000000E+00  0.00000000E+00
  0.00000000E+00  0.00000000E+00  0.00000000E+00
  0.00000000E+00  0.00000000E+00  0.00000000E+00
  0.00000000E+00  0.00000000E+00  0.00000000E+00
  0.00000000E+00  0.00000000E+00  0.00000000E+00
  0.00000000E+00  0.00000000E+00  0.00000000E+00
  0.00000000E+00  0.00000000E+00  0.00000000E+00
  0.00000000E+00  0.00000000E+00  0.00000000E+00
  0.00000000E+00  0.00000000E+00  0.00000000E+00
  0.00000000E+00  0.00000000E+00  0.00000000E+00
  0.00000000E+00  0.00000000E+00  0.00000000E+00
  0.00000000E+00  0.00000000E+00  0.00000000E+00
  0.00000000E+00  0.00000000E+00  0.00000000E+00
  0.00000000E+00  0.00000000E+00  0.00000000E+00
  0.00000000E+00  0.00000000E+00  0.00000000E+00
  0.00000000E+00  0.00000000E+00  0.00000000E+00
  0.00000000E+00  0.00000000E+00  0.00000000E+00
  0.00000000E+00  0.00000000E+00  0.00000000E+00
