Li6 Zn6 In6 P12                         
   1.00000000000000     
    -3.3522621981997540   -6.6491223086150679    0.5033439148227813
    -3.3538003689932396    6.6511871782080494    0.5197769959200242
     1.7363372824994336   -0.0171869618362251  -13.6964350698566122
   In   Li   P    Zn
     6     6    12     6
Direct
  0.8109842018025777  0.4894665830892587  0.1912511894894272
  0.4912979215939304  0.8101212049391922  0.1914940861552704
  0.1890770469101316  0.5104679269703556  0.8087236399911433
  0.5087244723002686  0.1899100083464329  0.8084873226019916
  0.4270333427397457  0.4275194530992268  0.5924634359791046
  0.5729562363209385  0.5725230755334044  0.4074943043983735
  0.1335922078585135  0.4659073433602957  0.3505054938830530
  0.4648786987929866  0.1318197857336185  0.3499757504969988
  0.8664910994671708  0.5341834049148482  0.6495592963571311
  0.5351770618687967  0.8683148119758211  0.6500836823856969
  0.3772474709919788  0.3750840050125254  0.0702393203822677
  0.6229244435827689  0.6250512365525237  0.9298163849044416
  0.8623980712451633  0.5244009284441082  0.3795765323582475
  0.5277919909876181  0.8638538766942264  0.3801499805784498
  0.1374061441256405  0.4754017591233609  0.6204041374152930
  0.4720392471287841  0.1360429476887218  0.6198340536414348
  0.0907232345399196  0.3991686003641941  0.1482561879024414
  0.3999524183663162  0.0886292367098787  0.1482337162988351
  0.9093146514081147  0.6008362298699488  0.8517012527692392
  0.6000875684436775  0.9113933185236339  0.8517401337388277
  0.1771782813992411  0.1771727448132822  0.3977288450448201
  0.8227565806677023  0.8227799983349089  0.6022701522464320
  0.7753758275151658  0.7726130635722714  0.1131927412994627
  0.2247416576627416  0.2274532467914457  0.8868469086614763
  0.1146716258191204  0.1139384801147823  0.2195624867183521
  0.8853293998634164  0.8860947967162625  0.7804555136699670
  0.8808531375359873  0.1201346909813753  0.5011656409739482
  0.1189989269377814  0.8797540045108503  0.4988133204676914
  0.8756581660644701  0.1338168141739868  0.9983322030373017
  0.1243388660593248  0.8661464230452586  0.0016422861528953
 
  0.00000000E+00  0.00000000E+00  0.00000000E+00
  0.00000000E+00  0.00000000E+00  0.00000000E+00
  0.00000000E+00  0.00000000E+00  0.00000000E+00
  0.00000000E+00  0.00000000E+00  0.00000000E+00
  0.00000000E+00  0.00000000E+00  0.00000000E+00
  0.00000000E+00  0.00000000E+00  0.00000000E+00
  0.00000000E+00  0.00000000E+00  0.00000000E+00
  0.00000000E+00  0.00000000E+00  0.00000000E+00
  0.00000000E+00  0.00000000E+00  0.00000000E+00
  0.00000000E+00  0.00000000E+00  0.00000000E+00
  0.00000000E+00  0.00000000E+00  0.00000000E+00
  0.00000000E+00  0.00000000E+00  0.00000000E+00
  0.00000000E+00  0.00000000E+00  0.00000000E+00
  0.00000000E+00  0.00000000E+00  0.00000000E+00
  0.00000000E+00  0.00000000E+00  0.00000000E+00
  0.00000000E+00  0.00000000E+00  0.00000000E+00
  0.00000000E+00  0.00000000E+00  0.00000000E+00
  0.00000000E+00  0.00000000E+00  0.00000000E+00
  0.00000000E+00  0.00000000E+00  0.00000000E+00
  0.00000000E+00  0.00000000E+00  0.00000000E+00
  0.00000000E+00  0.00000000E+00  0.00000000E+00
  0.00000000E+00  0.00000000E+00  0.00000000E+00
  0.00000000E+00  0.00000000E+00  0.00000000E+00
  0.00000000E+00  0.00000000E+00  0.00000000E+00
  0.00000000E+00  0.00000000E+00  0.00000000E+00
  0.00000000E+00  0.00000000E+00  0.00000000E+00
  0.00000000E+00  0.00000000E+00  0.00000000E+00
  0.00000000E+00  0.00000000E+00  0.00000000E+00
  0.00000000E+00  0.00000000E+00  0.00000000E+00
  0.00000000E+00  0.00000000E+00  0.00000000E+00
