K6 Mg6 Ga6 N12                          
   1.00000000000000     
    -2.7711639530379175   -6.5028300255851006    0.3562215014226414
    -2.7737315975794612    6.5040701785471642    0.3588618510127834
     1.1947440054856853   -0.0027422101458086  -12.3582697839958620
   Ga   K    N    Mg
     6     6    12     6
Direct
  0.8159354355318555  0.5199540090198894  0.1768732275264004
  0.5198539273242831  0.8158054660572142  0.1768907081565700
  0.1840403051570374  0.4800500267923397  0.8231015236448215
  0.4801510347142731  0.1841735416868258  0.8230886068287229
  0.4212065119847161  0.4211756170430222  0.5930339060580972
  0.5787753945274617  0.5788034295033555  0.4069629049853222
  0.0746043409300203  0.4359692651901684  0.3213889586419357
  0.4360237245303515  0.0748344384311168  0.3214078364445744
  0.9254132923125957  0.5640513866070646  0.6785857032061843
  0.5639570893788065  0.9251284684603831  0.6785843518460363
  0.2497343784050160  0.2498087472477437  0.0808752532643319
  0.7503115671417584  0.7502387299015585  0.9191334669005279
  0.8606070606144319  0.6178558048985581  0.3506389672466653
  0.6175503194243226  0.8605150412022160  0.3507552411257904
  0.1393538736152028  0.3820449542393129  0.6493753128962138
  0.3824512709884474  0.1395020073286022  0.6492352489424321
  0.1294777728815607  0.5620441358750203  0.1246262626280496
  0.5620226747286152  0.1296489369004293  0.1246176232156072
  0.8704037953965194  0.4379094660704069  0.8753541686962428
  0.4379451514688129  0.8702939446778771  0.8753821378683431
  0.2409428996186284  0.2410605421036737  0.4330979508487094
  0.7590741817114044  0.7589462952832747  0.5668847970239348
  0.7680414836100741  0.7681421191665881  0.1393905766723002
  0.2320203172179854  0.2319311158374424  0.8606549399638455
  0.9302973132740484  0.9305404950875706  0.3012787461678936
  0.0697075656480788  0.0694749846591182  0.6987460920165675
  0.8916759638085672  0.1082834390805571  0.5000252111320689
  0.1083652315562358  0.8917547216502073  0.4999798777512471
  0.7774719399244764  0.2223104568069753 -0.0000980712349297
  0.2225841825744333  0.7777484131914725  0.0001284695355007
 
  0.00000000E+00  0.00000000E+00  0.00000000E+00
  0.00000000E+00  0.00000000E+00  0.00000000E+00
  0.00000000E+00  0.00000000E+00  0.00000000E+00
  0.00000000E+00  0.00000000E+00  0.00000000E+00
  0.00000000E+00  0.00000000E+00  0.00000000E+00
  0.00000000E+00  0.00000000E+00  0.00000000E+00
  0.00000000E+00  0.00000000E+00  0.00000000E+00
  0.00000000E+00  0.00000000E+00  0.00000000E+00
  0.00000000E+00  0.00000000E+00  0.00000000E+00
  0.00000000E+00  0.00000000E+00  0.00000000E+00
  0.00000000E+00  0.00000000E+00  0.00000000E+00
  0.00000000E+00  0.00000000E+00  0.00000000E+00
  0.00000000E+00  0.00000000E+00  0.00000000E+00
  0.00000000E+00  0.00000000E+00  0.00000000E+00
  0.00000000E+00  0.00000000E+00  0.00000000E+00
  0.00000000E+00  0.00000000E+00  0.00000000E+00
  0.00000000E+00  0.00000000E+00  0.00000000E+00
  0.00000000E+00  0.00000000E+00  0.00000000E+00
  0.00000000E+00  0.00000000E+00  0.00000000E+00
  0.00000000E+00  0.00000000E+00  0.00000000E+00
  0.00000000E+00  0.00000000E+00  0.00000000E+00
  0.00000000E+00  0.00000000E+00  0.00000000E+00
  0.00000000E+00  0.00000000E+00  0.00000000E+00
  0.00000000E+00  0.00000000E+00  0.00000000E+00
  0.00000000E+00  0.00000000E+00  0.00000000E+00
  0.00000000E+00  0.00000000E+00  0.00000000E+00
  0.00000000E+00  0.00000000E+00  0.00000000E+00
  0.00000000E+00  0.00000000E+00  0.00000000E+00
  0.00000000E+00  0.00000000E+00  0.00000000E+00
  0.00000000E+00  0.00000000E+00  0.00000000E+00
