Li6 Ca6 Ga6 P12                         
   1.00000000000000     
    -3.4188467501561308   -6.1548537491212150    0.0234017590467764
    -3.4188461963023040    6.1548535004924654    0.0234012367067129
    -0.2317305313879117    0.0000004232761607  -14.0872180006336141
   Ga   Li   P    Ca
     6     6    12     6
Direct
  0.8079929846405232  0.4841000692387515  0.1852022861153976
  0.4841019458991617  0.8079946727741220  0.1852025560949173
  0.1920050129048564  0.5158972969058593  0.8147973083342702
  0.5158987091530817  0.1920063953170067  0.8147972350788211
  0.3837296926987191  0.3837295378819154  0.5813343418621202
  0.6162705952855999  0.6162702363517146  0.4186658671306335
  0.2036789207561272  0.5253913972555702  0.3238429418050324
  0.5253920776041641  0.2036790511265856  0.3238426890897266
  0.7963233799497772  0.4746087516690043  0.6761571456680473
  0.4746092850570593  0.7963231800001189  0.6761571132519695
  0.3774348632071583  0.3774360879717182  0.0676292263231516
  0.6225627469852999  0.6225632460193139  0.9323705343473123
  0.8829063567927468  0.5642157253441716  0.3499136944316036
  0.5642151930758964  0.8829059179395142  0.3499142732713469
  0.1170961954406258  0.4357854617305306  0.6500861223348811
  0.4357847865651369  0.1170958179954862  0.6500862150436992
  0.1309380501378857  0.4773632580000900  0.1436800433625380
  0.4773620689065783  0.1309373994141617  0.1436799091322923
  0.8690617349664213  0.5226384448070890  0.8563200567827925
  0.5226375383241276  0.8690611611505107  0.8563199320030435
  0.2573796351294371  0.2573793027063560  0.4210071466052393
  0.7426211699419346  0.7426205633936944  0.5789934802990077
  0.7526147723315834  0.7526151884443302  0.1001556699208230
  0.2473833172139969  0.2473835520940446  0.8998447217245112
  0.0173351764144687  0.0173353761312388  0.2544679551604522
  0.9826643674029306  0.9826641476187931  0.7455321096580583
  0.8282534127398902  0.1717474105995025  0.4999998655220469
  0.1717474776000631  0.8282527238472697  0.4999997869588984
  0.8312822102624934  0.1687161733736497 -0.0000001140698023
  0.1687163226122553  0.8312824528978942 -0.0000001132428389
 
  0.00000000E+00  0.00000000E+00  0.00000000E+00
  0.00000000E+00  0.00000000E+00  0.00000000E+00
  0.00000000E+00  0.00000000E+00  0.00000000E+00
  0.00000000E+00  0.00000000E+00  0.00000000E+00
  0.00000000E+00  0.00000000E+00  0.00000000E+00
  0.00000000E+00  0.00000000E+00  0.00000000E+00
  0.00000000E+00  0.00000000E+00  0.00000000E+00
  0.00000000E+00  0.00000000E+00  0.00000000E+00
  0.00000000E+00  0.00000000E+00  0.00000000E+00
  0.00000000E+00  0.00000000E+00  0.00000000E+00
  0.00000000E+00  0.00000000E+00  0.00000000E+00
  0.00000000E+00  0.00000000E+00  0.00000000E+00
  0.00000000E+00  0.00000000E+00  0.00000000E+00
  0.00000000E+00  0.00000000E+00  0.00000000E+00
  0.00000000E+00  0.00000000E+00  0.00000000E+00
  0.00000000E+00  0.00000000E+00  0.00000000E+00
  0.00000000E+00  0.00000000E+00  0.00000000E+00
  0.00000000E+00  0.00000000E+00  0.00000000E+00
  0.00000000E+00  0.00000000E+00  0.00000000E+00
  0.00000000E+00  0.00000000E+00  0.00000000E+00
  0.00000000E+00  0.00000000E+00  0.00000000E+00
  0.00000000E+00  0.00000000E+00  0.00000000E+00
  0.00000000E+00  0.00000000E+00  0.00000000E+00
  0.00000000E+00  0.00000000E+00  0.00000000E+00
  0.00000000E+00  0.00000000E+00  0.00000000E+00
  0.00000000E+00  0.00000000E+00  0.00000000E+00
  0.00000000E+00  0.00000000E+00  0.00000000E+00
  0.00000000E+00  0.00000000E+00  0.00000000E+00
  0.00000000E+00  0.00000000E+00  0.00000000E+00
  0.00000000E+00  0.00000000E+00  0.00000000E+00
