Li8 N4 Sr2                              
   1.00000000000000     
     3.7995419945689486   -0.0004710329948097   -0.0005996916029738
    -0.0004710286225881    3.7995508007516898   -0.0005996706611693
    -1.9016462356685335   -1.9016507844565365   13.4154359134443624
   Li   N    Sr
     8     4     2
Direct
  0.4464728349270288  0.6967968504423396  0.8941508250199561
  0.6967984077135654  0.4464682893565239  0.3941509551086639
  0.5535365021230163  0.3032032371464126  0.1058492416086594
  0.3032045714722997  0.5535316204972602  0.6058489914615848
  0.9788158744119713  0.2288829305821096  0.9579689925122636
  0.2288865690573374  0.9788182361188689  0.4579687100748515
  0.0211791955518237  0.7711170931708864  0.0420310783460778
  0.7711209735911666  0.0211818034044313  0.5420312807351664
  0.6925393975008802  0.9427021463219845  0.3867287313991170
  0.9426957018022719  0.6925416643800091  0.8867288341893058
  0.3074559806046864  0.0572977996870492  0.6132711692656940
  0.0572911526156261  0.3074581786432731  0.1132711616341950
  0.1248402181802959  0.8751612033590135  0.2499999128023376
  0.8751626204480303  0.1248389468898239  0.7500001158421341
 
  0.00000000E+00  0.00000000E+00  0.00000000E+00
  0.00000000E+00  0.00000000E+00  0.00000000E+00
  0.00000000E+00  0.00000000E+00  0.00000000E+00
  0.00000000E+00  0.00000000E+00  0.00000000E+00
  0.00000000E+00  0.00000000E+00  0.00000000E+00
  0.00000000E+00  0.00000000E+00  0.00000000E+00
  0.00000000E+00  0.00000000E+00  0.00000000E+00
  0.00000000E+00  0.00000000E+00  0.00000000E+00
  0.00000000E+00  0.00000000E+00  0.00000000E+00
  0.00000000E+00  0.00000000E+00  0.00000000E+00
  0.00000000E+00  0.00000000E+00  0.00000000E+00
  0.00000000E+00  0.00000000E+00  0.00000000E+00
  0.00000000E+00  0.00000000E+00  0.00000000E+00
  0.00000000E+00  0.00000000E+00  0.00000000E+00
