Li8 N4 Sr2
1.0
   3.8220000000000001   -0.0000000000000000   -0.0000000000000000
   0.0000000000000006    3.8220000000000001    0.0000000000000002
  -1.9110000000000005   -1.9110000000000000   13.5210000000000008
Li N Sr
8 4 2
direct
   0.4461999999999999    0.6961999999999998    0.8923999999999999 Li+
   0.6961999999999999    0.4461999999999997    0.3923999999999999 Li+
   0.5538000000000001    0.3037999999999998    0.1076000000000001 Li+
   0.3038000000000001    0.5538000000000000    0.6076000000000001 Li+
   0.9790000000000000    0.2289999999999996    0.9580000000000000 Li+
   0.2290000000000000    0.9790000000000000    0.4580000000000001 Li+
   0.0209999999999999    0.7709999999999999    0.0419999999999998 Li+
   0.7709999999999999    0.0209999999999997    0.5419999999999998 Li+
   0.6928000000000000    0.9427999999999999    0.3855999999999999 N3-
   0.9428000000000000    0.6927999999999996    0.8855999999999999 N3-
   0.3072000000000000    0.0571999999999999    0.6143999999999999 N3-
   0.0572000000000000    0.3071999999999999    0.1143999999999999 N3-
   0.1250000000000000    0.8750000000000000    0.2500000000000000 Sr2+
   0.8750000000000000    0.1249999999999998    0.7500000000000000 Sr2+
