K4 Ca4 Al4 N8                           
   1.00000000000000     
     6.1304561610128392    0.0000049451156541   -1.0330072725946613
     0.0000046687420221    9.1202779637213194   -0.0000065031020553
    -0.9973737062863383   -0.0000107660787356    5.7748305688563928
   K    Ca   Al   N 
     4     4     4     8
Direct
  0.2827287206808134  0.3709909065967128  0.0180087817177547
  0.7172653937374908  0.8709908457651538  0.4819864262127589
  0.7172802455724155  0.6290170599821854  0.9819967240110474
  0.2827279814161203  0.1290092623934462  0.5180069511878027
  0.8810304568675399  0.1181502577697451  0.8054638374351873
  0.1189612154872437  0.6181516077659448  0.6945314237557151
  0.1189624691773668  0.8818489736885649  0.1945308099571747
  0.8810315009569094  0.3818465216188126  0.3054670776684706
  0.5875538502953533  0.3734764358909382  0.5990471389254408
  0.4124456417498213  0.8734765939076369  0.9009559154909078
  0.4124473944161696  0.6265225019435708  0.4009577335789017
  0.5875542073353304  0.1265233612407250  0.0990438408675611
  0.3284853203286355  0.7930247472273876  0.5808603050071967
  0.6715226350633826  0.2930214108237462  0.9191386908527817
  0.6715215707333724  0.2069765076370512  0.4191390275800396
  0.3284884977954495  0.7069753396748549  0.0808630797792310
  0.2800597938050634  0.4493418080890344  0.4838357893933890
  0.7199358506979637  0.9493427890199483  0.0161634238159405
  0.7199360157733791  0.5506555732562330  0.5161662375034219
  0.2800612381102012  0.0506574957083155 -0.0161632147407240
 
  0.00000000E+00  0.00000000E+00  0.00000000E+00
  0.00000000E+00  0.00000000E+00  0.00000000E+00
  0.00000000E+00  0.00000000E+00  0.00000000E+00
  0.00000000E+00  0.00000000E+00  0.00000000E+00
  0.00000000E+00  0.00000000E+00  0.00000000E+00
  0.00000000E+00  0.00000000E+00  0.00000000E+00
  0.00000000E+00  0.00000000E+00  0.00000000E+00
  0.00000000E+00  0.00000000E+00  0.00000000E+00
  0.00000000E+00  0.00000000E+00  0.00000000E+00
  0.00000000E+00  0.00000000E+00  0.00000000E+00
  0.00000000E+00  0.00000000E+00  0.00000000E+00
  0.00000000E+00  0.00000000E+00  0.00000000E+00
  0.00000000E+00  0.00000000E+00  0.00000000E+00
  0.00000000E+00  0.00000000E+00  0.00000000E+00
  0.00000000E+00  0.00000000E+00  0.00000000E+00
  0.00000000E+00  0.00000000E+00  0.00000000E+00
  0.00000000E+00  0.00000000E+00  0.00000000E+00
  0.00000000E+00  0.00000000E+00  0.00000000E+00
  0.00000000E+00  0.00000000E+00  0.00000000E+00
  0.00000000E+00  0.00000000E+00  0.00000000E+00
