K4 Ca4 Al4 N8
1.0
   5.7586312354837084    0.0000000000000000   -0.0281422051619916
   0.0000000000000011    6.8773000000000000    0.0000000000000004
   0.0000000000000000    0.0000000000000000    5.7960000000000003
K Ca Al N
4 4 4 8
direct
   0.3687000000000000    0.4020000000000000    0.9082000000000000 K
   0.6313000000000000    0.9020000000000000    0.5918000000000000 K
   0.6313000000000000    0.5980000000000000    0.0918000000000000 K
   0.3687000000000000    0.0980000000000000    0.4082000000000000 K
   0.0267800000000000    0.1280700000000000    0.7405500000000000 Ca
   0.9732200000000000    0.6280700000000000    0.7594500000000000 Ca
   0.9732200000000000    0.8719300000000000    0.2594500000000000 Ca
   0.0267800000000000    0.3719300000000000    0.2405500000000000 Ca
   0.6202700000000000    0.3605300000000000    0.5734100000000000 Al
   0.3797300000000000    0.8605300000000000    0.9265900000000000 Al
   0.3797300000000000    0.6394700000000000    0.4265900000000000 Al
   0.6202700000000000    0.1394700000000000    0.0734100000000000 Al
   0.2674000000000000    0.8529000000000000    0.6073000000000000 N
   0.7325999999999999    0.3529000000000000    0.8927000000000000 N
   0.7325999999999999    0.1471000000000000    0.3927000000000000 N
   0.2674000000000000    0.6471000000000000    0.1073000000000000 N
   0.2879000000000000    0.3940000000000000    0.5648000000000000 N
   0.7121000000000000    0.8940000000000000    0.9352000000000000 N
   0.7121000000000000    0.6060000000000000    0.4352000000000000 N
   0.2879000000000000    0.1060000000000000    0.0648000000000000 N
