K4 Sr4 Al4 N8                           
   1.00000000000000     
     6.4597961166128810   -0.0000052587299083   -0.7753069174560159
    -0.0000085071459763    9.0203977862774369   -0.0000113020738341
    -0.7687418456240498   -0.0000066203326746    5.8843009866215672
   K    Sr   Al   N 
     4     4     4     8
Direct
  0.3256729679708896  0.3729849985033651  0.0417351205184551
  0.6743196752554769  0.8729888796691639  0.4582715013637165
  0.6743312497390672  0.6270126321722723  0.9582705513278754
  0.3256757926907429  0.1270128313630941  0.5417239449442693
  0.9014146110275498  0.1112659769906284  0.7789843016170978
  0.0985957320004114  0.6112652829417975  0.7210224476240065
  0.0985927284878270  0.8887326945121011  0.2210194419787202
  0.9014140023358601  0.3887356224468804  0.2789863622570782
  0.5922268668512558  0.3738332279747597  0.5869310466933516
  0.4077728635128040  0.8738347407052321  0.9130673535247291
  0.4077721094219656  0.6261653220163802  0.4130672026117156
  0.5922268522581714  0.1261672773893010  0.0869278091857011
  0.3249048932932759  0.7929542630019296  0.6028850595737355
  0.6750888597405430  0.2929565924814514  0.8971142510537512
  0.6750866132869509  0.2070440834082544  0.3971130436001241
  0.3249067343248290  0.7070457700660776  0.1028855964792862
  0.2992155517505331  0.4416386984010305  0.5053680785366464
  0.7007828549303418  0.9416385726673977  0.9946294112607380
  0.7007829695056159  0.5583614549633477  0.4946301544476425
  0.2992160716158884  0.0583610783255494  0.0053673214013734
 
  0.00000000E+00  0.00000000E+00  0.00000000E+00
  0.00000000E+00  0.00000000E+00  0.00000000E+00
  0.00000000E+00  0.00000000E+00  0.00000000E+00
  0.00000000E+00  0.00000000E+00  0.00000000E+00
  0.00000000E+00  0.00000000E+00  0.00000000E+00
  0.00000000E+00  0.00000000E+00  0.00000000E+00
  0.00000000E+00  0.00000000E+00  0.00000000E+00
  0.00000000E+00  0.00000000E+00  0.00000000E+00
  0.00000000E+00  0.00000000E+00  0.00000000E+00
  0.00000000E+00  0.00000000E+00  0.00000000E+00
  0.00000000E+00  0.00000000E+00  0.00000000E+00
  0.00000000E+00  0.00000000E+00  0.00000000E+00
  0.00000000E+00  0.00000000E+00  0.00000000E+00
  0.00000000E+00  0.00000000E+00  0.00000000E+00
  0.00000000E+00  0.00000000E+00  0.00000000E+00
  0.00000000E+00  0.00000000E+00  0.00000000E+00
  0.00000000E+00  0.00000000E+00  0.00000000E+00
  0.00000000E+00  0.00000000E+00  0.00000000E+00
  0.00000000E+00  0.00000000E+00  0.00000000E+00
  0.00000000E+00  0.00000000E+00  0.00000000E+00
