Li6 Ca6 In6 P12                         
   1.00000000000000     
    -3.5199418639346605   -6.4420652098651772    0.0408203159150431
    -3.5199420748136196    6.4420653441220264    0.0408217457502607
    -0.1687056000898960   -0.0000015719694670  -14.5128452285423144
   In   Li   P    Ca
     6     6    12     6
Direct
  0.8053718273063555  0.4804249832599217  0.1828778637519784
  0.4804249300146793  0.8053717741135162  0.1828777993134769
  0.1946394719503450  0.5195919809971665  0.8171390417664500
  0.5195917730572626  0.1946393796921173  0.8171389006723940
  0.3794884576328417  0.3794885503311446  0.5835417721220836
  0.6204643390360872  0.6204641681528354  0.4164694217420431
  0.2001079003601010  0.5203147389171101  0.3263007287295940
  0.5203150301127911  0.2001078135132328  0.3263007536219318
  0.7998760844735320  0.4796578525838391  0.6736846666855856
  0.4796579598954912  0.7998759396471038  0.6736847296261170
  0.3785783054324762  0.3785780383521562  0.0658849868055377
  0.6214150160285501  0.6214147354551349  0.9340999544406305
  0.8926406084627596  0.5571451216732149  0.3536504080960401
  0.5571450580657180  0.8926407997799051  0.3536503294269260
  0.1073656691997609  0.4428459102086839  0.6463651115713015
  0.4428460798403026  0.1073653127700875  0.6463650400211793
  0.1246113309090289  0.4510326927569124  0.1415459027435633
  0.4510330405103234  0.1246111605048155  0.1415458215777474
  0.8753962221913449  0.5490229145590316  0.8584506769357995
  0.5490233301729217  0.8753966359140245  0.8584506514167008
  0.2432027654255813  0.2432027225491814  0.4141873759689146
  0.7567931519844228  0.7567931130116772  0.5857879478045601
  0.7643820275350124  0.7643820838401453  0.0947129843702079
  0.2355946678428864  0.2355948280878920  0.9052955245876610
  0.0257633029667830  0.0257634420521187  0.2482023971346500
  0.9742651869454877  0.9742651717266472  0.7517766259549267
  0.8358698363662590  0.1641342970931196  0.4999986181150080
  0.1641341828917658  0.8358696813644142  0.4999985924712073
  0.8364982104813493  0.1635051111647430  0.0000077635006616
  0.1635042329077997  0.8364990459281143  0.0000076090251155
 
  0.00000000E+00  0.00000000E+00  0.00000000E+00
  0.00000000E+00  0.00000000E+00  0.00000000E+00
  0.00000000E+00  0.00000000E+00  0.00000000E+00
  0.00000000E+00  0.00000000E+00  0.00000000E+00
  0.00000000E+00  0.00000000E+00  0.00000000E+00
  0.00000000E+00  0.00000000E+00  0.00000000E+00
  0.00000000E+00  0.00000000E+00  0.00000000E+00
  0.00000000E+00  0.00000000E+00  0.00000000E+00
  0.00000000E+00  0.00000000E+00  0.00000000E+00
  0.00000000E+00  0.00000000E+00  0.00000000E+00
  0.00000000E+00  0.00000000E+00  0.00000000E+00
  0.00000000E+00  0.00000000E+00  0.00000000E+00
  0.00000000E+00  0.00000000E+00  0.00000000E+00
  0.00000000E+00  0.00000000E+00  0.00000000E+00
  0.00000000E+00  0.00000000E+00  0.00000000E+00
  0.00000000E+00  0.00000000E+00  0.00000000E+00
  0.00000000E+00  0.00000000E+00  0.00000000E+00
  0.00000000E+00  0.00000000E+00  0.00000000E+00
  0.00000000E+00  0.00000000E+00  0.00000000E+00
  0.00000000E+00  0.00000000E+00  0.00000000E+00
  0.00000000E+00  0.00000000E+00  0.00000000E+00
  0.00000000E+00  0.00000000E+00  0.00000000E+00
  0.00000000E+00  0.00000000E+00  0.00000000E+00
  0.00000000E+00  0.00000000E+00  0.00000000E+00
  0.00000000E+00  0.00000000E+00  0.00000000E+00
  0.00000000E+00  0.00000000E+00  0.00000000E+00
  0.00000000E+00  0.00000000E+00  0.00000000E+00
  0.00000000E+00  0.00000000E+00  0.00000000E+00
  0.00000000E+00  0.00000000E+00  0.00000000E+00
  0.00000000E+00  0.00000000E+00  0.00000000E+00
