K12 Mg3 P6                              
   1.00000000000000     
     5.7051131361453233   -0.0009204453743090   -0.0002844340669616
    -2.8533537180434321    4.9402810897757439    0.0002417794281285
    -0.0012189673513188    0.0004774698720665   27.0137301579205129
   K    Mg   P 
    12     3     6
Direct
  0.0000251708056325 -0.0000003491981541  0.7916217007980266
  0.0000759988364598 -0.0000362573965536  0.2083708098002322
  0.6667084329005906  0.3333024473942353  0.1248811361182686
  0.6667007461677511  0.3333011712768035  0.5417259685219901
  0.3333573783224534  0.6666327347172910  0.4582693008575817
  0.3333480760870298  0.6666258130424997  0.8751172895173001
  0.0000429438309879 -0.0000501126401460  0.6010229980903653
  0.0000134671261523 -0.0000329341480101  0.3989881242810864
  0.6667002495952012  0.3332913243705868  0.9343077911633708
  0.6666956707072158  0.3333338539129496  0.7333430510470578
  0.3333762113812291  0.6666270372487600  0.2666549564418626
  0.3332835491384613  0.6666936086136023  0.0656926775798846
 -0.0005224767588425  0.0005290787204032  0.0000012660912926
  0.6666667403794609  0.3333335023759916  0.3330272266059347
  0.3333346190458174  0.6666654475574418  0.6669725191817024
  0.9999889869911682  0.9999626766149267  0.9120334533759743
  0.9999649286057262  0.9999337165915665  0.0879718882140361
  0.6668252442457937  0.3333109589660063  0.2450172744948323
  0.6666602207546310  0.3332664431889077  0.4210595586193508
  0.3333462733981943  0.6665814371028489  0.5789391414596907
  0.3334075684388916  0.6667284016880423  0.7549818677401529
 
  0.00000000E+00  0.00000000E+00  0.00000000E+00
  0.00000000E+00  0.00000000E+00  0.00000000E+00
  0.00000000E+00  0.00000000E+00  0.00000000E+00
  0.00000000E+00  0.00000000E+00  0.00000000E+00
  0.00000000E+00  0.00000000E+00  0.00000000E+00
  0.00000000E+00  0.00000000E+00  0.00000000E+00
  0.00000000E+00  0.00000000E+00  0.00000000E+00
  0.00000000E+00  0.00000000E+00  0.00000000E+00
  0.00000000E+00  0.00000000E+00  0.00000000E+00
  0.00000000E+00  0.00000000E+00  0.00000000E+00
  0.00000000E+00  0.00000000E+00  0.00000000E+00
  0.00000000E+00  0.00000000E+00  0.00000000E+00
  0.00000000E+00  0.00000000E+00  0.00000000E+00
  0.00000000E+00  0.00000000E+00  0.00000000E+00
  0.00000000E+00  0.00000000E+00  0.00000000E+00
  0.00000000E+00  0.00000000E+00  0.00000000E+00
  0.00000000E+00  0.00000000E+00  0.00000000E+00
  0.00000000E+00  0.00000000E+00  0.00000000E+00
  0.00000000E+00  0.00000000E+00  0.00000000E+00
  0.00000000E+00  0.00000000E+00  0.00000000E+00
  0.00000000E+00  0.00000000E+00  0.00000000E+00
