K4 Zn4 Ga4 P8                           
   1.00000000000000     
     6.4999181992871646    0.0002349877296851   -0.9099213525205320
    -0.0003632079148432   10.6733041830442303   -0.0005414385039770
    -0.9540808892738966    0.0001834189068576    6.4855907288969981
   K    Zn   Ga   P 
     4     4     4     8
Direct
  0.2471738375784515  0.3756983205726132 -0.0042217015118378
  0.7528105250722001  0.8756941592693378  0.5042088609580239
  0.7528477670012627  0.6242885433147861  0.0042649705983675
  0.2471608770554921  0.1243005083969232  0.4957309725620152
  0.8908080206206063  0.1245317185296143  0.8484753642210426
  0.1091885313868896  0.6245399558276580  0.6515216727970261
  0.1091181543965909  0.8754600853630843  0.1514623190318012
  0.8908760043591220  0.3754697045135914  0.3485382220588519
  0.6053837026857484  0.3728932833072463  0.6278933503719366
  0.3946181351192382  0.8728887241077433  0.8721204092508167
  0.3945978824180345  0.6270973416286302  0.3720987386955280
  0.6054098301918023  0.1270936506404708  0.1279073865783431
  0.2529811154673918  0.8065598826544937  0.5116034059223038
  0.7470072367719136  0.3065554091387277  0.9883842923876597
  0.7470230974424629  0.1934644289143118  0.4883726006151651
  0.2529759461274754  0.6934608009020752  0.0116228700837366
  0.2482347881462240  0.4442579987692974  0.4948361089391262
  0.7517748929947682  0.9442485078610888  0.0051720105350628
  0.7517874819810397  0.5557469178679582  0.5052665826363857
  0.2482221731832869  0.0557500584203424 -0.0052584367313488
 
  0.00000000E+00  0.00000000E+00  0.00000000E+00
  0.00000000E+00  0.00000000E+00  0.00000000E+00
  0.00000000E+00  0.00000000E+00  0.00000000E+00
  0.00000000E+00  0.00000000E+00  0.00000000E+00
  0.00000000E+00  0.00000000E+00  0.00000000E+00
  0.00000000E+00  0.00000000E+00  0.00000000E+00
  0.00000000E+00  0.00000000E+00  0.00000000E+00
  0.00000000E+00  0.00000000E+00  0.00000000E+00
  0.00000000E+00  0.00000000E+00  0.00000000E+00
  0.00000000E+00  0.00000000E+00  0.00000000E+00
  0.00000000E+00  0.00000000E+00  0.00000000E+00
  0.00000000E+00  0.00000000E+00  0.00000000E+00
  0.00000000E+00  0.00000000E+00  0.00000000E+00
  0.00000000E+00  0.00000000E+00  0.00000000E+00
  0.00000000E+00  0.00000000E+00  0.00000000E+00
  0.00000000E+00  0.00000000E+00  0.00000000E+00
  0.00000000E+00  0.00000000E+00  0.00000000E+00
  0.00000000E+00  0.00000000E+00  0.00000000E+00
  0.00000000E+00  0.00000000E+00  0.00000000E+00
  0.00000000E+00  0.00000000E+00  0.00000000E+00
