K8 N4 Sr2                               
   1.00000000000000     
     5.0700832307125028   -0.0025362510424061   -0.4720544158234603
    -0.0030374229055429    4.6165487923294402   -0.0582677802416944
    -4.4170402652580600   -2.5161641493441400   18.3285926220531259
   K    N    Sr
     8     4     2
Direct
  0.3509222737745004  0.6568661132980640  0.8333421191823962
  0.5961903675865663  0.4352721694001104  0.3243194368646439
  0.6496454465403927  0.3433254727176628  0.1665692308458728
  0.4022123822114326  0.5647264498943129  0.6754770504581640
  0.7637249988836753  0.2334826633858282  0.9732803129913887
  0.1207963530678516  0.9840249851438373  0.4018196668932871
  0.2377356702900453  0.7657602527452823  0.0267419166777494
  0.8772228988077002  0.0166735629298111  0.5984666418016938
  0.7317445316048791  0.8987711605358356  0.2633606958829747
  0.9043446087087185  0.6843040818362989  0.8797170517788240
  0.2681855541656478  0.1012225693770559  0.7365495521564767
  0.0967108317732163  0.3155653324432461  0.1203852357486018
  0.1440466721803561  0.8589446095930685  0.1941921271162014
  0.8565174104049966  0.1410605766995717  0.8057789616016903
 
  0.00000000E+00  0.00000000E+00  0.00000000E+00
  0.00000000E+00  0.00000000E+00  0.00000000E+00
  0.00000000E+00  0.00000000E+00  0.00000000E+00
  0.00000000E+00  0.00000000E+00  0.00000000E+00
  0.00000000E+00  0.00000000E+00  0.00000000E+00
  0.00000000E+00  0.00000000E+00  0.00000000E+00
  0.00000000E+00  0.00000000E+00  0.00000000E+00
  0.00000000E+00  0.00000000E+00  0.00000000E+00
  0.00000000E+00  0.00000000E+00  0.00000000E+00
  0.00000000E+00  0.00000000E+00  0.00000000E+00
  0.00000000E+00  0.00000000E+00  0.00000000E+00
  0.00000000E+00  0.00000000E+00  0.00000000E+00
  0.00000000E+00  0.00000000E+00  0.00000000E+00
  0.00000000E+00  0.00000000E+00  0.00000000E+00
