 running on   64 total cores
 distrk:  each k-point on   64 cores,    1 groups
 distr:  one band on   16 cores,    4 groups
 using from now: INCAR     
 vasp.6.1.2 22Jul20 (build Apr 14 2021 21:39:43) complex                        
  
 POSCAR found type information on POSCAR K N Sr
 POSCAR found :  3 types and      14 ions
 scaLAPACK will be used
 LDA part: xc-table for Pade appr. of Perdew
 POSCAR, INCAR and KPOINTS ok, starting setup
 FFT: planning ...
 WAVECAR not read
 WARNING: chargedensity file is incomplete
 entering main loop
       N       E                     dE             d eps       ncg     rms          rms(c)
DAV:   1     0.811617563157E+03    0.81162E+03   -0.53991E+04 33184   0.152E+03
DAV:   2    -0.110124914830E+03   -0.92174E+03   -0.89302E+03 43084   0.441E+02
DAV:   3    -0.200736651946E+03   -0.90612E+02   -0.90133E+02 48408   0.108E+02
DAV:   4    -0.205930640206E+03   -0.51940E+01   -0.51613E+01 54792   0.275E+01
DAV:   5    -0.206471178464E+03   -0.54054E+00   -0.54019E+00 50680   0.486E+00    0.273E+01
DAV:   6    -0.145176719968E+03    0.61294E+02   -0.10581E+02 44736   0.339E+01    0.288E+01
DAV:   7    -0.147201704018E+03   -0.20250E+01   -0.21782E+01 46824   0.134E+01    0.166E+01
DAV:   8    -0.148573675231E+03   -0.13720E+01   -0.12921E+01 47224   0.108E+01    0.149E+01
DAV:   9    -0.146047259619E+03    0.25264E+01   -0.14478E+01 39656   0.752E+00    0.577E+00
DAV:  10    -0.145467351566E+03    0.57991E+00   -0.20011E+00 40648   0.515E+00    0.389E+00
DAV:  11    -0.145435412456E+03    0.31939E-01   -0.62524E-01 41940   0.274E+00    0.381E+00
DAV:  12    -0.145443581083E+03   -0.81686E-02   -0.13780E-01 35684   0.160E+00    0.392E+00
DAV:  13    -0.145440973038E+03    0.26080E-02   -0.63968E-02 39268   0.101E+00    0.367E+00
DAV:  14    -0.145369879502E+03    0.71094E-01   -0.16926E-01 38676   0.114E+00    0.198E+00
DAV:  15    -0.145363581444E+03    0.62981E-02   -0.16958E-01 36944   0.162E+00    0.206E+00
DAV:  16    -0.145386492442E+03   -0.22911E-01   -0.16031E-01 36196   0.141E+00    0.221E+00
DAV:  17    -0.145388031453E+03   -0.15390E-02   -0.45092E-02 36080   0.976E-01    0.229E+00
DAV:  18    -0.145384232211E+03    0.37992E-02   -0.34543E-02 35404   0.754E-01    0.193E+00
DAV:  19    -0.145369976440E+03    0.14256E-01   -0.15983E-01 36264   0.112E+00    0.139E+00
DAV:  20    -0.145366400180E+03    0.35763E-02   -0.12229E-01 33684   0.176E+00    0.112E+00
DAV:  21    -0.145366618301E+03   -0.21812E-03   -0.66474E-02 33636   0.121E+00    0.112E+00
DAV:  22    -0.145366349378E+03    0.26892E-03   -0.76912E-02 33396   0.122E+00    0.899E-01
DAV:  23    -0.145368486838E+03   -0.21375E-02   -0.71637E-02 33320   0.109E+00    0.992E-01
DAV:  24    -0.145368061205E+03    0.42563E-03   -0.68528E-02 33288   0.107E+00    0.103E+00
DAV:  25    -0.145370164595E+03   -0.21034E-02   -0.67656E-02 33272   0.107E+00    0.931E-01
DAV:  26    -0.145375706103E+03   -0.55415E-02   -0.11199E-01 33240   0.131E+00    0.936E-01
DAV:  27    -0.145373694658E+03    0.20114E-02   -0.11103E-01 33224   0.125E+00    0.948E-01
DAV:  28    -0.145375739027E+03   -0.20444E-02   -0.11598E-01 33196   0.126E+00    0.948E-01
DAV:  29    -0.145371929519E+03    0.38095E-02   -0.91520E-02 33184   0.115E+00    0.853E-01
DAV:  30    -0.145382273853E+03   -0.10344E-01   -0.10328E-01 34104   0.137E+00    0.560E-01
DAV:  31    -0.145383978915E+03   -0.17051E-02   -0.10204E-01 33184   0.138E+00    0.494E-01
DAV:  32    -0.145387828396E+03   -0.38495E-02   -0.11048E-01 33184   0.122E+00    0.491E-01
DAV:  33    -0.145388148885E+03   -0.32049E-03   -0.12607E-01 33184   0.131E+00    0.513E-01
DAV:  34    -0.145389357268E+03   -0.12084E-02   -0.11768E-01 33184   0.127E+00    0.525E-01
DAV:  35    -0.145389620316E+03   -0.26305E-03   -0.11592E-01 33184   0.127E+00    0.541E-01
DAV:  36    -0.145390935746E+03   -0.13154E-02   -0.12262E-01 33184   0.129E+00    0.522E-01
DAV:  37    -0.145391910406E+03   -0.97466E-03   -0.13136E-01 33184   0.133E+00    0.507E-01
DAV:  38    -0.145391701238E+03    0.20917E-03   -0.13302E-01 33184   0.137E+00    0.512E-01
DAV:  39    -0.145393910096E+03   -0.22089E-02   -0.13414E-01 33184   0.140E+00    0.477E-01
DAV:  40    -0.145394261566E+03   -0.35147E-03   -0.13100E-01 33184   0.138E+00    0.510E-01
DAV:  41    -0.145394230718E+03    0.30848E-04   -0.12338E-01 33184   0.134E+00    0.490E-01
DAV:  42    -0.145387483970E+03    0.67467E-02   -0.10937E-01 33184   0.138E+00    0.581E-01
DAV:  43    -0.145383871560E+03    0.36124E-02   -0.58367E-02 33376   0.986E-01    0.635E-01
DAV:  44    -0.145377528220E+03    0.63433E-02   -0.50942E-02 33584   0.964E-01    0.654E-01
DAV:  45    -0.145375241828E+03    0.22864E-02   -0.34786E-02 33368   0.802E-01    0.701E-01
DAV:  46    -0.145371550718E+03    0.36911E-02   -0.37025E-02 33536   0.838E-01    0.731E-01
DAV:  47    -0.145369477558E+03    0.20732E-02   -0.26553E-02 34288   0.676E-01    0.822E-01
DAV:  48    -0.145370747170E+03   -0.12696E-02   -0.32810E-02 33220   0.900E-01    0.767E-01
DAV:  49    -0.145367831757E+03    0.29154E-02   -0.13306E-02 33308   0.490E-01    0.747E-01
DAV:  50    -0.145373400444E+03   -0.55687E-02   -0.19080E-02 33264   0.627E-01    0.688E-01
DAV:  51    -0.145377618799E+03   -0.42184E-02   -0.18116E-02 33248   0.596E-01    0.775E-01
DAV:  52    -0.145374668637E+03    0.29502E-02   -0.29327E-02 33396   0.704E-01    0.605E-01
DAV:  53    -0.145378962143E+03   -0.42935E-02   -0.32674E-02 34448   0.674E-01    0.552E-01
DAV:  54    -0.145381578732E+03   -0.26166E-02   -0.17881E-02 33240   0.564E-01    0.571E-01
DAV:  55    -0.145378562438E+03    0.30163E-02   -0.17504E-02 33220   0.518E-01    0.536E-01
DAV:  56    -0.145384641941E+03   -0.60795E-02   -0.26803E-02 33436   0.625E-01    0.480E-01
DAV:  57    -0.145381525414E+03    0.31165E-02   -0.23489E-02 33208   0.631E-01    0.467E-01
DAV:  58    -0.145385566854E+03   -0.40414E-02   -0.20211E-02 33196   0.536E-01    0.437E-01
DAV:  59    -0.145382420549E+03    0.31463E-02   -0.24367E-02 33200   0.594E-01    0.394E-01
DAV:  60    -0.145385653173E+03   -0.32326E-02   -0.22303E-02 33192   0.599E-01    0.381E-01
DAV:  61    -0.145384275652E+03    0.13775E-02   -0.28854E-02 33192   0.691E-01    0.315E-01
DAV:  62    -0.145389477787E+03   -0.52021E-02   -0.24351E-02 33184   0.591E-01    0.334E-01
DAV:  63    -0.145385830742E+03    0.36470E-02   -0.25337E-02 33184   0.592E-01    0.309E-01
DAV:  64    -0.145390884587E+03   -0.50538E-02   -0.26610E-02 33184   0.608E-01    0.326E-01
DAV:  65    -0.145387804660E+03    0.30799E-02   -0.30594E-02 33184   0.650E-01    0.305E-01
DAV:  66    -0.145391463327E+03   -0.36587E-02   -0.30560E-02 33184   0.670E-01    0.320E-01
DAV:  67    -0.145388024831E+03    0.34385E-02   -0.32217E-02 33184   0.674E-01    0.298E-01
DAV:  68    -0.145391955974E+03   -0.39311E-02   -0.34217E-02 33184   0.698E-01    0.320E-01
DAV:  69    -0.145388224193E+03    0.37318E-02   -0.36750E-02 33184   0.726E-01    0.299E-01
DAV:  70    -0.145392149020E+03   -0.39248E-02   -0.38367E-02 33184   0.747E-01    0.320E-01
DAV:  71    -0.145389786727E+03    0.23623E-02   -0.42413E-02 33184   0.794E-01    0.306E-01
DAV:  72    -0.145393838444E+03   -0.40517E-02   -0.43373E-02 33184   0.793E-01    0.326E-01
DAV:  73    -0.145390012551E+03    0.38259E-02   -0.43889E-02 33184   0.797E-01    0.297E-01
DAV:  74    -0.145394174714E+03   -0.41622E-02   -0.43673E-02 33184   0.800E-01    0.335E-01
DAV:  75    -0.145390606547E+03    0.35682E-02   -0.42140E-02 33184   0.785E-01    0.313E-01
DAV:  76    -0.145394719648E+03   -0.41131E-02   -0.42124E-02 33184   0.791E-01    0.349E-01
DAV:  77    -0.145391528986E+03    0.31907E-02   -0.42909E-02 33184   0.794E-01    0.324E-01
DAV:  78    -0.145394711619E+03   -0.31826E-02   -0.42663E-02 33184   0.778E-01    0.344E-01
DAV:  79    -0.145391589211E+03    0.31224E-02   -0.43181E-02 33184   0.790E-01    0.323E-01
DAV:  80    -0.145394362988E+03   -0.27738E-02   -0.41967E-02 33184   0.767E-01    0.341E-01
DAV:  81    -0.145392475360E+03    0.18876E-02   -0.71813E-02 33200   0.108E+00    0.318E-01
DAV:  82    -0.145398038885E+03   -0.55635E-02   -0.54187E-02 33184   0.847E-01    0.299E-01
DAV:  83    -0.145394789881E+03    0.32490E-02   -0.60023E-02 33184   0.900E-01    0.264E-01
DAV:  84    -0.145400788039E+03   -0.59982E-02   -0.63963E-02 33184   0.890E-01    0.297E-01
DAV:  85    -0.145396284545E+03    0.45035E-02   -0.77082E-02 33184   0.105E+00    0.269E-01
DAV:  86    -0.145398936697E+03   -0.26522E-02   -0.70877E-02 33184   0.986E-01    0.322E-01
DAV:  87    -0.145398502951E+03    0.43375E-03   -0.62958E-02 33184   0.960E-01    0.280E-01
DAV:  88    -0.145399544495E+03   -0.10415E-02   -0.60825E-02 33184   0.877E-01    0.291E-01
DAV:  89    -0.145399288708E+03    0.25579E-03   -0.70628E-02 33184   0.979E-01    0.270E-01
DAV:  90    -0.145400052316E+03   -0.76361E-03   -0.69689E-02 33184   0.933E-01    0.284E-01
DAV:  91    -0.145398102865E+03    0.19495E-02   -0.72826E-02 33184   0.102E+00    0.250E-01
DAV:  92    -0.145398604746E+03   -0.50188E-03   -0.67689E-02 33184   0.925E-01    0.277E-01
DAV:  93    -0.145398153563E+03    0.45118E-03   -0.74135E-02 33184   0.103E+00    0.260E-01
DAV:  94    -0.145399655379E+03   -0.15018E-02   -0.70671E-02 33184   0.961E-01    0.299E-01
DAV:  95    -0.145398910918E+03    0.74446E-03   -0.81560E-02 33184   0.107E+00    0.265E-01
DAV:  96    -0.145395632663E+03    0.32783E-02   -0.75960E-02 33280   0.105E+00    0.263E-01
DAV:  97    -0.145394865490E+03    0.76717E-03   -0.60020E-02 33184   0.100E+00    0.235E-01
DAV:  98    -0.145395002333E+03   -0.13684E-03   -0.53029E-02 33184   0.867E-01    0.261E-01
DAV:  99    -0.145394586448E+03    0.41589E-03   -0.60841E-02 33184   0.955E-01    0.231E-01
DAV: 100    -0.145393262480E+03    0.13240E-02   -0.55497E-02 33184   0.873E-01
 -----------------------------------------------------------------------------
|                                                                             |
|           W    W    AA    RRRRR   N    N  II  N    N   GGGG   !!!           |
|           W    W   A  A   R    R  NN   N  II  NN   N  G    G  !!!           |
|           W    W  A    A  R    R  N N  N  II  N N  N  G       !!!           |
|           W WW W  AAAAAA  RRRRR   N  N N  II  N  N N  G  GGG   !            |
|           WW  WW  A    A  R   R   N   NN  II  N   NN  G    G                |
|           W    W  A    A  R    R  N    N  II  N    N   GGGG   !!!           |
|                                                                             |
|     The electronic self-consistency was not achieved in the given           |
|     number of steps (NELM). The forces and other quantities evaluated       |
|     might not be reliable so examine the results carefully. If you find     |
|     spurious results, we suggest increasing NELM, if you were close to      |
|     convergence or switching to a different ALGO or adjusting the           |
|     density mixing parameters otherwise.                                    |
|                                                                             |
 -----------------------------------------------------------------------------

   1 F= -.14539326E+03 E0= -.14538387E+03  d E =-.145393E+03  mag=     0.7073
 curvature:   0.00 expect dE= 0.000E+00 dE for cont linesearch  0.000E+00
 trial: gam= 0.00000 g(F)=  0.372E-01 g(S)=  0.405E-02 ort = 0.000E+00 (trialstep = 0.100E+01)
 search vector abs. value=  0.413E-01
 bond charge predicted
       N       E                     dE             d eps       ncg     rms          rms(c)
DAV:   1    -0.145428453867E+03   -0.33867E-01   -0.63838E+00 33184   0.922E+00    0.127E+00
DAV:   2    -0.145471231015E+03   -0.42777E-01   -0.37643E-01 35012   0.254E+00    0.225E+00
DAV:   3    -0.145451697433E+03    0.19534E-01   -0.19801E-01 38116   0.174E+00    0.160E+00
DAV:   4    -0.145453029362E+03   -0.13319E-02   -0.21893E-01 33524   0.164E+00    0.174E+00
DAV:   5    -0.145444780409E+03    0.82490E-02   -0.11813E-01 33480   0.155E+00    0.912E-01
DAV:   6    -0.145451739965E+03   -0.69596E-02   -0.83150E-02 33600   0.137E+00    0.131E+00
DAV:   7    -0.145446959799E+03    0.47802E-02   -0.76776E-02 33320   0.129E+00    0.106E+00
DAV:   8    -0.145442325801E+03    0.46340E-02   -0.80434E-02 33384   0.119E+00    0.901E-01
DAV:   9    -0.145440558551E+03    0.17673E-02   -0.73793E-02 33184   0.119E+00    0.686E-01
DAV:  10    -0.145439149149E+03    0.14094E-02   -0.80947E-02 33672   0.119E+00    0.338E-01
DAV:  11    -0.145440731834E+03   -0.15827E-02   -0.73036E-02 33288   0.112E+00    0.276E-01
DAV:  12    -0.145443134250E+03   -0.24024E-02   -0.78624E-02 33184   0.115E+00    0.196E-01
DAV:  13    -0.145443948161E+03   -0.81391E-03   -0.82470E-02 33184   0.109E+00    0.186E-01
DAV:  14    -0.145446063327E+03   -0.21152E-02   -0.94464E-02 33184   0.116E+00    0.162E-01
DAV:  15    -0.145445843016E+03    0.22031E-03   -0.96625E-02 33184   0.112E+00    0.119E-01
DAV:  16    -0.145446792987E+03   -0.94997E-03   -0.10354E-01 33184   0.116E+00    0.814E-02
DAV:  17    -0.145446779427E+03    0.13561E-04   -0.10479E-01 33184   0.114E+00    0.682E-02
DAV:  18    -0.145447649619E+03   -0.87019E-03   -0.10973E-01 33184   0.118E+00    0.589E-02
DAV:  19    -0.145447880900E+03   -0.23128E-03   -0.10920E-01 33184   0.116E+00    0.623E-02
DAV:  20    -0.145448497053E+03   -0.61615E-03   -0.11267E-01 33184   0.119E+00    0.436E-02
DAV:  21    -0.145448318876E+03    0.17818E-03   -0.11094E-01 33184   0.116E+00    0.538E-02
DAV:  22    -0.145448764103E+03   -0.44523E-03   -0.11434E-01 33184   0.120E+00    0.398E-02
DAV:  23    -0.145448612992E+03    0.15111E-03   -0.11187E-01 33184   0.116E+00    0.548E-02
DAV:  24    -0.145448911271E+03   -0.29828E-03   -0.11500E-01 33184   0.120E+00    0.376E-02
DAV:  25    -0.145448825190E+03    0.86081E-04   -0.11256E-01 33184   0.117E+00    0.551E-02
DAV:  26    -0.145449014169E+03   -0.18898E-03   -0.11559E-01 33184   0.120E+00    0.362E-02
DAV:  27    -0.145448967882E+03    0.46287E-04   -0.11299E-01 33184   0.117E+00    0.560E-02
DAV:  28    -0.145449094714E+03   -0.12683E-03   -0.11583E-01 33184   0.120E+00    0.356E-02
DAV:  29    -0.145449068421E+03    0.26293E-04   -0.11315E-01 33184   0.117E+00    0.564E-02
DAV:  30    -0.145449174500E+03   -0.10608E-03   -0.11590E-01 33184   0.121E+00    0.352E-02
DAV:  31    -0.145449106649E+03    0.67851E-04   -0.11319E-01 33184   0.117E+00    0.564E-02
DAV:  32    -0.145449225871E+03   -0.11922E-03   -0.11584E-01 33184   0.121E+00    0.350E-02
DAV:  33    -0.145449132527E+03    0.93344E-04   -0.11317E-01 33184   0.117E+00    0.562E-02
DAV:  34    -0.145449260802E+03   -0.12828E-03   -0.11574E-01 33184   0.121E+00    0.351E-02
DAV:  35    -0.145449148349E+03    0.11245E-03   -0.11314E-01 33184   0.118E+00    0.560E-02
DAV:  36    -0.145449285681E+03   -0.13733E-03   -0.11562E-01 33184   0.121E+00    0.352E-02
DAV:  37    -0.145449158419E+03    0.12726E-03   -0.11310E-01 33184   0.118E+00    0.557E-02
DAV:  38    -0.145449306250E+03   -0.14783E-03   -0.11550E-01 33184   0.121E+00    0.354E-02
DAV:  39    -0.145449163969E+03    0.14228E-03   -0.11307E-01 33184   0.118E+00    0.556E-02
DAV:  40    -0.145449324205E+03   -0.16024E-03   -0.11539E-01 33184   0.121E+00    0.357E-02
DAV:  41    -0.145449166503E+03    0.15770E-03   -0.11305E-01 33184   0.118E+00    0.554E-02
DAV:  42    -0.145449340719E+03   -0.17422E-03   -0.11530E-01 33184   0.121E+00    0.360E-02
DAV:  43    -0.145449166844E+03    0.17387E-03   -0.11303E-01 33184   0.118E+00    0.553E-02
DAV:  44    -0.145449356325E+03   -0.18948E-03   -0.11522E-01 33184   0.121E+00    0.363E-02
DAV:  45    -0.145449165554E+03    0.19077E-03   -0.11303E-01 33184   0.118E+00    0.552E-02
DAV:  46    -0.145449371488E+03   -0.20593E-03   -0.11517E-01 33184   0.121E+00    0.366E-02
DAV:  47    -0.145449161342E+03    0.21015E-03   -0.11303E-01 33184   0.118E+00    0.551E-02
DAV:  48    -0.145449383683E+03   -0.22234E-03   -0.11512E-01 33184   0.121E+00    0.369E-02
DAV:  49    -0.145449158291E+03    0.22539E-03   -0.11304E-01 33184   0.118E+00    0.550E-02
DAV:  50    -0.145449398822E+03   -0.24053E-03   -0.11508E-01 33184   0.121E+00    0.372E-02
DAV:  51    -0.145449153960E+03    0.24486E-03   -0.11305E-01 33184   0.118E+00    0.549E-02
DAV:  52    -0.145449410601E+03   -0.25664E-03   -0.11507E-01 33184   0.121E+00    0.374E-02
DAV:  53    -0.145449152853E+03    0.25775E-03   -0.11309E-01 33184   0.118E+00    0.549E-02
DAV:  54    -0.145449423318E+03   -0.27046E-03   -0.11506E-01 33184   0.121E+00    0.377E-02
DAV:  55    -0.145449150669E+03    0.27265E-03   -0.11313E-01 33184   0.118E+00    0.549E-02
DAV:  56    -0.145449435816E+03   -0.28515E-03   -0.11506E-01 33184   0.121E+00    0.379E-02
DAV:  57    -0.145449147886E+03    0.28793E-03   -0.11316E-01 33184   0.118E+00    0.549E-02
DAV:  58    -0.145449449790E+03   -0.30190E-03   -0.11506E-01 33184   0.121E+00    0.382E-02
DAV:  59    -0.145449144904E+03    0.30489E-03   -0.11320E-01 33184   0.118E+00    0.549E-02
DAV:  60    -0.145449464322E+03   -0.31942E-03   -0.11508E-01 33184   0.121E+00    0.385E-02
DAV:  61    -0.145449142619E+03    0.32170E-03   -0.11324E-01 33184   0.118E+00    0.549E-02
DAV:  62    -0.145449455902E+03   -0.31328E-03   -0.11508E-01 33184   0.120E+00    0.388E-02
DAV:  63    -0.145449122608E+03    0.33329E-03   -0.11328E-01 33184   0.118E+00    0.550E-02
DAV:  64    -0.145449468650E+03   -0.34604E-03   -0.11512E-01 33184   0.120E+00    0.391E-02
DAV:  65    -0.145449123198E+03    0.34545E-03   -0.11335E-01 33184   0.118E+00    0.549E-02
DAV:  66    -0.145449474240E+03   -0.35104E-03   -0.11517E-01 33184   0.120E+00    0.393E-02
DAV:  67    -0.145449128786E+03    0.34545E-03   -0.11344E-01 33184   0.118E+00    0.549E-02
DAV:  68    -0.145449490767E+03   -0.36198E-03   -0.11520E-01 33184   0.120E+00    0.395E-02
DAV:  69    -0.145449124810E+03    0.36596E-03   -0.11352E-01 33184   0.118E+00    0.549E-02
DAV:  70    -0.145449504469E+03   -0.37966E-03   -0.11521E-01 33184   0.120E+00    0.396E-02
DAV:  71    -0.145449116697E+03    0.38777E-03   -0.11357E-01 33184   0.118E+00    0.549E-02
DAV:  72    -0.145449510073E+03   -0.39338E-03   -0.11521E-01 33184   0.120E+00    0.395E-02
DAV:  73    -0.145449118474E+03    0.39160E-03   -0.11363E-01 33184   0.118E+00    0.552E-02
DAV:  74    -0.145449506661E+03   -0.38819E-03   -0.11523E-01 33184   0.120E+00    0.397E-02
DAV:  75    -0.145449118679E+03    0.38798E-03   -0.11372E-01 33184   0.118E+00    0.557E-02
DAV:  76    -0.145449508286E+03   -0.38961E-03   -0.11529E-01 33184   0.120E+00    0.399E-02
DAV:  77    -0.145449122845E+03    0.38544E-03   -0.11375E-01 33184   0.118E+00    0.557E-02
DAV:  78    -0.145449525328E+03   -0.40248E-03   -0.11526E-01 33184   0.120E+00    0.402E-02
DAV:  79    -0.145449123031E+03    0.40230E-03   -0.11378E-01 33184   0.118E+00    0.559E-02
DAV:  80    -0.145449533919E+03   -0.41089E-03   -0.11526E-01 33184   0.120E+00    0.403E-02
DAV:  81    -0.145449123013E+03    0.41091E-03   -0.11381E-01 33184   0.118E+00    0.560E-02
DAV:  82    -0.145449540433E+03   -0.41742E-03   -0.11526E-01 33184   0.120E+00    0.405E-02
DAV:  83    -0.145449120671E+03    0.41976E-03   -0.11385E-01 33184   0.118E+00    0.560E-02
DAV:  84    -0.145449546821E+03   -0.42615E-03   -0.11524E-01 33184   0.119E+00    0.406E-02
DAV:  85    -0.145449118414E+03    0.42841E-03   -0.11387E-01 33184   0.118E+00    0.561E-02
DAV:  86    -0.145449552773E+03   -0.43436E-03   -0.11523E-01 33184   0.119E+00    0.408E-02
DAV:  87    -0.145449115556E+03    0.43722E-03   -0.11389E-01 33184   0.118E+00    0.561E-02
DAV:  88    -0.145449558891E+03   -0.44334E-03   -0.11522E-01 33184   0.119E+00    0.410E-02
DAV:  89    -0.145449112427E+03    0.44646E-03   -0.11390E-01 33184   0.118E+00    0.560E-02
DAV:  90    -0.145449565659E+03   -0.45323E-03   -0.11520E-01 33184   0.119E+00    0.411E-02
DAV:  91    -0.145449109143E+03    0.45652E-03   -0.11392E-01 33184   0.118E+00    0.560E-02
DAV:  92    -0.145449573407E+03   -0.46426E-03   -0.11518E-01 33184   0.119E+00    0.413E-02
DAV:  93    -0.145449106229E+03    0.46718E-03   -0.11393E-01 33184   0.118E+00    0.559E-02
DAV:  94    -0.145449579767E+03   -0.47354E-03   -0.11515E-01 33184   0.119E+00    0.415E-02
DAV:  95    -0.145449103052E+03    0.47672E-03   -0.11393E-01 33184   0.118E+00    0.559E-02
DAV:  96    -0.145449584955E+03   -0.48190E-03   -0.11511E-01 33184   0.119E+00    0.416E-02
DAV:  97    -0.145449099711E+03    0.48524E-03   -0.11393E-01 33184   0.118E+00    0.559E-02
DAV:  98    -0.145449588422E+03   -0.48871E-03   -0.11506E-01 33184   0.119E+00    0.417E-02
DAV:  99    -0.145449096579E+03    0.49184E-03   -0.11391E-01 33184   0.118E+00    0.558E-02
DAV: 100    -0.145449591357E+03   -0.49478E-03   -0.11501E-01 33184   0.119E+00
 -----------------------------------------------------------------------------
|                                                                             |
|           W    W    AA    RRRRR   N    N  II  N    N   GGGG   !!!           |
|           W    W   A  A   R    R  NN   N  II  NN   N  G    G  !!!           |
|           W    W  A    A  R    R  N N  N  II  N N  N  G       !!!           |
|           W WW W  AAAAAA  RRRRR   N  N N  II  N  N N  G  GGG   !            |
|           WW  WW  A    A  R   R   N   NN  II  N   NN  G    G                |
|           W    W  A    A  R    R  N    N  II  N    N   GGGG   !!!           |
|                                                                             |
|     The electronic self-consistency was not achieved in the given           |
|     number of steps (NELM). The forces and other quantities evaluated       |
|     might not be reliable so examine the results carefully. If you find     |
|     spurious results, we suggest increasing NELM, if you were close to      |
|     convergence or switching to a different ALGO or adjusting the           |
|     density mixing parameters otherwise.                                    |
|                                                                             |
 -----------------------------------------------------------------------------

   2 F= -.14544959E+03 E0= -.14544206E+03  d E =-.563289E-01  mag=     0.7702
 trial-energy change:   -0.056329  1 .order   -0.035242   -0.041256   -0.029228
 step:   3.4299(harm=  3.4299)  dis= 0.06705  next Energy=  -145.464016 (dE=-0.708E-01)
 bond charge predicted
       N       E                     dE             d eps       ncg     rms          rms(c)
DAV:   1    -0.145483158238E+03   -0.34062E-01   -0.37327E+01 33184   0.222E+01    0.301E+00
DAV:   2    -0.145603151816E+03   -0.11999E+00   -0.18268E+00 35892   0.545E+00    0.345E+00
DAV:   3    -0.145575950731E+03    0.27201E-01   -0.73521E-01 37296   0.287E+00    0.284E+00
DAV:   4    -0.145509392886E+03    0.66558E-01   -0.37765E-01 35972   0.245E+00    0.105E+00
DAV:   5    -0.145536694946E+03   -0.27302E-01   -0.24321E-01 34496   0.208E+00    0.235E+00
DAV:   6    -0.145541053623E+03   -0.43587E-02   -0.10364E-01 33220   0.151E+00    0.227E+00
DAV:   7    -0.145539481485E+03    0.15721E-02   -0.78159E-02 33768   0.118E+00    0.224E+00
DAV:   8    -0.145531354830E+03    0.81267E-02   -0.95189E-02 33836   0.121E+00    0.202E+00
DAV:   9    -0.145513780559E+03    0.17574E-01   -0.98505E-02 34536   0.128E+00    0.112E+00
DAV:  10    -0.145516949464E+03   -0.31689E-02   -0.10591E-01 33200   0.163E+00    0.125E+00
DAV:  11    -0.145507626946E+03    0.93225E-02   -0.97396E-02 33192   0.136E+00    0.107E+00
DAV:  12    -0.145499833805E+03    0.77931E-02   -0.18561E-01 33832   0.154E+00    0.812E-01
DAV:  13    -0.145503765372E+03   -0.39316E-02   -0.18780E-01 33192   0.209E+00    0.770E-01
DAV:  14    -0.145500192987E+03    0.35724E-02   -0.11950E-01 33192   0.157E+00    0.316E-01
DAV:  15    -0.145498327892E+03    0.18651E-02   -0.11833E-01 33192   0.148E+00    0.204E-01
DAV:  16    -0.145499422928E+03   -0.10950E-02   -0.11153E-01 33188   0.127E+00    0.161E-01
DAV:  17    -0.145498232442E+03    0.11905E-02   -0.11317E-01 33192   0.131E+00    0.131E-01
DAV:  18    -0.145499022194E+03   -0.78975E-03   -0.10389E-01 33188   0.121E+00    0.114E-01
DAV:  19    -0.145498412905E+03    0.60929E-03   -0.10658E-01 33184   0.124E+00    0.667E-02
DAV:  20    -0.145499319756E+03   -0.90685E-03   -0.10409E-01 33184   0.117E+00    0.533E-02
DAV:  21    -0.145498865297E+03    0.45446E-03   -0.10909E-01 33184   0.121E+00    0.603E-02
DAV:  22    -0.145499703321E+03   -0.83802E-03   -0.10698E-01 33184   0.118E+00    0.559E-02
DAV:  23    -0.145499269563E+03    0.43376E-03   -0.11093E-01 33184   0.121E+00    0.529E-02
DAV:  24    -0.145500138280E+03   -0.86872E-03   -0.10969E-01 33184   0.118E+00    0.491E-02
DAV:  25    -0.145499659105E+03    0.47917E-03   -0.11344E-01 33184   0.122E+00    0.493E-02
DAV:  26    -0.145500658484E+03   -0.99938E-03   -0.11157E-01 33184   0.119E+00    0.492E-02
DAV:  27    -0.145500135692E+03    0.52279E-03   -0.11414E-01 33184   0.122E+00    0.478E-02
DAV:  28    -0.145501307854E+03   -0.11722E-02   -0.11205E-01 33184   0.119E+00    0.496E-02
DAV:  29    -0.145500772995E+03    0.53486E-03   -0.11408E-01 33184   0.122E+00    0.446E-02
DAV:  30    -0.145501826003E+03   -0.10530E-02   -0.11183E-01 33184   0.119E+00    0.483E-02
DAV:  31    -0.145501139620E+03    0.68638E-03   -0.11329E-01 33184   0.121E+00    0.458E-02
DAV:  32    -0.145502049330E+03   -0.90971E-03   -0.11190E-01 33184   0.118E+00    0.476E-02
DAV:  33    -0.145501305607E+03    0.74372E-03   -0.11278E-01 33184   0.120E+00    0.462E-02
DAV:  34    -0.145502193238E+03   -0.88763E-03   -0.11190E-01 33184   0.118E+00    0.480E-02
DAV:  35    -0.145501328068E+03    0.86517E-03   -0.11256E-01 33184   0.120E+00    0.467E-02
DAV:  36    -0.145502215605E+03   -0.88754E-03   -0.11202E-01 33184   0.118E+00    0.483E-02
DAV:  37    -0.145501318346E+03    0.89726E-03   -0.11260E-01 33184   0.119E+00    0.469E-02
DAV:  38    -0.145502238023E+03   -0.91968E-03   -0.11223E-01 33184   0.118E+00    0.486E-02
DAV:  39    -0.145501319813E+03    0.91821E-03   -0.11276E-01 33184   0.119E+00    0.473E-02
DAV:  40    -0.145502263250E+03   -0.94344E-03   -0.11245E-01 33184   0.118E+00    0.488E-02
DAV:  41    -0.145501323779E+03    0.93947E-03   -0.11289E-01 33184   0.119E+00    0.476E-02
DAV:  42    -0.145502282530E+03   -0.95875E-03   -0.11262E-01 33184   0.118E+00    0.489E-02
DAV:  43    -0.145501325511E+03    0.95702E-03   -0.11298E-01 33184   0.119E+00    0.478E-02
DAV:  44    -0.145502296892E+03   -0.97138E-03   -0.11275E-01 33184   0.118E+00    0.490E-02
DAV:  45    -0.145501325865E+03    0.97103E-03   -0.11303E-01 33184   0.119E+00    0.480E-02
DAV:  46    -0.145502308066E+03   -0.98220E-03   -0.11284E-01 33184   0.118E+00    0.491E-02
DAV:  47    -0.145501364587E+03    0.94348E-03   -0.11298E-01 33184   0.119E+00    0.477E-02
DAV:  48    -0.145502335857E+03   -0.97127E-03   -0.11282E-01 33184   0.118E+00    0.499E-02
DAV:  49    -0.145501320193E+03    0.10157E-02   -0.11297E-01 33184   0.119E+00    0.479E-02
DAV:  50    -0.145502328249E+03   -0.10081E-02   -0.11285E-01 33184   0.118E+00    0.499E-02
DAV:  51    -0.145501311336E+03    0.10169E-02   -0.11303E-01 33184   0.119E+00    0.481E-02
DAV:  52    -0.145502332585E+03   -0.10212E-02   -0.11293E-01 33184   0.118E+00    0.488E-02
DAV:  53    -0.145501318240E+03    0.10143E-02   -0.11304E-01 33184   0.118E+00    0.470E-02
DAV:  54    -0.145502374843E+03   -0.10566E-02   -0.11300E-01 33184   0.117E+00    0.492E-02
DAV:  55    -0.145501293666E+03    0.10812E-02   -0.11296E-01 33184   0.118E+00    0.466E-02
DAV:  56    -0.145502378178E+03   -0.10845E-02   -0.11288E-01 33184   0.117E+00    0.495E-02
DAV:  57    -0.145501305627E+03    0.10726E-02   -0.11287E-01 33184   0.118E+00    0.461E-02
DAV:  58    -0.145502394493E+03   -0.10889E-02   -0.11285E-01 33184   0.117E+00    0.499E-02
DAV:  59    -0.145501279202E+03    0.11153E-02   -0.11272E-01 33184   0.118E+00    0.458E-02
DAV:  60    -0.145502398879E+03   -0.11197E-02   -0.11272E-01 33184   0.117E+00    0.501E-02
DAV:  61    -0.145501262612E+03    0.11363E-02   -0.11264E-01 33184   0.118E+00    0.455E-02
DAV:  62    -0.145502387434E+03   -0.11248E-02   -0.11264E-01 33184   0.117E+00    0.500E-02
DAV:  63    -0.145501240583E+03    0.11469E-02   -0.11264E-01 33184   0.118E+00    0.458E-02
DAV:  64    -0.145502376026E+03   -0.11354E-02   -0.11257E-01 33184   0.117E+00    0.498E-02
DAV:  65    -0.145501227554E+03    0.11485E-02   -0.11256E-01 33184   0.118E+00    0.459E-02
DAV:  66    -0.145502357585E+03   -0.11300E-02   -0.11251E-01 33184   0.117E+00    0.497E-02
DAV:  67    -0.145501293586E+03    0.10640E-02   -0.11248E-01 33184   0.118E+00    0.459E-02
DAV:  68    -0.145502472627E+03   -0.11790E-02   -0.11231E-01 33184   0.117E+00    0.488E-02
DAV:  69    -0.145501435630E+03    0.10370E-02   -0.11243E-01 33184   0.118E+00    0.466E-02
DAV:  70    -0.145502471249E+03   -0.10356E-02   -0.11244E-01 33184   0.117E+00    0.480E-02
DAV:  71    -0.145501462883E+03    0.10084E-02   -0.11258E-01 33184   0.118E+00    0.473E-02
DAV:  72    -0.145502515805E+03   -0.10529E-02   -0.11238E-01 33184   0.117E+00    0.469E-02
DAV:  73    -0.145501572246E+03    0.94356E-03   -0.11258E-01 33184   0.118E+00    0.485E-02
DAV:  74    -0.145502542892E+03   -0.97065E-03   -0.11232E-01 33184   0.117E+00    0.455E-02
DAV:  75    -0.145501650523E+03    0.89237E-03   -0.11255E-01 33184   0.118E+00    0.501E-02
DAV:  76    -0.145502556599E+03   -0.90608E-03   -0.11244E-01 33184   0.117E+00    0.447E-02
DAV:  77    -0.145501752923E+03    0.80368E-03   -0.11256E-01 33184   0.118E+00    0.509E-02
DAV:  78    -0.145502648958E+03   -0.89603E-03   -0.11227E-01 33184   0.116E+00    0.438E-02
DAV:  79    -0.145501814570E+03    0.83439E-03   -0.11235E-01 33184   0.117E+00    0.516E-02
DAV:  80    -0.145502671458E+03   -0.85689E-03   -0.11244E-01 33184   0.117E+00    0.438E-02
DAV:  81    -0.145501836225E+03    0.83523E-03   -0.11245E-01 33184   0.117E+00    0.519E-02
DAV:  82    -0.145502709673E+03   -0.87345E-03   -0.11251E-01 33184   0.117E+00    0.439E-02
DAV:  83    -0.145501870378E+03    0.83929E-03   -0.11248E-01 33184   0.117E+00    0.520E-02
DAV:  84    -0.145502729700E+03   -0.85932E-03   -0.11235E-01 33184   0.116E+00    0.436E-02
DAV:  85    -0.145501900283E+03    0.82942E-03   -0.11254E-01 33184   0.117E+00    0.523E-02
DAV:  86    -0.145502746755E+03   -0.84647E-03   -0.11248E-01 33184   0.116E+00    0.435E-02
DAV:  87    -0.145501938930E+03    0.80782E-03   -0.11260E-01 33184   0.117E+00    0.525E-02
DAV:  88    -0.145502767477E+03   -0.82855E-03   -0.11238E-01 33184   0.116E+00    0.434E-02
DAV:  89    -0.145501976191E+03    0.79129E-03   -0.11272E-01 33184   0.117E+00    0.529E-02
DAV:  90    -0.145502781703E+03   -0.80551E-03   -0.11249E-01 33184   0.116E+00    0.432E-02
DAV:  91    -0.145501999626E+03    0.78208E-03   -0.11274E-01 33184   0.117E+00    0.531E-02
DAV:  92    -0.145502788278E+03   -0.78865E-03   -0.11239E-01 33184   0.116E+00    0.430E-02
DAV:  93    -0.145502021639E+03    0.76664E-03   -0.11267E-01 33184   0.117E+00    0.531E-02
DAV:  94    -0.145502790142E+03   -0.76850E-03   -0.11237E-01 33184   0.116E+00    0.428E-02
DAV:  95    -0.145502038584E+03    0.75156E-03   -0.11263E-01 33184   0.117E+00    0.533E-02
DAV:  96    -0.145502788530E+03   -0.74995E-03   -0.11231E-01 33184   0.116E+00    0.426E-02
DAV:  97    -0.145502020888E+03    0.76764E-03   -0.11252E-01 33184   0.117E+00    0.528E-02
DAV:  98    -0.145502776696E+03   -0.75581E-03   -0.11239E-01 33184   0.116E+00    0.431E-02
DAV:  99    -0.145502009595E+03    0.76710E-03   -0.11253E-01 33184   0.117E+00    0.530E-02
DAV: 100    -0.145502761095E+03   -0.75150E-03   -0.11192E-01 33184   0.116E+00
 -----------------------------------------------------------------------------
|                                                                             |
|           W    W    AA    RRRRR   N    N  II  N    N   GGGG   !!!           |
|           W    W   A  A   R    R  NN   N  II  NN   N  G    G  !!!           |
|           W    W  A    A  R    R  N N  N  II  N N  N  G       !!!           |
|           W WW W  AAAAAA  RRRRR   N  N N  II  N  N N  G  GGG   !            |
|           WW  WW  A    A  R   R   N   NN  II  N   NN  G    G                |
|           W    W  A    A  R    R  N    N  II  N    N   GGGG   !!!           |
|                                                                             |
|     The electronic self-consistency was not achieved in the given           |
|     number of steps (NELM). The forces and other quantities evaluated       |
|     might not be reliable so examine the results carefully. If you find     |
|     spurious results, we suggest increasing NELM, if you were close to      |
|     convergence or switching to a different ALGO or adjusting the           |
|     density mixing parameters otherwise.                                    |
|                                                                             |
 -----------------------------------------------------------------------------

   3 F= -.14550276E+03 E0= -.14549576E+03  d E =-.109499E+00  mag=     0.9163
 curvature:  -1.71 expect dE=-0.159E-01 dE for cont linesearch -0.121E-03
 trial: gam= 0.18311 g(F)=  0.134E-02 g(S)=  0.792E-02 ort = 0.171E-02 (trialstep = 0.149E+01)
 search vector abs. value=  0.113E-01
 bond charge predicted
       N       E                     dE             d eps       ncg     rms          rms(c)
DAV:   1    -0.145565973987E+03   -0.63964E-01   -0.36905E+00 33184   0.908E+00    0.157E+00
DAV:   2    -0.145567224540E+03   -0.12506E-02   -0.36582E-01 38088   0.253E+00    0.193E+00
DAV:   3    -0.145539040733E+03    0.28184E-01   -0.27561E-01 33668   0.214E+00    0.124E+00
DAV:   4    -0.145540608011E+03   -0.15673E-02   -0.18661E-01 33992   0.186E+00    0.146E+00
DAV:   5    -0.145537220970E+03    0.33870E-02   -0.13690E-01 37776   0.138E+00    0.142E+00
DAV:   6    -0.145540516597E+03   -0.32956E-02   -0.96351E-02 33228   0.131E+00    0.147E+00
DAV:   7    -0.145537793150E+03    0.27234E-02   -0.97641E-02 33472   0.123E+00    0.142E+00
DAV:   8    -0.145527590256E+03    0.10203E-01   -0.12614E-01 34184   0.131E+00    0.615E-01
DAV:   9    -0.145518421927E+03    0.91683E-02   -0.11687E-01 33320   0.144E+00    0.472E-01
DAV:  10    -0.145523222713E+03   -0.48008E-02   -0.11000E-01 33184   0.137E+00    0.483E-01
DAV:  11    -0.145521435845E+03    0.17869E-02   -0.11040E-01 33184   0.129E+00    0.592E-01
DAV:  12    -0.145523646561E+03   -0.22107E-02   -0.10374E-01 33928   0.117E+00    0.543E-01
DAV:  13    -0.145520882954E+03    0.27636E-02   -0.10931E-01 33184   0.121E+00    0.531E-01
DAV:  14    -0.145518077695E+03    0.28053E-02   -0.93475E-02 33496   0.116E+00    0.299E-01
DAV:  15    -0.145518709950E+03   -0.63226E-03   -0.84103E-02 33184   0.126E+00    0.175E-01
DAV:  16    -0.145518562861E+03    0.14709E-03   -0.78804E-02 33184   0.110E+00    0.130E-01
DAV:  17    -0.145518418509E+03    0.14435E-03   -0.77103E-02 33184   0.107E+00    0.125E-01
DAV:  18    -0.145516758462E+03    0.16600E-02   -0.65476E-02 33184   0.984E-01    0.749E-02
DAV:  19    -0.145518711896E+03   -0.19534E-02   -0.68907E-02 33184   0.991E-01    0.105E-01
DAV:  20    -0.145517172390E+03    0.15395E-02   -0.75293E-02 33184   0.102E+00    0.498E-02
DAV:  21    -0.145519098656E+03   -0.19263E-02   -0.75221E-02 33184   0.102E+00    0.974E-02
DAV:  22    -0.145518166141E+03    0.93252E-03   -0.83405E-02 33184   0.107E+00    0.403E-02
DAV:  23    -0.145519922944E+03   -0.17568E-02   -0.86777E-02 33184   0.108E+00    0.836E-02
DAV:  24    -0.145519598068E+03    0.32488E-03   -0.95975E-02 33184   0.113E+00    0.435E-02
DAV:  25    -0.145520578418E+03   -0.98035E-03   -0.98106E-02 33184   0.114E+00    0.609E-02
DAV:  26    -0.145521647196E+03   -0.10688E-02   -0.10647E-01 33184   0.118E+00    0.521E-02
DAV:  27    -0.145521007640E+03    0.63956E-03   -0.11100E-01 33184   0.121E+00    0.520E-02
DAV:  28    -0.145521705024E+03   -0.69738E-03   -0.10702E-01 33184   0.117E+00    0.415E-02
DAV:  29    -0.145521142443E+03    0.56258E-03   -0.11167E-01 33184   0.121E+00    0.518E-02
DAV:  30    -0.145521799689E+03   -0.65725E-03   -0.10858E-01 33184   0.118E+00    0.400E-02
DAV:  31    -0.145521133449E+03    0.66624E-03   -0.11185E-01 33184   0.121E+00    0.521E-02
DAV:  32    -0.145521806190E+03   -0.67274E-03   -0.10815E-01 33184   0.117E+00    0.405E-02
DAV:  33    -0.145521180719E+03    0.62547E-03   -0.11215E-01 33184   0.121E+00    0.523E-02
DAV:  34    -0.145521860577E+03   -0.67986E-03   -0.10919E-01 33184   0.118E+00    0.406E-02
DAV:  35    -0.145521185252E+03    0.67532E-03   -0.11246E-01 33184   0.122E+00    0.525E-02
DAV:  36    -0.145521877449E+03   -0.69220E-03   -0.10922E-01 33184   0.118E+00    0.410E-02
DAV:  37    -0.145521218351E+03    0.65910E-03   -0.11269E-01 33184   0.122E+00    0.525E-02
DAV:  38    -0.145521922403E+03   -0.70405E-03   -0.10995E-01 33184   0.118E+00    0.414E-02
DAV:  39    -0.145521230853E+03    0.69155E-03   -0.11295E-01 33184   0.122E+00    0.523E-02
DAV:  40    -0.145521947626E+03   -0.71677E-03   -0.11018E-01 33184   0.118E+00    0.417E-02
DAV:  41    -0.145521258582E+03    0.68904E-03   -0.11321E-01 33184   0.122E+00    0.523E-02
DAV:  42    -0.145521983545E+03   -0.72496E-03   -0.11080E-01 33184   0.119E+00    0.419E-02
DAV:  43    -0.145521276646E+03    0.70690E-03   -0.11349E-01 33184   0.122E+00    0.524E-02
DAV:  44    -0.145522008303E+03   -0.73166E-03   -0.11121E-01 33184   0.119E+00    0.420E-02
DAV:  45    -0.145521308147E+03    0.70016E-03   -0.11382E-01 33184   0.122E+00    0.528E-02
DAV:  46    -0.145522045407E+03   -0.73726E-03   -0.11195E-01 33184   0.119E+00    0.421E-02
DAV:  47    -0.145521329932E+03    0.71547E-03   -0.11423E-01 33184   0.122E+00    0.543E-02
DAV:  48    -0.145522037043E+03   -0.70711E-03   -0.11230E-01 33184   0.119E+00    0.418E-02
DAV:  49    -0.145521367864E+03    0.66918E-03   -0.11435E-01 33184   0.122E+00    0.551E-02
DAV:  50    -0.145522041371E+03   -0.67351E-03   -0.11284E-01 33184   0.119E+00    0.414E-02
DAV:  51    -0.145521390388E+03    0.65098E-03   -0.11433E-01 33184   0.121E+00    0.552E-02
DAV:  52    -0.145522014445E+03   -0.62406E-03   -0.11272E-01 33184   0.119E+00    0.405E-02
DAV:  53    -0.145521420790E+03    0.59366E-03   -0.11408E-01 33184   0.121E+00    0.556E-02
DAV:  54    -0.145522098882E+03   -0.67809E-03   -0.11359E-01 33184   0.120E+00    0.418E-02
DAV:  55    -0.145521446319E+03    0.65256E-03   -0.11482E-01 33184   0.121E+00    0.560E-02
DAV:  56    -0.145522093731E+03   -0.64741E-03   -0.11383E-01 33184   0.120E+00    0.415E-02
DAV:  57    -0.145521452429E+03    0.64130E-03   -0.11494E-01 33184   0.121E+00    0.587E-02
DAV:  58    -0.145521990497E+03   -0.53807E-03   -0.11385E-01 33184   0.120E+00    0.397E-02
DAV:  59    -0.145521446724E+03    0.54377E-03   -0.11399E-01 33184   0.120E+00    0.570E-02
DAV:  60    -0.145522169664E+03   -0.72294E-03   -0.11525E-01 33184   0.120E+00    0.430E-02
DAV:  61    -0.145521442486E+03    0.72718E-03   -0.11534E-01 33184   0.121E+00    0.553E-02
DAV:  62    -0.145522150892E+03   -0.70841E-03   -0.11549E-01 33184   0.120E+00    0.432E-02
DAV:  63    -0.145521458268E+03    0.69262E-03   -0.11560E-01 33184   0.120E+00    0.519E-02
DAV:  64    -0.145522524164E+03   -0.10659E-02   -0.11785E-01 33184   0.121E+00    0.494E-02
DAV:  65    -0.145521445983E+03    0.10782E-02   -0.11779E-01 33184   0.121E+00    0.507E-02
DAV:  66    -0.145522633682E+03   -0.11877E-02   -0.11826E-01 33184   0.121E+00    0.521E-02
DAV:  67    -0.145521556015E+03    0.10777E-02   -0.11915E-01 33184   0.122E+00    0.488E-02
DAV:  68    -0.145522925674E+03   -0.13697E-02   -0.12123E-01 33184   0.122E+00    0.554E-02
DAV:  69    -0.145521568461E+03    0.13572E-02   -0.12035E-01 33184   0.122E+00    0.456E-02
DAV:  70    -0.145522949817E+03   -0.13814E-02   -0.11998E-01 33184   0.122E+00    0.556E-02
DAV:  71    -0.145521611831E+03    0.13380E-02   -0.11929E-01 33184   0.121E+00    0.453E-02
DAV:  72    -0.145522859268E+03   -0.12474E-02   -0.11861E-01 33184   0.121E+00    0.530E-02
DAV:  73    -0.145521580156E+03    0.12791E-02   -0.11665E-01 33184   0.120E+00    0.464E-02
DAV:  74    -0.145522687363E+03   -0.11072E-02   -0.11609E-01 33184   0.120E+00    0.502E-02
DAV:  75    -0.145521550408E+03    0.11370E-02   -0.11420E-01 33184   0.119E+00    0.479E-02
DAV:  76    -0.145522619640E+03   -0.10692E-02   -0.11518E-01 33184   0.119E+00    0.494E-02
DAV:  77    -0.145521531322E+03    0.10883E-02   -0.11331E-01 33184   0.118E+00    0.489E-02
DAV:  78    -0.145522578885E+03   -0.10476E-02   -0.11468E-01 33184   0.119E+00    0.491E-02
DAV:  79    -0.145521533727E+03    0.10452E-02   -0.11295E-01 33184   0.117E+00    0.496E-02
DAV:  80    -0.145522575947E+03   -0.10422E-02   -0.11477E-01 33184   0.118E+00    0.490E-02
DAV:  81    -0.145521536841E+03    0.10391E-02   -0.11292E-01 33184   0.117E+00    0.501E-02
DAV:  82    -0.145522563329E+03   -0.10265E-02   -0.11470E-01 33184   0.118E+00    0.489E-02
DAV:  83    -0.145521549683E+03    0.10136E-02   -0.11286E-01 33184   0.117E+00    0.509E-02
DAV:  84    -0.145522563788E+03   -0.10141E-02   -0.11489E-01 33184   0.118E+00    0.489E-02
DAV:  85    -0.145521559734E+03    0.10041E-02   -0.11292E-01 33184   0.116E+00    0.515E-02
DAV:  86    -0.145522561319E+03   -0.10016E-02   -0.11498E-01 33184   0.118E+00    0.489E-02
DAV:  87    -0.145521574444E+03    0.98687E-03   -0.11303E-01 33184   0.116E+00    0.526E-02
DAV:  88    -0.145522509105E+03   -0.93466E-03   -0.11488E-01 33184   0.118E+00    0.481E-02
DAV:  89    -0.145521578990E+03    0.93011E-03   -0.11270E-01 33184   0.116E+00    0.537E-02
DAV:  90    -0.145522481333E+03   -0.90234E-03   -0.11481E-01 33184   0.117E+00    0.477E-02
DAV:  91    -0.145521590163E+03    0.89117E-03   -0.11261E-01 33184   0.116E+00    0.546E-02
DAV:  92    -0.145522485882E+03   -0.89572E-03   -0.11508E-01 33184   0.117E+00    0.479E-02
DAV:  93    -0.145521598453E+03    0.88743E-03   -0.11279E-01 33184   0.115E+00    0.551E-02
DAV:  94    -0.145522495025E+03   -0.89657E-03   -0.11527E-01 33184   0.117E+00    0.482E-02
DAV:  95    -0.145521610703E+03    0.88432E-03   -0.11296E-01 33184   0.115E+00    0.555E-02
DAV:  96    -0.145522505341E+03   -0.89464E-03   -0.11550E-01 33184   0.117E+00    0.485E-02
DAV:  97    -0.145521623446E+03    0.88189E-03   -0.11310E-01 33184   0.115E+00    0.563E-02
DAV:  98    -0.145522488696E+03   -0.86525E-03   -0.11548E-01 33184   0.117E+00    0.484E-02
DAV:  99    -0.145521630806E+03    0.85789E-03   -0.11297E-01 33184   0.115E+00    0.566E-02
DAV: 100    -0.145522508031E+03   -0.87723E-03   -0.11568E-01 33184   0.117E+00
 -----------------------------------------------------------------------------
|                                                                             |
|           W    W    AA    RRRRR   N    N  II  N    N   GGGG   !!!           |
|           W    W   A  A   R    R  NN   N  II  NN   N  G    G  !!!           |
|           W    W  A    A  R    R  N N  N  II  N N  N  G       !!!           |
|           W WW W  AAAAAA  RRRRR   N  N N  II  N  N N  G  GGG   !            |
|           WW  WW  A    A  R   R   N   NN  II  N   NN  G    G                |
|           W    W  A    A  R    R  N    N  II  N    N   GGGG   !!!           |
|                                                                             |
|     The electronic self-consistency was not achieved in the given           |
|     number of steps (NELM). The forces and other quantities evaluated       |
|     might not be reliable so examine the results carefully. If you find     |
|     spurious results, we suggest increasing NELM, if you were close to      |
|     convergence or switching to a different ALGO or adjusting the           |
|     density mixing parameters otherwise.                                    |
|                                                                             |
 -----------------------------------------------------------------------------

   4 F= -.14552251E+03 E0= -.14551548E+03  d E =-.197469E-01  mag=     0.9867
 trial-energy change:   -0.019747  1 .order   -0.011849   -0.014228   -0.009470
 step:   4.4432(harm=  4.4432)  dis= 0.01680  next Energy=  -145.524032 (dE=-0.213E-01)
 bond charge predicted
       N       E                     dE             d eps       ncg     rms          rms(c)
DAV:   1    -0.145737482245E+03   -0.21585E+00   -0.14005E+01 33184   0.175E+01    0.302E+00
DAV:   2    -0.145698743264E+03    0.38739E-01   -0.10997E+00 40112   0.413E+00    0.345E+00
DAV:   3    -0.145613431927E+03    0.85311E-01   -0.72252E-01 34208   0.296E+00    0.224E+00
DAV:   4    -0.145579104492E+03    0.34327E-01   -0.35932E-01 39064   0.260E+00    0.148E+00
DAV:   5    -0.145597181139E+03   -0.18077E-01   -0.17527E-01 36812   0.155E+00    0.168E+00
DAV:   6    -0.145595908240E+03    0.12729E-02   -0.62024E-02 33712   0.125E+00    0.164E+00
DAV:   7    -0.145592042682E+03    0.38656E-02   -0.46897E-02 34824   0.940E-01    0.163E+00
DAV:   8    -0.145593755977E+03   -0.17133E-02   -0.49133E-02 33192   0.898E-01    0.161E+00
DAV:   9    -0.145589726717E+03    0.40293E-02   -0.60075E-02 33192   0.102E+00    0.165E+00
DAV:  10    -0.145606227382E+03   -0.16501E-01   -0.17789E-01 33240   0.194E+00    0.147E+00
DAV:  11    -0.145598669896E+03    0.75575E-02   -0.52079E-01 36760   0.297E+00    0.168E+00
DAV:  12    -0.145593831105E+03    0.48388E-02   -0.14441E-01 35072   0.148E+00    0.146E+00
DAV:  13    -0.145608080796E+03   -0.14250E-01   -0.68260E-02 35356   0.106E+00    0.164E+00
DAV:  14    -0.145602970670E+03    0.51101E-02   -0.42474E-02 33936   0.895E-01    0.170E+00
DAV:  15    -0.145606880540E+03   -0.39099E-02   -0.44181E-02 33744   0.870E-01    0.158E+00
DAV:  16    -0.145613135951E+03   -0.62554E-02   -0.25203E-01 34060   0.190E+00    0.124E+00
DAV:  17    -0.145632234745E+03   -0.19099E-01   -0.17711E-01 36784   0.153E+00    0.179E+00
DAV:  18    -0.145638629881E+03   -0.63951E-02   -0.73966E-02 34132   0.123E+00    0.176E+00
DAV:  19    -0.145635087585E+03    0.35423E-02   -0.46844E-02 34708   0.878E-01    0.177E+00
DAV:  20    -0.145651793274E+03   -0.16706E-01   -0.96173E-02 33456   0.135E+00    0.192E+00
DAV:  21    -0.145647581773E+03    0.42115E-02   -0.13043E-01 36184   0.137E+00    0.216E+00
DAV:  22    -0.145653374059E+03   -0.57923E-02   -0.35672E-02 35716   0.817E-01    0.219E+00
DAV:  23    -0.145657563329E+03   -0.41893E-02   -0.31770E-02 34308   0.777E-01    0.219E+00
DAV:  24    -0.145660157219E+03   -0.25939E-02   -0.21491E-02 33828   0.600E-01    0.212E+00
DAV:  25    -0.145658948167E+03    0.12091E-02   -0.31590E-02 33500   0.752E-01    0.215E+00
DAV:  26    -0.145659059752E+03   -0.11159E-03   -0.44711E-02 33520   0.830E-01    0.214E+00
DAV:  27    -0.145655119076E+03    0.39407E-02   -0.48641E-02 33532   0.907E-01    0.207E+00
DAV:  28    -0.145654087807E+03    0.10313E-02   -0.42783E-02 35224   0.843E-01    0.199E+00
DAV:  29    -0.145648868296E+03    0.52195E-02   -0.23898E-02 35108   0.636E-01    0.189E+00
DAV:  30    -0.145650350989E+03   -0.14827E-02   -0.11367E-02 34680   0.406E-01    0.189E+00
DAV:  31    -0.145647151534E+03    0.31995E-02   -0.14612E-02 33768   0.557E-01    0.178E+00
DAV:  32    -0.145648054267E+03   -0.90273E-03   -0.28902E-02 34148   0.717E-01    0.196E+00
DAV:  33    -0.145638437296E+03    0.96170E-02   -0.58241E-01 35272   0.265E+00    0.196E+00
DAV:  34    -0.145625205436E+03    0.13232E-01   -0.12856E-01 35496   0.135E+00    0.188E+00
DAV:  35    -0.145627662239E+03   -0.24568E-02   -0.57331E-02 35400   0.908E-01    0.185E+00
DAV:  36    -0.145618091992E+03    0.95702E-02   -0.32000E-02 33900   0.764E-01    0.196E+00
DAV:  37    -0.145616829159E+03    0.12628E-02   -0.21903E-02 34052   0.682E-01    0.183E+00
DAV:  38    -0.145615874876E+03    0.95428E-03   -0.27888E-02 34624   0.725E-01    0.173E+00
DAV:  39    -0.145624304129E+03   -0.84293E-02   -0.10112E-01 33400   0.139E+00    0.185E+00
DAV:  40    -0.145627072557E+03   -0.27684E-02   -0.11053E-01 35188   0.122E+00    0.143E+00
DAV:  41    -0.145635818672E+03   -0.87461E-02   -0.39090E-02 36672   0.701E-01    0.160E+00
DAV:  42    -0.145636284792E+03   -0.46612E-03   -0.17954E-02 34588   0.527E-01    0.134E+00
DAV:  43    -0.145640198556E+03   -0.39138E-02   -0.11650E-02 34572   0.443E-01    0.142E+00
DAV:  44    -0.145639939549E+03    0.25901E-03   -0.97538E-03 33288   0.423E-01    0.135E+00
DAV:  45    -0.145641880533E+03   -0.19410E-02   -0.12869E-02 33340   0.497E-01    0.138E+00
DAV:  46    -0.145641257415E+03    0.62312E-03   -0.15260E-02 33316   0.545E-01    0.147E+00
DAV:  47    -0.145665765822E+03   -0.24508E-01   -0.49404E-01 33968   0.266E+00    0.195E+00
DAV:  48    -0.145654817081E+03    0.10949E-01   -0.39455E-01 33764   0.242E+00    0.835E-01
DAV:  49    -0.145664804134E+03   -0.99871E-02   -0.22681E-01 33336   0.172E+00    0.140E+00
DAV:  50    -0.145659597746E+03    0.52064E-02   -0.13839E-01 33216   0.155E+00    0.590E-01
DAV:  51    -0.145658885790E+03    0.71196E-03   -0.79144E-02 34280   0.119E+00    0.896E-01
DAV:  52    -0.145663048275E+03   -0.41625E-02   -0.95611E-02 33604   0.129E+00    0.674E-01
DAV:  53    -0.145661499818E+03    0.15485E-02   -0.10959E-01 33220   0.140E+00    0.662E-01
DAV:  54    -0.145663214213E+03   -0.17144E-02   -0.85587E-02 33212   0.116E+00    0.632E-01
DAV:  55    -0.145663560308E+03   -0.34610E-03   -0.70527E-02 33440   0.107E+00    0.693E-01
DAV:  56    -0.145663767279E+03   -0.20697E-03   -0.65057E-02 33212   0.101E+00    0.633E-01
DAV:  57    -0.145664719227E+03   -0.95195E-03   -0.74589E-02 33216   0.111E+00    0.625E-01
DAV:  58    -0.145666861940E+03   -0.21427E-02   -0.68790E-02 33344   0.102E+00    0.645E-01
DAV:  59    -0.145666995147E+03   -0.13321E-03   -0.68183E-02 33204   0.103E+00    0.659E-01
DAV:  60    -0.145667889307E+03   -0.89416E-03   -0.72132E-02 33196   0.107E+00    0.618E-01
DAV:  61    -0.145666961915E+03    0.92739E-03   -0.88346E-02 33296   0.114E+00    0.617E-01
DAV:  62    -0.145669034147E+03   -0.20722E-02   -0.10922E-01 33240   0.140E+00    0.583E-01
DAV:  63    -0.145666951556E+03    0.20826E-02   -0.86348E-02 33200   0.119E+00    0.582E-01
DAV:  64    -0.145670991848E+03   -0.40403E-02   -0.10532E-01 33192   0.127E+00    0.553E-01
DAV:  65    -0.145668548573E+03    0.24433E-02   -0.13542E-01 33184   0.142E+00    0.552E-01
DAV:  66    -0.145672743024E+03   -0.41945E-02   -0.14000E-01 33184   0.144E+00    0.544E-01
DAV:  67    -0.145671189349E+03    0.15537E-02   -0.45889E-01 35232   0.252E+00    0.115E+00
DAV:  68    -0.145666405413E+03    0.47839E-02   -0.21148E-01 33184   0.183E+00    0.475E-01
DAV:  69    -0.145669203421E+03   -0.27980E-02   -0.16271E-01 33232   0.162E+00    0.769E-01
DAV:  70    -0.145665427701E+03    0.37757E-02   -0.13167E-01 33184   0.141E+00    0.579E-01
DAV:  71    -0.145667596813E+03   -0.21691E-02   -0.12025E-01 33184   0.129E+00    0.587E-01
DAV:  72    -0.145664008075E+03    0.35887E-02   -0.13370E-01 33184   0.157E+00    0.473E-01
DAV:  73    -0.145662496174E+03    0.15119E-02   -0.10019E-01 33712   0.121E+00    0.546E-01
DAV:  74    -0.145663898631E+03   -0.14025E-02   -0.10365E-01 33488   0.134E+00    0.439E-01
DAV:  75    -0.145659167465E+03    0.47312E-02   -0.10461E-01 34300   0.128E+00    0.434E-01
DAV:  76    -0.145663835256E+03   -0.46678E-02   -0.95385E-02 34048   0.129E+00    0.480E-01
DAV:  77    -0.145681681859E+03   -0.17847E-01   -0.50244E-01 36552   0.250E+00    0.125E+00
DAV:  78    -0.145682186557E+03   -0.50470E-03   -0.96098E-02 34132   0.143E+00    0.106E+00
DAV:  79    -0.145681414473E+03    0.77208E-03   -0.22691E-02 35828   0.705E-01    0.107E+00
DAV:  80    -0.145681004969E+03    0.40950E-03   -0.16589E-02 34024   0.620E-01    0.107E+00
DAV:  81    -0.145677759127E+03    0.32458E-02   -0.19661E-02 33660   0.662E-01    0.102E+00
DAV:  82    -0.145677950867E+03   -0.19174E-03   -0.21287E-02 33476   0.675E-01    0.102E+00
DAV:  83    -0.145679621166E+03   -0.16703E-02   -0.21841E-02 33392   0.660E-01    0.108E+00
DAV:  84    -0.145678795131E+03    0.82604E-03   -0.20487E-02 32896   0.649E-01    0.104E+00
DAV:  85    -0.145674822173E+03    0.39730E-02   -0.24762E-02 33372   0.719E-01    0.967E-01
DAV:  86    -0.145672280667E+03    0.25415E-02   -0.29396E-02 33728   0.709E-01    0.856E-01
DAV:  87    -0.145677052948E+03   -0.47723E-02   -0.28349E-02 33288   0.775E-01    0.995E-01
DAV:  88    -0.145675697495E+03    0.13555E-02   -0.29138E-02 33264   0.735E-01    0.857E-01
DAV:  89    -0.145673176409E+03    0.25211E-02   -0.28357E-02 33252   0.712E-01    0.815E-01
DAV:  90    -0.145674870270E+03   -0.16939E-02   -0.16558E-02 33236   0.563E-01    0.857E-01
DAV:  91    -0.145674101743E+03    0.76853E-03   -0.13120E-02 32264   0.536E-01    0.866E-01
DAV:  92    -0.145681072824E+03   -0.69711E-02   -0.27486E-02 33272   0.766E-01    0.102E+00
DAV:  93    -0.145675263310E+03    0.58095E-02   -0.24760E-02 33232   0.773E-01    0.900E-01
DAV:  94    -0.145677147775E+03   -0.18845E-02   -0.14951E-02 33228   0.567E-01    0.952E-01
DAV:  95    -0.145675480690E+03    0.16671E-02   -0.14468E-02 33096   0.556E-01    0.904E-01
DAV:  96    -0.145674316354E+03    0.11643E-02   -0.20021E-02 33264   0.617E-01    0.847E-01
DAV:  97    -0.145672656453E+03    0.16599E-02   -0.19697E-02 33208   0.672E-01    0.778E-01
DAV:  98    -0.145674538828E+03   -0.18824E-02   -0.18616E-02 33200   0.616E-01    0.802E-01
DAV:  99    -0.145674510242E+03    0.28585E-04   -0.17890E-02 32680   0.628E-01    0.801E-01
DAV: 100    -0.145676134142E+03   -0.16239E-02   -0.16565E-02 32416   0.580E-01
 -----------------------------------------------------------------------------
|                                                                             |
|           W    W    AA    RRRRR   N    N  II  N    N   GGGG   !!!           |
|           W    W   A  A   R    R  NN   N  II  NN   N  G    G  !!!           |
|           W    W  A    A  R    R  N N  N  II  N N  N  G       !!!           |
|           W WW W  AAAAAA  RRRRR   N  N N  II  N  N N  G  GGG   !            |
|           WW  WW  A    A  R   R   N   NN  II  N   NN  G    G                |
|           W    W  A    A  R    R  N    N  II  N    N   GGGG   !!!           |
|                                                                             |
|     The electronic self-consistency was not achieved in the given           |
|     number of steps (NELM). The forces and other quantities evaluated       |
|     might not be reliable so examine the results carefully. If you find     |
|     spurious results, we suggest increasing NELM, if you were close to      |
|     convergence or switching to a different ALGO or adjusting the           |
|     density mixing parameters otherwise.                                    |
|                                                                             |
 -----------------------------------------------------------------------------

   5 F= -.14567613E+03 E0= -.14566892E+03  d E =-.173373E+00  mag=     1.6111
 curvature:  -2.62 expect dE=-0.938E-01 dE for cont linesearch -0.288E-02
 ZBRENT: interpolating
 opt :   3.3906  next Energy=  -145.677988 (dE=-0.175E+00)
 bond charge predicted
       N       E                     dE             d eps       ncg     rms          rms(c)
DAV:   1    -0.145706051772E+03   -0.31542E-01   -0.17793E+00 33184   0.630E+00    0.128E+00
DAV:   2    -0.145695345357E+03    0.10706E-01   -0.21651E-01 38296   0.213E+00    0.119E+00
DAV:   3    -0.145701692278E+03   -0.63469E-02   -0.13973E-01 36168   0.134E+00    0.146E+00
DAV:   4    -0.145705556816E+03   -0.38645E-02   -0.18153E-01 36848   0.143E+00    0.135E+00
DAV:   5    -0.145698925015E+03    0.66318E-02   -0.10317E-01 35884   0.147E+00    0.709E-01
DAV:   6    -0.145703541413E+03   -0.46164E-02   -0.11195E-01 34520   0.149E+00    0.754E-01
DAV:   7    -0.145710629055E+03   -0.70876E-02   -0.11034E-01 36228   0.131E+00    0.925E-01
DAV:   8    -0.145713255953E+03   -0.26269E-02   -0.11210E-01 33212   0.141E+00    0.104E+00
DAV:   9    -0.145706119775E+03    0.71362E-02   -0.11626E-01 33240   0.141E+00    0.699E-01
DAV:  10    -0.145704072071E+03    0.20477E-02   -0.18306E-01 34744   0.179E+00    0.501E-01
DAV:  11    -0.145703432691E+03    0.63938E-03   -0.11462E-01 33184   0.143E+00    0.404E-01
DAV:  12    -0.145706630159E+03   -0.31975E-02   -0.10507E-01 34200   0.132E+00    0.267E-01
DAV:  13    -0.145704460319E+03    0.21698E-02   -0.11650E-01 33184   0.135E+00    0.274E-01
DAV:  14    -0.145708014992E+03   -0.35547E-02   -0.12428E-01 33184   0.140E+00    0.231E-01
DAV:  15    -0.145705130150E+03    0.28848E-02   -0.13111E-01 33184   0.140E+00    0.167E-01
DAV:  16    -0.145709238424E+03   -0.41083E-02   -0.13897E-01 33184   0.145E+00    0.214E-01
DAV:  17    -0.145706431388E+03    0.28070E-02   -0.14681E-01 33184   0.147E+00    0.150E-01
DAV:  18    -0.145710683317E+03   -0.42519E-02   -0.15285E-01 33216   0.151E+00    0.167E-01
DAV:  19    -0.145707612309E+03    0.30710E-02   -0.15120E-01 33184   0.148E+00    0.165E-01
DAV:  20    -0.145711872876E+03   -0.42606E-02   -0.15763E-01 33184   0.152E+00    0.188E-01
DAV:  21    -0.145708070653E+03    0.38022E-02   -0.15637E-01 33184   0.150E+00    0.172E-01
DAV:  22    -0.145712080928E+03   -0.40103E-02   -0.15937E-01 33184   0.152E+00    0.196E-01
DAV:  23    -0.145708128285E+03    0.39526E-02   -0.15546E-01 33184   0.148E+00    0.178E-01
DAV:  24    -0.145712350224E+03   -0.42219E-02   -0.16124E-01 33184   0.152E+00    0.198E-01
DAV:  25    -0.145708219745E+03    0.41305E-02   -0.16082E-01 33184   0.151E+00    0.167E-01
DAV:  26    -0.145712224901E+03   -0.40052E-02   -0.16344E-01 33184   0.153E+00    0.187E-01
DAV:  27    -0.145708299754E+03    0.39251E-02   -0.16305E-01 33184   0.152E+00    0.161E-01
DAV:  28    -0.145711940463E+03   -0.36407E-02   -0.16574E-01 33184   0.154E+00    0.183E-01
DAV:  29    -0.145708399838E+03    0.35406E-02   -0.16622E-01 33184   0.154E+00    0.157E-01
DAV:  30    -0.145712006511E+03   -0.36067E-02   -0.16917E-01 33184   0.155E+00    0.170E-01
DAV:  31    -0.145708547303E+03    0.34592E-02   -0.16807E-01 33184   0.154E+00    0.152E-01
DAV:  32    -0.145712148783E+03   -0.36015E-02   -0.17063E-01 33184   0.155E+00    0.174E-01
DAV:  33    -0.145708614691E+03    0.35341E-02   -0.16832E-01 33184   0.155E+00    0.152E-01
DAV:  34    -0.145712312964E+03   -0.36983E-02   -0.17148E-01 33184   0.155E+00    0.174E-01
DAV:  35    -0.145708952991E+03    0.33600E-02   -0.17299E-01 33184   0.156E+00    0.154E-01
DAV:  36    -0.145711810253E+03   -0.28573E-02   -0.17028E-01 33184   0.154E+00    0.164E-01
DAV:  37    -0.145709168295E+03    0.26420E-02   -0.17110E-01 33184   0.157E+00    0.159E-01
forrtl: error (78): process killed (SIGTERM)
Image              PC                Routine            Line        Source             
vasp_std           0000000006498474  Unknown               Unknown  Unknown
libpthread-2.17.s  00002B1AEE1A35F0  Unknown               Unknown  Unknown
vasp_std           000000000189AC6A  Unknown               Unknown  Unknown
vasp_std           000000000188DC11  Unknown               Unknown  Unknown
vasp_std           000000000188F164  Unknown               Unknown  Unknown
vasp_std           0000000001891BC4  Unknown               Unknown  Unknown
vasp_std           00000000006D5FC9  Unknown               Unknown  Unknown
vasp_std           00000000006D2358  Unknown               Unknown  Unknown
vasp_std           0000000000E4BE43  Unknown               Unknown  Unknown
vasp_std           0000000000EC6C9E  Unknown               Unknown  Unknown
vasp_std           0000000001937477  Unknown               Unknown  Unknown
vasp_std           0000000001911A78  Unknown               Unknown  Unknown
vasp_std           000000000040B822  Unknown               Unknown  Unknown
libc-2.17.so       00002B1AEFE9A505  __libc_start_main     Unknown  Unknown
vasp_std           000000000040B729  Unknown               Unknown  Unknown
forrtl: error (78): process killed (SIGTERM)
Image              PC                Routine            Line        Source             
vasp_std           0000000006498474  Unknown               Unknown  Unknown
libpthread-2.17.s  00002B81C68EB5F0  Unknown               Unknown  Unknown
vasp_std           000000000189AC5A  Unknown               Unknown  Unknown
vasp_std           000000000188DC11  Unknown               Unknown  Unknown
vasp_std           000000000188F164  Unknown               Unknown  Unknown
vasp_std           0000000001891BC4  Unknown               Unknown  Unknown
vasp_std           00000000006D5FC9  Unknown               Unknown  Unknown
vasp_std           00000000006D2358  Unknown               Unknown  Unknown
vasp_std           0000000000E4BE43  Unknown               Unknown  Unknown
vasp_std           0000000000EC6C9E  Unknown               Unknown  Unknown
vasp_std           0000000001937477  Unknown               Unknown  Unknown
vasp_std           0000000001911A78  Unknown               Unknown  Unknown
vasp_std           000000000040B822  Unknown               Unknown  Unknown
libc-2.17.so       00002B81C85E2505  __libc_start_main     Unknown  Unknown
vasp_std           000000000040B729  Unknown               Unknown  Unknown
forrtl: error (78): process killed (SIGTERM)
Image              PC                Routine            Line        Source             
vasp_std           0000000006498474  Unknown               Unknown  Unknown
libpthread-2.17.s  00002B69C57665F0  Unknown               Unknown  Unknown
vasp_std           0000000002C5E16A  Unknown               Unknown  Unknown
vasp_std           0000000001CBDA18  Unknown               Unknown  Unknown
vasp_std           0000000001B1AD08  Unknown               Unknown  Unknown
vasp_std           0000000001B1A39F  Unknown               Unknown  Unknown
vasp_std           000000000188DBC5  Unknown               Unknown  Unknown
vasp_std           000000000188F164  Unknown               Unknown  Unknown
vasp_std           0000000001891BC4  Unknown               Unknown  Unknown
vasp_std           00000000006D5FC9  Unknown               Unknown  Unknown
vasp_std           00000000006D2358  Unknown               Unknown  Unknown
vasp_std           0000000000E4BE43  Unknown               Unknown  Unknown
vasp_std           0000000000EC6C9E  Unknown               Unknown  Unknown
vasp_std           0000000001937477  Unknown               Unknown  Unknown
vasp_std           0000000001911A78  Unknown               Unknown  Unknown
vasp_std           000000000040B822  Unknown               Unknown  Unknown
libc-2.17.so       00002B69C745D505  __libc_start_main     Unknown  Unknown
vasp_std           000000000040B729  Unknown               Unknown  Unknown
forrtl: error (78): process killed (SIGTERM)
Image              PC                Routine            Line        Source             
vasp_std           0000000006498474  Unknown               Unknown  Unknown
libpthread-2.17.s  00002B478DD535F0  Unknown               Unknown  Unknown
vasp_std           0000000002C5E09F  Unknown               Unknown  Unknown
vasp_std           0000000001CBDA18  Unknown               Unknown  Unknown
vasp_std           0000000001B1AD08  Unknown               Unknown  Unknown
vasp_std           0000000001B1A39F  Unknown               Unknown  Unknown
vasp_std           000000000188DBC5  Unknown               Unknown  Unknown
vasp_std           000000000188F164  Unknown               Unknown  Unknown
vasp_std           0000000001891BC4  Unknown               Unknown  Unknown
vasp_std           00000000006D5FC9  Unknown               Unknown  Unknown
vasp_std           00000000006D2358  Unknown               Unknown  Unknown
vasp_std           0000000000E4BE43  Unknown               Unknown  Unknown
vasp_std           0000000000EC6C9E  Unknown               Unknown  Unknown
vasp_std           0000000001937477  Unknown               Unknown  Unknown
vasp_std           0000000001911A78  Unknown               Unknown  Unknown
vasp_std           000000000040B822  Unknown               Unknown  Unknown
libc-2.17.so       00002B478FA4A505  __libc_start_main     Unknown  Unknown
vasp_std           000000000040B729  Unknown               Unknown  Unknown
forrtl: error (78): process killed (SIGTERM)
Image              PC                Routine            Line        Source             
vasp_std           0000000006498474  Unknown               Unknown  Unknown
libpthread-2.17.s  00002AAF251285F0  Unknown               Unknown  Unknown
vasp_std           0000000002C86468  Unknown               Unknown  Unknown
vasp_std           0000000001CBE4DB  Unknown               Unknown  Unknown
vasp_std           0000000001B1AD08  Unknown               Unknown  Unknown
vasp_std           0000000001B1A39F  Unknown               Unknown  Unknown
vasp_std           000000000188DBC5  Unknown               Unknown  Unknown
vasp_std           000000000188F164  Unknown               Unknown  Unknown
vasp_std           0000000001891BC4  Unknown               Unknown  Unknown
vasp_std           00000000006D5FC9  Unknown               Unknown  Unknown
vasp_std           00000000006D2358  Unknown               Unknown  Unknown
vasp_std           0000000000E4BE43  Unknown               Unknown  Unknown
vasp_std           0000000000EC6C9E  Unknown               Unknown  Unknown
vasp_std           0000000001937477  Unknown               Unknown  Unknown
vasp_std           0000000001911A78  Unknown               Unknown  Unknown
vasp_std           000000000040B822  Unknown               Unknown  Unknown
libc-2.17.so       00002AAF26E1F505  __libc_start_main     Unknown  Unknown
vasp_std           000000000040B729  Unknown               Unknown  Unknown
forrtl: error (78): process killed (SIGTERM)
Image              PC                Routine            Line        Source             
vasp_std           0000000006498474  Unknown               Unknown  Unknown
libpthread-2.17.s  00002B623CD375F0  Unknown               Unknown  Unknown
vasp_std           0000000002C5E15D  Unknown               Unknown  Unknown
vasp_std           0000000001CBDA18  Unknown               Unknown  Unknown
vasp_std           0000000001B1AD08  Unknown               Unknown  Unknown
vasp_std           0000000001B1A39F  Unknown               Unknown  Unknown
vasp_std           000000000188DBC5  Unknown               Unknown  Unknown
vasp_std           000000000188F164  Unknown               Unknown  Unknown
vasp_std           0000000001891BC4  Unknown               Unknown  Unknown
vasp_std           00000000006D5FC9  Unknown               Unknown  Unknown
vasp_std           00000000006D2358  Unknown               Unknown  Unknown
vasp_std           0000000000E4BE43  Unknown               Unknown  Unknown
vasp_std           0000000000EC6C9E  Unknown               Unknown  Unknown
vasp_std           0000000001937477  Unknown               Unknown  Unknown
vasp_std           0000000001911A78  Unknown               Unknown  Unknown
vasp_std           000000000040B822  Unknown               Unknown  Unknown
libc-2.17.so       00002B623EA2E505  __libc_start_main     Unknown  Unknown
vasp_std           000000000040B729  Unknown               Unknown  Unknown
forrtl: error (78): process killed (SIGTERM)
Image              PC                Routine            Line        Source             
vasp_std           0000000006498474  Unknown               Unknown  Unknown
libpthread-2.17.s  00002B08FDDE75F0  Unknown               Unknown  Unknown
vasp_std           0000000002C5E0CA  Unknown               Unknown  Unknown
vasp_std           0000000001CBDA18  Unknown               Unknown  Unknown
vasp_std           0000000001B1AD08  Unknown               Unknown  Unknown
vasp_std           0000000001B1A39F  Unknown               Unknown  Unknown
vasp_std           000000000188DBC5  Unknown               Unknown  Unknown
vasp_std           000000000188F164  Unknown               Unknown  Unknown
vasp_std           0000000001891BC4  Unknown               Unknown  Unknown
vasp_std           00000000006D5FC9  Unknown               Unknown  Unknown
vasp_std           00000000006D2358  Unknown               Unknown  Unknown
vasp_std           0000000000E4BE43  Unknown               Unknown  Unknown
vasp_std           0000000000EC6C9E  Unknown               Unknown  Unknown
vasp_std           0000000001937477  Unknown               Unknown  Unknown
vasp_std           0000000001911A78  Unknown               Unknown  Unknown
vasp_std           000000000040B822  Unknown               Unknown  Unknown
libc-2.17.so       00002B08FFADE505  __libc_start_main     Unknown  Unknown
vasp_std           000000000040B729  Unknown               Unknown  Unknown
forrtl: error (78): process killed (SIGTERM)
Image              PC                Routine            Line        Source             
vasp_std           0000000006498474  Unknown               Unknown  Unknown
libpthread-2.17.s  00002B36024CC5F0  Unknown               Unknown  Unknown
vasp_std           0000000002C86259  Unknown               Unknown  Unknown
vasp_std           0000000001CBE4DB  Unknown               Unknown  Unknown
vasp_std           0000000001B1AD08  Unknown               Unknown  Unknown
vasp_std           0000000001B1A39F  Unknown               Unknown  Unknown
vasp_std           000000000188DBC5  Unknown               Unknown  Unknown
vasp_std           000000000188F164  Unknown               Unknown  Unknown
vasp_std           0000000001891BC4  Unknown               Unknown  Unknown
vasp_std           00000000006D5FC9  Unknown               Unknown  Unknown
vasp_std           00000000006D2358  Unknown               Unknown  Unknown
vasp_std           0000000000E4BE43  Unknown               Unknown  Unknown
vasp_std           0000000000EC6C9E  Unknown               Unknown  Unknown
vasp_std           0000000001937477  Unknown               Unknown  Unknown
vasp_std           0000000001911A78  Unknown               Unknown  Unknown
vasp_std           000000000040B822  Unknown               Unknown  Unknown
libc-2.17.so       00002B36041C3505  __libc_start_main     Unknown  Unknown
vasp_std           000000000040B729  Unknown               Unknown  Unknown
forrtl: error (78): process killed (SIGTERM)
Image              PC                Routine            Line        Source             
vasp_std           0000000006498474  Unknown               Unknown  Unknown
libpthread-2.17.s  00002B4D826155F0  Unknown               Unknown  Unknown
vasp_std           0000000002C5E1CA  Unknown               Unknown  Unknown
vasp_std           0000000001CBDA18  Unknown               Unknown  Unknown
vasp_std           0000000001B1AD08  Unknown               Unknown  Unknown
vasp_std           0000000001B1A39F  Unknown               Unknown  Unknown
vasp_std           000000000188DBC5  Unknown               Unknown  Unknown
vasp_std           000000000188F164  Unknown               Unknown  Unknown
vasp_std           0000000001891BC4  Unknown               Unknown  Unknown
vasp_std           00000000006D5FC9  Unknown               Unknown  Unknown
vasp_std           00000000006D2358  Unknown               Unknown  Unknown
vasp_std           0000000000E4BE43  Unknown               Unknown  Unknown
vasp_std           0000000000EC6C9E  Unknown               Unknown  Unknown
vasp_std           0000000001937477  Unknown               Unknown  Unknown
vasp_std           0000000001911A78  Unknown               Unknown  Unknown
vasp_std           000000000040B822  Unknown               Unknown  Unknown
libc-2.17.so       00002B4D8430C505  __libc_start_main     Unknown  Unknown
vasp_std           000000000040B729  Unknown               Unknown  Unknown
forrtl: error (78): process killed (SIGTERM)
Image              PC                Routine            Line        Source             
vasp_std           0000000006498474  Unknown               Unknown  Unknown
libpthread-2.17.s  00002BA3579995F0  Unknown               Unknown  Unknown
vasp_std           0000000002C5E18D  Unknown               Unknown  Unknown
vasp_std           0000000001CBDA18  Unknown               Unknown  Unknown
vasp_std           0000000001B1AD08  Unknown               Unknown  Unknown
vasp_std           0000000001B1A39F  Unknown               Unknown  Unknown
vasp_std           000000000188DBC5  Unknown               Unknown  Unknown
vasp_std           000000000188F164  Unknown               Unknown  Unknown
vasp_std           0000000001891BC4  Unknown               Unknown  Unknown
vasp_std           00000000006D5FC9  Unknown               Unknown  Unknown
vasp_std           00000000006D2358  Unknown               Unknown  Unknown
vasp_std           0000000000E4BE43  Unknown               Unknown  Unknown
vasp_std           0000000000EC6C9E  Unknown               Unknown  Unknown
vasp_std           0000000001937477  Unknown               Unknown  Unknown
vasp_std           0000000001911A78  Unknown               Unknown  Unknown
vasp_std           000000000040B822  Unknown               Unknown  Unknown
libc-2.17.so       00002BA359690505  __libc_start_main     Unknown  Unknown
vasp_std           000000000040B729  Unknown               Unknown  Unknown
forrtl: error (78): process killed (SIGTERM)
Image              PC                Routine            Line        Source             
vasp_std           0000000006498474  Unknown               Unknown  Unknown
libpthread-2.17.s  00002B84AFBD95F0  Unknown               Unknown  Unknown
vasp_std           0000000002C5E146  Unknown               Unknown  Unknown
vasp_std           0000000001CBDA18  Unknown               Unknown  Unknown
vasp_std           0000000001B1AD08  Unknown               Unknown  Unknown
vasp_std           0000000001B1A39F  Unknown               Unknown  Unknown
vasp_std           000000000188DBC5  Unknown               Unknown  Unknown
vasp_std           000000000188F164  Unknown               Unknown  Unknown
vasp_std           0000000001891BC4  Unknown               Unknown  Unknown
vasp_std           00000000006D5FC9  Unknown               Unknown  Unknown
vasp_std           00000000006D2358  Unknown               Unknown  Unknown
vasp_std           0000000000E4BE43  Unknown               Unknown  Unknown
vasp_std           0000000000EC6C9E  Unknown               Unknown  Unknown
vasp_std           0000000001937477  Unknown               Unknown  Unknown
vasp_std           0000000001911A78  Unknown               Unknown  Unknown
vasp_std           000000000040B822  Unknown               Unknown  Unknown
libc-2.17.so       00002B84B18D0505  __libc_start_main     Unknown  Unknown
vasp_std           000000000040B729  Unknown               Unknown  Unknown
forrtl: error (78): process killed (SIGTERM)
Image              PC                Routine            Line        Source             
vasp_std           0000000006498474  Unknown               Unknown  Unknown
libpthread-2.17.s  00002BA81CAB65F0  Unknown               Unknown  Unknown
vasp_std           0000000002C864C2  Unknown               Unknown  Unknown
vasp_std           0000000001CBE4DB  Unknown               Unknown  Unknown
vasp_std           0000000001B1AD08  Unknown               Unknown  Unknown
vasp_std           0000000001B1A39F  Unknown               Unknown  Unknown
vasp_std           000000000188DBC5  Unknown               Unknown  Unknown
vasp_std           000000000188F164  Unknown               Unknown  Unknown
vasp_std           0000000001891BC4  Unknown               Unknown  Unknown
vasp_std           00000000006D5FC9  Unknown               Unknown  Unknown
vasp_std           00000000006D2358  Unknown               Unknown  Unknown
vasp_std           0000000000E4BE43  Unknown               Unknown  Unknown
vasp_std           0000000000EC6C9E  Unknown               Unknown  Unknown
vasp_std           0000000001937477  Unknown               Unknown  Unknown
vasp_std           0000000001911A78  Unknown               Unknown  Unknown
vasp_std           000000000040B822  Unknown               Unknown  Unknown
libc-2.17.so       00002BA81E7AD505  __libc_start_main     Unknown  Unknown
vasp_std           000000000040B729  Unknown               Unknown  Unknown
forrtl: error (78): process killed (SIGTERM)
Image              PC                Routine            Line        Source             
vasp_std           0000000006498474  Unknown               Unknown  Unknown
libpthread-2.17.s  00002B81382FE5F0  Unknown               Unknown  Unknown
vasp_std           0000000002C5E162  Unknown               Unknown  Unknown
vasp_std           0000000001CBDA18  Unknown               Unknown  Unknown
vasp_std           0000000001B1AD08  Unknown               Unknown  Unknown
vasp_std           0000000001B1A39F  Unknown               Unknown  Unknown
vasp_std           000000000188DBC5  Unknown               Unknown  Unknown
vasp_std           000000000188F164  Unknown               Unknown  Unknown
vasp_std           0000000001891BC4  Unknown               Unknown  Unknown
vasp_std           00000000006D5FC9  Unknown               Unknown  Unknown
vasp_std           00000000006D2358  Unknown               Unknown  Unknown
vasp_std           0000000000E4BE43  Unknown               Unknown  Unknown
vasp_std           0000000000EC6C9E  Unknown               Unknown  Unknown
vasp_std           0000000001937477  Unknown               Unknown  Unknown
vasp_std           0000000001911A78  Unknown               Unknown  Unknown
vasp_std           000000000040B822  Unknown               Unknown  Unknown
libc-2.17.so       00002B8139FF5505  __libc_start_main     Unknown  Unknown
vasp_std           000000000040B729  Unknown               Unknown  Unknown
forrtl: error (78): process killed (SIGTERM)
Image              PC                Routine            Line        Source             
vasp_std           0000000006498474  Unknown               Unknown  Unknown
libpthread-2.17.s  00002B505E6F15F0  Unknown               Unknown  Unknown
vasp_std           0000000002C5DEF0  Unknown               Unknown  Unknown
vasp_std           0000000001CBDA18  Unknown               Unknown  Unknown
vasp_std           0000000001B1AD08  Unknown               Unknown  Unknown
vasp_std           0000000001B1A39F  Unknown               Unknown  Unknown
vasp_std           000000000188DBC5  Unknown               Unknown  Unknown
vasp_std           000000000188F164  Unknown               Unknown  Unknown
vasp_std           0000000001891BC4  Unknown               Unknown  Unknown
vasp_std           00000000006D5FC9  Unknown               Unknown  Unknown
vasp_std           00000000006D2358  Unknown               Unknown  Unknown
vasp_std           0000000000E4BE43  Unknown               Unknown  Unknown
vasp_std           0000000000EC6C9E  Unknown               Unknown  Unknown
vasp_std           0000000001937477  Unknown               Unknown  Unknown
vasp_std           0000000001911A78  Unknown               Unknown  Unknown
vasp_std           000000000040B822  Unknown               Unknown  Unknown
libc-2.17.so       00002B50603E8505  __libc_start_main     Unknown  Unknown
vasp_std           000000000040B729  Unknown               Unknown  Unknown
forrtl: error (78): process killed (SIGTERM)
Image              PC                Routine            Line        Source             
vasp_std           0000000006498474  Unknown               Unknown  Unknown
libpthread-2.17.s  00002B7BF6CC15F0  Unknown               Unknown  Unknown
vasp_std           0000000002C5E11A  Unknown               Unknown  Unknown
vasp_std           0000000001CBDA18  Unknown               Unknown  Unknown
vasp_std           0000000001B1AD08  Unknown               Unknown  Unknown
vasp_std           0000000001B1A39F  Unknown               Unknown  Unknown
vasp_std           000000000188DBC5  Unknown               Unknown  Unknown
vasp_std           000000000188F164  Unknown               Unknown  Unknown
vasp_std           0000000001891BC4  Unknown               Unknown  Unknown
vasp_std           00000000006D5FC9  Unknown               Unknown  Unknown
vasp_std           00000000006D2358  Unknown               Unknown  Unknown
vasp_std           0000000000E4BE43  Unknown               Unknown  Unknown
vasp_std           0000000000EC6C9E  Unknown               Unknown  Unknown
vasp_std           0000000001937477  Unknown               Unknown  Unknown
vasp_std           0000000001911A78  Unknown               Unknown  Unknown
vasp_std           000000000040B822  Unknown               Unknown  Unknown
libc-2.17.so       00002B7BF89B8505  __libc_start_main     Unknown  Unknown
vasp_std           000000000040B729  Unknown               Unknown  Unknown
forrtl: error (78): process killed (SIGTERM)
Image              PC                Routine            Line        Source             
vasp_std           0000000006498474  Unknown               Unknown  Unknown
libpthread-2.17.s  00002B714A5255F0  Unknown               Unknown  Unknown
vasp_std           0000000002C5E11F  Unknown               Unknown  Unknown
vasp_std           0000000001CBDA18  Unknown               Unknown  Unknown
vasp_std           0000000001B1AD08  Unknown               Unknown  Unknown
vasp_std           0000000001B1A39F  Unknown               Unknown  Unknown
vasp_std           000000000188DBC5  Unknown               Unknown  Unknown
vasp_std           000000000188F164  Unknown               Unknown  Unknown
vasp_std           0000000001891BC4  Unknown               Unknown  Unknown
vasp_std           00000000006D5FC9  Unknown               Unknown  Unknown
vasp_std           00000000006D2358  Unknown               Unknown  Unknown
vasp_std           0000000000E4BE43  Unknown               Unknown  Unknown
vasp_std           0000000000EC6C9E  Unknown               Unknown  Unknown
vasp_std           0000000001937477  Unknown               Unknown  Unknown
vasp_std           0000000001911A78  Unknown               Unknown  Unknown
vasp_std           000000000040B822  Unknown               Unknown  Unknown
libc-2.17.so       00002B714C21C505  __libc_start_main     Unknown  Unknown
vasp_std           000000000040B729  Unknown               Unknown  Unknown
forrtl: error (78): process killed (SIGTERM)
Image              PC                Routine            Line        Source             
vasp_std           0000000006498474  Unknown               Unknown  Unknown
libpthread-2.17.s  00002AC04B8A65F0  Unknown               Unknown  Unknown
vasp_std           0000000002C86468  Unknown               Unknown  Unknown
vasp_std           0000000001CBE4DB  Unknown               Unknown  Unknown
vasp_std           0000000001B1AD08  Unknown               Unknown  Unknown
vasp_std           0000000001B1A39F  Unknown               Unknown  Unknown
vasp_std           000000000188DBC5  Unknown               Unknown  Unknown
vasp_std           000000000188F164  Unknown               Unknown  Unknown
vasp_std           0000000001891BC4  Unknown               Unknown  Unknown
vasp_std           00000000006D5FC9  Unknown               Unknown  Unknown
vasp_std           00000000006D2358  Unknown               Unknown  Unknown
vasp_std           0000000000E4BE43  Unknown               Unknown  Unknown
vasp_std           0000000000EC6C9E  Unknown               Unknown  Unknown
vasp_std           0000000001937477  Unknown               Unknown  Unknown
vasp_std           0000000001911A78  Unknown               Unknown  Unknown
vasp_std           000000000040B822  Unknown               Unknown  Unknown
libc-2.17.so       00002AC04D59D505  __libc_start_main     Unknown  Unknown
vasp_std           000000000040B729  Unknown               Unknown  Unknown
forrtl: error (78): process killed (SIGTERM)
Image              PC                Routine            Line        Source             
vasp_std           0000000006498474  Unknown               Unknown  Unknown
libpthread-2.17.s  00002BA10BA275F0  Unknown               Unknown  Unknown
vasp_std           0000000002C5E0CA  Unknown               Unknown  Unknown
vasp_std           0000000001CBDA18  Unknown               Unknown  Unknown
vasp_std           0000000001B1AD08  Unknown               Unknown  Unknown
vasp_std           0000000001B1A39F  Unknown               Unknown  Unknown
vasp_std           000000000188DBC5  Unknown               Unknown  Unknown
vasp_std           000000000188F164  Unknown               Unknown  Unknown
vasp_std           0000000001891BC4  Unknown               Unknown  Unknown
vasp_std           00000000006D5FC9  Unknown               Unknown  Unknown
vasp_std           00000000006D2358  Unknown               Unknown  Unknown
vasp_std           0000000000E4BE43  Unknown               Unknown  Unknown
vasp_std           0000000000EC6C9E  Unknown               Unknown  Unknown
vasp_std           0000000001937477  Unknown               Unknown  Unknown
vasp_std           0000000001911A78  Unknown               Unknown  Unknown
vasp_std           000000000040B822  Unknown               Unknown  Unknown
libc-2.17.so       00002BA10D71E505  __libc_start_main     Unknown  Unknown
vasp_std           000000000040B729  Unknown               Unknown  Unknown
forrtl: error (78): process killed (SIGTERM)
Image              PC                Routine            Line        Source             
vasp_std           0000000006498474  Unknown               Unknown  Unknown
libpthread-2.17.s  00002B820CDC35F0  Unknown               Unknown  Unknown
vasp_std           0000000002C5E162  Unknown               Unknown  Unknown
vasp_std           0000000001CBDA18  Unknown               Unknown  Unknown
vasp_std           0000000001B1AD08  Unknown               Unknown  Unknown
vasp_std           0000000001B1A39F  Unknown               Unknown  Unknown
vasp_std           000000000188DBC5  Unknown               Unknown  Unknown
vasp_std           000000000188F164  Unknown               Unknown  Unknown
vasp_std           0000000001891BC4  Unknown               Unknown  Unknown
vasp_std           00000000006D5FC9  Unknown               Unknown  Unknown
vasp_std           00000000006D2358  Unknown               Unknown  Unknown
vasp_std           0000000000E4BE43  Unknown               Unknown  Unknown
vasp_std           0000000000EC6C9E  Unknown               Unknown  Unknown
vasp_std           0000000001937477  Unknown               Unknown  Unknown
vasp_std           0000000001911A78  Unknown               Unknown  Unknown
vasp_std           000000000040B822  Unknown               Unknown  Unknown
libc-2.17.so       00002B820EABA505  __libc_start_main     Unknown  Unknown
vasp_std           000000000040B729  Unknown               Unknown  Unknown
forrtl: error (78): process killed (SIGTERM)
Image              PC                Routine            Line        Source             
vasp_std           0000000006498474  Unknown               Unknown  Unknown
libpthread-2.17.s  00002B34694FA5F0  Unknown               Unknown  Unknown
vasp_std           0000000002C5E166  Unknown               Unknown  Unknown
vasp_std           0000000001CBDA18  Unknown               Unknown  Unknown
vasp_std           0000000001B1AD08  Unknown               Unknown  Unknown
vasp_std           0000000001B1A39F  Unknown               Unknown  Unknown
vasp_std           000000000188DBC5  Unknown               Unknown  Unknown
vasp_std           000000000188F164  Unknown               Unknown  Unknown
vasp_std           0000000001891BC4  Unknown               Unknown  Unknown
vasp_std           00000000006D5FC9  Unknown               Unknown  Unknown
vasp_std           00000000006D2358  Unknown               Unknown  Unknown
vasp_std           0000000000E4BE43  Unknown               Unknown  Unknown
vasp_std           0000000000EC6C9E  Unknown               Unknown  Unknown
vasp_std           0000000001937477  Unknown               Unknown  Unknown
vasp_std           0000000001911A78  Unknown               Unknown  Unknown
vasp_std           000000000040B822  Unknown               Unknown  Unknown
libc-2.17.so       00002B346B1F1505  __libc_start_main     Unknown  Unknown
vasp_std           000000000040B729  Unknown               Unknown  Unknown
forrtl: error (78): process killed (SIGTERM)
Image              PC                Routine            Line        Source             
vasp_std           0000000006498474  Unknown               Unknown  Unknown
libpthread-2.17.s  00002ADA3BFC15F0  Unknown               Unknown  Unknown
vasp_std           0000000002C864CF  Unknown               Unknown  Unknown
vasp_std           0000000001CBE4DB  Unknown               Unknown  Unknown
vasp_std           0000000001B1AD08  Unknown               Unknown  Unknown
vasp_std           0000000001B1A39F  Unknown               Unknown  Unknown
vasp_std           000000000188DBC5  Unknown               Unknown  Unknown
vasp_std           000000000188F164  Unknown               Unknown  Unknown
vasp_std           0000000001891BC4  Unknown               Unknown  Unknown
vasp_std           00000000006D5FC9  Unknown               Unknown  Unknown
vasp_std           00000000006D2358  Unknown               Unknown  Unknown
vasp_std           0000000000E4BE43  Unknown               Unknown  Unknown
vasp_std           0000000000EC6C9E  Unknown               Unknown  Unknown
vasp_std           0000000001937477  Unknown               Unknown  Unknown
vasp_std           0000000001911A78  Unknown               Unknown  Unknown
vasp_std           000000000040B822  Unknown               Unknown  Unknown
libc-2.17.so       00002ADA3DCB8505  __libc_start_main     Unknown  Unknown
vasp_std           000000000040B729  Unknown               Unknown  Unknown
forrtl: error (78): process killed (SIGTERM)
Image              PC                Routine            Line        Source             
vasp_std           0000000006498474  Unknown               Unknown  Unknown
libpthread-2.17.s  00002B340EFCD5F0  Unknown               Unknown  Unknown
libc-2.17.so       00002B3410D85727  __sched_yield         Unknown  Unknown
libmpi.so.12       00002B340FF42C73  PMPIDI_CH3I_Progr     Unknown  Unknown
libmpi.so.12.0     00002B34100A6215  Unknown               Unknown  Unknown
libmpi.so.12.0     00002B34100A1DAC  Unknown               Unknown  Unknown
libmpi.so.12.0     00002B340FF08DCB  Unknown               Unknown  Unknown
libmpi.so.12       00002B340FF0BBEF  MPI_Alltoall          Unknown  Unknown
libmpifort.so.12.  00002B340FAB942E  mpi_alltoall__        Unknown  Unknown
vasp_std           0000000000448F42  Unknown               Unknown  Unknown
vasp_std           0000000000609495  Unknown               Unknown  Unknown
vasp_std           0000000000E50EB2  Unknown               Unknown  Unknown
vasp_std           0000000000EC6C9E  Unknown               Unknown  Unknown
vasp_std           0000000001937477  Unknown               Unknown  Unknown
vasp_std           0000000001911A78  Unknown               Unknown  Unknown
vasp_std           000000000040B822  Unknown               Unknown  Unknown
libc-2.17.so       00002B3410CC4505  __libc_start_main     Unknown  Unknown
vasp_std           000000000040B729  Unknown               Unknown  Unknown
forrtl: error (78): process killed (SIGTERM)
Image              PC                Routine            Line        Source             
vasp_std           0000000006498474  Unknown               Unknown  Unknown
libpthread-2.17.s  00002B24ACCEB5F0  Unknown               Unknown  Unknown
libc-2.17.so       00002B24AEAA3727  __sched_yield         Unknown  Unknown
libmpi.so.12       00002B24ADC60C73  PMPIDI_CH3I_Progr     Unknown  Unknown
libmpi.so.12.0     00002B24ADDC4215  Unknown               Unknown  Unknown
libmpi.so.12.0     00002B24ADDBFDAC  Unknown               Unknown  Unknown
libmpi.so.12.0     00002B24ADC26DCB  Unknown               Unknown  Unknown
libmpi.so.12       00002B24ADC29BEF  MPI_Alltoall          Unknown  Unknown
libmpifort.so.12.  00002B24AD7D742E  mpi_alltoall__        Unknown  Unknown
vasp_std           0000000000448F42  Unknown               Unknown  Unknown
vasp_std           0000000000609495  Unknown               Unknown  Unknown
vasp_std           0000000000E50EB2  Unknown               Unknown  Unknown
vasp_std           0000000000EC6C9E  Unknown               Unknown  Unknown
vasp_std           0000000001937477  Unknown               Unknown  Unknown
vasp_std           0000000001911A78  Unknown               Unknown  Unknown
vasp_std           000000000040B822  Unknown               Unknown  Unknown
libc-2.17.so       00002B24AE9E2505  __libc_start_main     Unknown  Unknown
vasp_std           000000000040B729  Unknown               Unknown  Unknown
forrtl: error (78): process killed (SIGTERM)
Image              PC                Routine            Line        Source             
vasp_std           0000000006498474  Unknown               Unknown  Unknown
libpthread-2.17.s  00002B60421805F0  Unknown               Unknown  Unknown
libc-2.17.so       00002B6043F38727  __sched_yield         Unknown  Unknown
libmpi.so.12       00002B60430F5C73  PMPIDI_CH3I_Progr     Unknown  Unknown
libmpi.so.12.0     00002B6043259215  Unknown               Unknown  Unknown
libmpi.so.12.0     00002B6043254DAC  Unknown               Unknown  Unknown
libmpi.so.12.0     00002B60430BBDCB  Unknown               Unknown  Unknown
libmpi.so.12       00002B60430BEBEF  MPI_Alltoall          Unknown  Unknown
libmpifort.so.12.  00002B6042C6C42E  mpi_alltoall__        Unknown  Unknown
vasp_std           0000000000448F42  Unknown               Unknown  Unknown
vasp_std           0000000000609495  Unknown               Unknown  Unknown
vasp_std           0000000000E50EB2  Unknown               Unknown  Unknown
vasp_std           0000000000EC6C9E  Unknown               Unknown  Unknown
vasp_std           0000000001937477  Unknown               Unknown  Unknown
vasp_std           0000000001911A78  Unknown               Unknown  Unknown
vasp_std           000000000040B822  Unknown               Unknown  Unknown
libc-2.17.so       00002B6043E77505  __libc_start_main     Unknown  Unknown
vasp_std           000000000040B729  Unknown               Unknown  Unknown
forrtl: error (78): process killed (SIGTERM)
Image              PC                Routine            Line        Source             
vasp_std           0000000006498474  Unknown               Unknown  Unknown
libpthread-2.17.s  00002B29513805F0  Unknown               Unknown  Unknown
libc-2.17.so       00002B2953138727  __sched_yield         Unknown  Unknown
libmpi.so.12       00002B29522F5C73  PMPIDI_CH3I_Progr     Unknown  Unknown
libmpi.so.12.0     00002B2952459215  Unknown               Unknown  Unknown
libmpi.so.12.0     00002B2952454DAC  Unknown               Unknown  Unknown
libmpi.so.12.0     00002B29522BBDCB  Unknown               Unknown  Unknown
libmpi.so.12       00002B29522BEBEF  MPI_Alltoall          Unknown  Unknown
libmpifort.so.12.  00002B2951E6C42E  mpi_alltoall__        Unknown  Unknown
vasp_std           0000000000448F42  Unknown               Unknown  Unknown
vasp_std           0000000000609495  Unknown               Unknown  Unknown
vasp_std           0000000000E50EB2  Unknown               Unknown  Unknown
vasp_std           0000000000EC6C9E  Unknown               Unknown  Unknown
vasp_std           0000000001937477  Unknown               Unknown  Unknown
vasp_std           0000000001911A78  Unknown               Unknown  Unknown
vasp_std           000000000040B822  Unknown               Unknown  Unknown
libc-2.17.so       00002B2953077505  __libc_start_main     Unknown  Unknown
vasp_std           000000000040B729  Unknown               Unknown  Unknown
forrtl: error (78): process killed (SIGTERM)
Image              PC                Routine            Line        Source             
vasp_std           0000000006498474  Unknown               Unknown  Unknown
libpthread-2.17.s  00002AC55AB195F0  Unknown               Unknown  Unknown
libc-2.17.so       00002AC55C8D1727  __sched_yield         Unknown  Unknown
libmpi.so.12       00002AC55BA8EC73  PMPIDI_CH3I_Progr     Unknown  Unknown
libmpi.so.12.0     00002AC55BBF2215  Unknown               Unknown  Unknown
libmpi.so.12.0     00002AC55BBEDDAC  Unknown               Unknown  Unknown
libmpi.so.12.0     00002AC55BA54DCB  Unknown               Unknown  Unknown
libmpi.so.12       00002AC55BA57BEF  MPI_Alltoall          Unknown  Unknown
libmpifort.so.12.  00002AC55B60542E  mpi_alltoall__        Unknown  Unknown
vasp_std           0000000000448F42  Unknown               Unknown  Unknown
vasp_std           0000000000609495  Unknown               Unknown  Unknown
vasp_std           0000000000E50EB2  Unknown               Unknown  Unknown
vasp_std           0000000000EC6C9E  Unknown               Unknown  Unknown
vasp_std           0000000001937477  Unknown               Unknown  Unknown
vasp_std           0000000001911A78  Unknown               Unknown  Unknown
vasp_std           000000000040B822  Unknown               Unknown  Unknown
libc-2.17.so       00002AC55C810505  __libc_start_main     Unknown  Unknown
vasp_std           000000000040B729  Unknown               Unknown  Unknown
forrtl: error (78): process killed (SIGTERM)
Image              PC                Routine            Line        Source             
vasp_std           0000000006498474  Unknown               Unknown  Unknown
libpthread-2.17.s  00002ABFC25B65F0  Unknown               Unknown  Unknown
libc-2.17.so       00002ABFC436E727  __sched_yield         Unknown  Unknown
libmpi.so.12       00002ABFC352BC73  PMPIDI_CH3I_Progr     Unknown  Unknown
libmpi.so.12.0     00002ABFC368F215  Unknown               Unknown  Unknown
libmpi.so.12.0     00002ABFC368ADAC  Unknown               Unknown  Unknown
libmpi.so.12.0     00002ABFC34F1DCB  Unknown               Unknown  Unknown
libmpi.so.12       00002ABFC34F4BEF  MPI_Alltoall          Unknown  Unknown
libmpifort.so.12.  00002ABFC30A242E  mpi_alltoall__        Unknown  Unknown
vasp_std           0000000000448F42  Unknown               Unknown  Unknown
vasp_std           0000000000609495  Unknown               Unknown  Unknown
vasp_std           0000000000E50EB2  Unknown               Unknown  Unknown
vasp_std           0000000000EC6C9E  Unknown               Unknown  Unknown
vasp_std           0000000001937477  Unknown               Unknown  Unknown
vasp_std           0000000001911A78  Unknown               Unknown  Unknown
vasp_std           000000000040B822  Unknown               Unknown  Unknown
libc-2.17.so       00002ABFC42AD505  __libc_start_main     Unknown  Unknown
vasp_std           000000000040B729  Unknown               Unknown  Unknown
forrtl: error (78): process killed (SIGTERM)
Image              PC                Routine            Line        Source             
vasp_std           0000000006498474  Unknown               Unknown  Unknown
libpthread-2.17.s  00002B84577CB5F0  Unknown               Unknown  Unknown
libc-2.17.so       00002B8459583727  __sched_yield         Unknown  Unknown
libmpi.so.12       00002B8458740C73  PMPIDI_CH3I_Progr     Unknown  Unknown
libmpi.so.12.0     00002B84588A4215  Unknown               Unknown  Unknown
libmpi.so.12.0     00002B845889FDAC  Unknown               Unknown  Unknown
libmpi.so.12.0     00002B8458706DCB  Unknown               Unknown  Unknown
libmpi.so.12       00002B8458709BEF  MPI_Alltoall          Unknown  Unknown
libmpifort.so.12.  00002B84582B742E  mpi_alltoall__        Unknown  Unknown
vasp_std           0000000000448F42  Unknown               Unknown  Unknown
vasp_std           0000000000609495  Unknown               Unknown  Unknown
vasp_std           0000000000E50EB2  Unknown               Unknown  Unknown
vasp_std           0000000000EC6C9E  Unknown               Unknown  Unknown
vasp_std           0000000001937477  Unknown               Unknown  Unknown
vasp_std           0000000001911A78  Unknown               Unknown  Unknown
vasp_std           000000000040B822  Unknown               Unknown  Unknown
libc-2.17.so       00002B84594C2505  __libc_start_main     Unknown  Unknown
vasp_std           000000000040B729  Unknown               Unknown  Unknown
forrtl: error (78): process killed (SIGTERM)
Image              PC                Routine            Line        Source             
vasp_std           0000000006498474  Unknown               Unknown  Unknown
libpthread-2.17.s  00002B6E48F3F5F0  Unknown               Unknown  Unknown
libc-2.17.so       00002B6E4ACF7727  __sched_yield         Unknown  Unknown
libmpi.so.12       00002B6E49EB4C73  PMPIDI_CH3I_Progr     Unknown  Unknown
libmpi.so.12.0     00002B6E4A018215  Unknown               Unknown  Unknown
libmpi.so.12.0     00002B6E4A013DAC  Unknown               Unknown  Unknown
libmpi.so.12.0     00002B6E49E7ADCB  Unknown               Unknown  Unknown
libmpi.so.12       00002B6E49E7DBEF  MPI_Alltoall          Unknown  Unknown
libmpifort.so.12.  00002B6E49A2B42E  mpi_alltoall__        Unknown  Unknown
vasp_std           0000000000448F42  Unknown               Unknown  Unknown
vasp_std           0000000000609495  Unknown               Unknown  Unknown
vasp_std           0000000000E50EB2  Unknown               Unknown  Unknown
vasp_std           0000000000EC6C9E  Unknown               Unknown  Unknown
vasp_std           0000000001937477  Unknown               Unknown  Unknown
vasp_std           0000000001911A78  Unknown               Unknown  Unknown
vasp_std           000000000040B822  Unknown               Unknown  Unknown
libc-2.17.so       00002B6E4AC36505  __libc_start_main     Unknown  Unknown
vasp_std           000000000040B729  Unknown               Unknown  Unknown
forrtl: error (78): process killed (SIGTERM)
Image              PC                Routine            Line        Source             
vasp_std           0000000006498474  Unknown               Unknown  Unknown
libpthread-2.17.s  00002AF370D225F0  Unknown               Unknown  Unknown
libc-2.17.so       00002AF372ADA727  __sched_yield         Unknown  Unknown
libmpi.so.12       00002AF371C97C73  PMPIDI_CH3I_Progr     Unknown  Unknown
libmpi.so.12.0     00002AF371DFB215  Unknown               Unknown  Unknown
libmpi.so.12.0     00002AF371DF6DAC  Unknown               Unknown  Unknown
libmpi.so.12.0     00002AF371C5DDCB  Unknown               Unknown  Unknown
libmpi.so.12       00002AF371C60BEF  MPI_Alltoall          Unknown  Unknown
libmpifort.so.12.  00002AF37180E42E  mpi_alltoall__        Unknown  Unknown
vasp_std           0000000000448F42  Unknown               Unknown  Unknown
vasp_std           0000000000609495  Unknown               Unknown  Unknown
vasp_std           0000000000E50EB2  Unknown               Unknown  Unknown
vasp_std           0000000000EC6C9E  Unknown               Unknown  Unknown
vasp_std           0000000001937477  Unknown               Unknown  Unknown
vasp_std           0000000001911A78  Unknown               Unknown  Unknown
vasp_std           000000000040B822  Unknown               Unknown  Unknown
libc-2.17.so       00002AF372A19505  __libc_start_main     Unknown  Unknown
vasp_std           000000000040B729  Unknown               Unknown  Unknown
forrtl: error (78): process killed (SIGTERM)
Image              PC                Routine            Line        Source             
vasp_std           0000000006498474  Unknown               Unknown  Unknown
libpthread-2.17.s  00002B75EDB725F0  Unknown               Unknown  Unknown
libc-2.17.so       00002B75EF92A727  __sched_yield         Unknown  Unknown
libmpi.so.12       00002B75EEAE7C73  PMPIDI_CH3I_Progr     Unknown  Unknown
libmpi.so.12.0     00002B75EEC4B215  Unknown               Unknown  Unknown
libmpi.so.12.0     00002B75EEC46DAC  Unknown               Unknown  Unknown
libmpi.so.12.0     00002B75EEAADDCB  Unknown               Unknown  Unknown
libmpi.so.12       00002B75EEAB0BEF  MPI_Alltoall          Unknown  Unknown
libmpifort.so.12.  00002B75EE65E42E  mpi_alltoall__        Unknown  Unknown
vasp_std           0000000000448F42  Unknown               Unknown  Unknown
vasp_std           0000000000609495  Unknown               Unknown  Unknown
vasp_std           0000000000E50EB2  Unknown               Unknown  Unknown
vasp_std           0000000000EC6C9E  Unknown               Unknown  Unknown
vasp_std           0000000001937477  Unknown               Unknown  Unknown
vasp_std           0000000001911A78  Unknown               Unknown  Unknown
vasp_std           000000000040B822  Unknown               Unknown  Unknown
libc-2.17.so       00002B75EF869505  __libc_start_main     Unknown  Unknown
vasp_std           000000000040B729  Unknown               Unknown  Unknown
forrtl: error (78): process killed (SIGTERM)
Image              PC                Routine            Line        Source             
vasp_std           0000000006498474  Unknown               Unknown  Unknown
libpthread-2.17.s  00002B9099C655F0  Unknown               Unknown  Unknown
libc-2.17.so       00002B909BA1D727  __sched_yield         Unknown  Unknown
libmpi.so.12       00002B909ABDAC73  PMPIDI_CH3I_Progr     Unknown  Unknown
libmpi.so.12.0     00002B909AD3E215  Unknown               Unknown  Unknown
libmpi.so.12.0     00002B909AD39DAC  Unknown               Unknown  Unknown
libmpi.so.12.0     00002B909ABA0DCB  Unknown               Unknown  Unknown
libmpi.so.12       00002B909ABA3BEF  MPI_Alltoall          Unknown  Unknown
libmpifort.so.12.  00002B909A75142E  mpi_alltoall__        Unknown  Unknown
vasp_std           0000000000448F42  Unknown               Unknown  Unknown
vasp_std           0000000000609495  Unknown               Unknown  Unknown
vasp_std           0000000000E50EB2  Unknown               Unknown  Unknown
vasp_std           0000000000EC6C9E  Unknown               Unknown  Unknown
vasp_std           0000000001937477  Unknown               Unknown  Unknown
vasp_std           0000000001911A78  Unknown               Unknown  Unknown
vasp_std           000000000040B822  Unknown               Unknown  Unknown
libc-2.17.so       00002B909B95C505  __libc_start_main     Unknown  Unknown
vasp_std           000000000040B729  Unknown               Unknown  Unknown
forrtl: error (78): process killed (SIGTERM)
Image              PC                Routine            Line        Source             
vasp_std           0000000006498474  Unknown               Unknown  Unknown
libpthread-2.17.s  00002B16A01B75F0  Unknown               Unknown  Unknown
libc-2.17.so       00002B16A1F6F727  __sched_yield         Unknown  Unknown
libmpi.so.12       00002B16A112CC73  PMPIDI_CH3I_Progr     Unknown  Unknown
libmpi.so.12.0     00002B16A1290215  Unknown               Unknown  Unknown
libmpi.so.12.0     00002B16A128BDAC  Unknown               Unknown  Unknown
libmpi.so.12.0     00002B16A10F2DCB  Unknown               Unknown  Unknown
libmpi.so.12       00002B16A10F5BEF  MPI_Alltoall          Unknown  Unknown
libmpifort.so.12.  00002B16A0CA342E  mpi_alltoall__        Unknown  Unknown
vasp_std           0000000000448F42  Unknown               Unknown  Unknown
vasp_std           0000000000609495  Unknown               Unknown  Unknown
vasp_std           0000000000E50EB2  Unknown               Unknown  Unknown
vasp_std           0000000000EC6C9E  Unknown               Unknown  Unknown
vasp_std           0000000001937477  Unknown               Unknown  Unknown
vasp_std           0000000001911A78  Unknown               Unknown  Unknown
vasp_std           000000000040B822  Unknown               Unknown  Unknown
libc-2.17.so       00002B16A1EAE505  __libc_start_main     Unknown  Unknown
vasp_std           000000000040B729  Unknown               Unknown  Unknown
forrtl: error (78): process killed (SIGTERM)
Image              PC                Routine            Line        Source             
vasp_std           0000000006498474  Unknown               Unknown  Unknown
libpthread-2.17.s  00002B7DFB5AA5F0  Unknown               Unknown  Unknown
libc-2.17.so       00002B7DFD362727  __sched_yield         Unknown  Unknown
libmpi.so.12       00002B7DFC51FC73  PMPIDI_CH3I_Progr     Unknown  Unknown
libmpi.so.12.0     00002B7DFC683215  Unknown               Unknown  Unknown
libmpi.so.12.0     00002B7DFC67EDAC  Unknown               Unknown  Unknown
libmpi.so.12.0     00002B7DFC4E5DCB  Unknown               Unknown  Unknown
libmpi.so.12       00002B7DFC4E8BEF  MPI_Alltoall          Unknown  Unknown
libmpifort.so.12.  00002B7DFC09642E  mpi_alltoall__        Unknown  Unknown
vasp_std           0000000000448F42  Unknown               Unknown  Unknown
vasp_std           0000000000609495  Unknown               Unknown  Unknown
vasp_std           0000000000E50EB2  Unknown               Unknown  Unknown
vasp_std           0000000000EC6C9E  Unknown               Unknown  Unknown
vasp_std           0000000001937477  Unknown               Unknown  Unknown
vasp_std           0000000001911A78  Unknown               Unknown  Unknown
vasp_std           000000000040B822  Unknown               Unknown  Unknown
libc-2.17.so       00002B7DFD2A1505  __libc_start_main     Unknown  Unknown
vasp_std           000000000040B729  Unknown               Unknown  Unknown
forrtl: error (78): process killed (SIGTERM)
Image              PC                Routine            Line        Source             
vasp_std           0000000006498474  Unknown               Unknown  Unknown
libpthread-2.17.s  00002AD0FB3FF5F0  Unknown               Unknown  Unknown
libc-2.17.so       00002AD0FD1B7727  __sched_yield         Unknown  Unknown
libmpi.so.12       00002AD0FC374C73  PMPIDI_CH3I_Progr     Unknown  Unknown
libmpi.so.12.0     00002AD0FC4D8215  Unknown               Unknown  Unknown
libmpi.so.12.0     00002AD0FC4D3DAC  Unknown               Unknown  Unknown
libmpi.so.12.0     00002AD0FC33ADCB  Unknown               Unknown  Unknown
libmpi.so.12       00002AD0FC33DBEF  MPI_Alltoall          Unknown  Unknown
libmpifort.so.12.  00002AD0FBEEB42E  mpi_alltoall__        Unknown  Unknown
vasp_std           0000000000448F42  Unknown               Unknown  Unknown
vasp_std           0000000000609495  Unknown               Unknown  Unknown
vasp_std           0000000000E50EB2  Unknown               Unknown  Unknown
vasp_std           0000000000EC6C9E  Unknown               Unknown  Unknown
vasp_std           0000000001937477  Unknown               Unknown  Unknown
vasp_std           0000000001911A78  Unknown               Unknown  Unknown
vasp_std           000000000040B822  Unknown               Unknown  Unknown
libc-2.17.so       00002AD0FD0F6505  __libc_start_main     Unknown  Unknown
vasp_std           000000000040B729  Unknown               Unknown  Unknown
forrtl: error (78): process killed (SIGTERM)
Image              PC                Routine            Line        Source             
vasp_std           0000000006498474  Unknown               Unknown  Unknown
libpthread-2.17.s  00002B1F50C3C5F0  Unknown               Unknown  Unknown
libmpi.so.12       00002B1F51BB1856  PMPIDI_CH3I_Progr     Unknown  Unknown
libmpi.so.12.0     00002B1F51D15215  Unknown               Unknown  Unknown
libmpi.so.12.0     00002B1F51D10DAC  Unknown               Unknown  Unknown
libmpi.so.12.0     00002B1F51B77DCB  Unknown               Unknown  Unknown
libmpi.so.12       00002B1F51B7ABEF  MPI_Alltoall          Unknown  Unknown
libmpifort.so.12.  00002B1F5172842E  mpi_alltoall__        Unknown  Unknown
vasp_std           0000000000448F42  Unknown               Unknown  Unknown
vasp_std           0000000000609495  Unknown               Unknown  Unknown
vasp_std           0000000000E50EB2  Unknown               Unknown  Unknown
vasp_std           0000000000EC6C9E  Unknown               Unknown  Unknown
vasp_std           0000000001937477  Unknown               Unknown  Unknown
vasp_std           0000000001911A78  Unknown               Unknown  Unknown
vasp_std           000000000040B822  Unknown               Unknown  Unknown
libc-2.17.so       00002B1F52933505  __libc_start_main     Unknown  Unknown
vasp_std           000000000040B729  Unknown               Unknown  Unknown
forrtl: error (78): process killed (SIGTERM)
Image              PC                Routine            Line        Source             
vasp_std           0000000006498474  Unknown               Unknown  Unknown
libpthread-2.17.s  00002B606B7145F0  Unknown               Unknown  Unknown
libc-2.17.so       00002B606D4CC727  __sched_yield         Unknown  Unknown
libmpi.so.12       00002B606C689C73  PMPIDI_CH3I_Progr     Unknown  Unknown
libmpi.so.12.0     00002B606C7ED215  Unknown               Unknown  Unknown
libmpi.so.12.0     00002B606C7E8DAC  Unknown               Unknown  Unknown
libmpi.so.12.0     00002B606C64FDCB  Unknown               Unknown  Unknown
libmpi.so.12       00002B606C652BEF  MPI_Alltoall          Unknown  Unknown
libmpifort.so.12.  00002B606C20042E  mpi_alltoall__        Unknown  Unknown
vasp_std           0000000000448F42  Unknown               Unknown  Unknown
vasp_std           0000000000609495  Unknown               Unknown  Unknown
vasp_std           0000000000E50EB2  Unknown               Unknown  Unknown
vasp_std           0000000000EC6C9E  Unknown               Unknown  Unknown
vasp_std           0000000001937477  Unknown               Unknown  Unknown
vasp_std           0000000001911A78  Unknown               Unknown  Unknown
vasp_std           000000000040B822  Unknown               Unknown  Unknown
libc-2.17.so       00002B606D40B505  __libc_start_main     Unknown  Unknown
vasp_std           000000000040B729  Unknown               Unknown  Unknown
forrtl: error (78): process killed (SIGTERM)
Image              PC                Routine            Line        Source             
vasp_std           0000000006498474  Unknown               Unknown  Unknown
libpthread-2.17.s  00002B44382B85F0  Unknown               Unknown  Unknown
libmpi.so.12       00002B443922D918  PMPIDI_CH3I_Progr     Unknown  Unknown
libmpi.so.12.0     00002B44395DC572  Unknown               Unknown  Unknown
libmpi.so.12.0     00002B4439389130  Unknown               Unknown  Unknown
libmpi.so.12       00002B44391FA327  PMPI_Alltoallv        Unknown  Unknown
libmpifort.so.12.  00002B4438DA4B21  pmpi_alltoallv_       Unknown  Unknown
vasp_std           00000000004474A5  Unknown               Unknown  Unknown
vasp_std           000000000189AF05  Unknown               Unknown  Unknown
vasp_std           000000000188DC11  Unknown               Unknown  Unknown
vasp_std           000000000188F164  Unknown               Unknown  Unknown
vasp_std           0000000001891BC4  Unknown               Unknown  Unknown
vasp_std           00000000006D5FC9  Unknown               Unknown  Unknown
vasp_std           00000000006D2358  Unknown               Unknown  Unknown
vasp_std           0000000000E4BE43  Unknown               Unknown  Unknown
vasp_std           0000000000EC6C9E  Unknown               Unknown  Unknown
vasp_std           0000000001937477  Unknown               Unknown  Unknown
vasp_std           0000000001911A78  Unknown               Unknown  Unknown
vasp_std           000000000040B822  Unknown               Unknown  Unknown
libc-2.17.so       00002B4439FAF505  __libc_start_main     Unknown  Unknown
vasp_std           000000000040B729  Unknown               Unknown  Unknown
forrtl: error (78): process killed (SIGTERM)
Image              PC                Routine            Line        Source             
vasp_std           0000000006498474  Unknown               Unknown  Unknown
libpthread-2.17.s  00002B261AACE5F0  Unknown               Unknown  Unknown
libmpi.so.12       00002B261BA4391A  PMPIDI_CH3I_Progr     Unknown  Unknown
libmpi.so.12.0     00002B261BDF2572  Unknown               Unknown  Unknown
libmpi.so.12.0     00002B261BB9F130  Unknown               Unknown  Unknown
libmpi.so.12       00002B261BA10327  PMPI_Alltoallv        Unknown  Unknown
libmpifort.so.12.  00002B261B5BAB21  pmpi_alltoallv_       Unknown  Unknown
vasp_std           00000000004474A5  Unknown               Unknown  Unknown
vasp_std           000000000189AF05  Unknown               Unknown  Unknown
vasp_std           000000000188DC11  Unknown               Unknown  Unknown
vasp_std           000000000188F164  Unknown               Unknown  Unknown
vasp_std           0000000001891BC4  Unknown               Unknown  Unknown
vasp_std           00000000006D5FC9  Unknown               Unknown  Unknown
vasp_std           00000000006D2358  Unknown               Unknown  Unknown
vasp_std           0000000000E4BE43  Unknown               Unknown  Unknown
vasp_std           0000000000EC6C9E  Unknown               Unknown  Unknown
vasp_std           0000000001937477  Unknown               Unknown  Unknown
vasp_std           0000000001911A78  Unknown               Unknown  Unknown
vasp_std           000000000040B822  Unknown               Unknown  Unknown
libc-2.17.so       00002B261C7C5505  __libc_start_main     Unknown  Unknown
vasp_std           000000000040B729  Unknown               Unknown  Unknown
forrtl: error (78): process killed (SIGTERM)
Image              PC                Routine            Line        Source             
vasp_std           0000000006498474  Unknown               Unknown  Unknown
libpthread-2.17.s  00002AD1E0C3A5F0  Unknown               Unknown  Unknown
libmpi.so.12       00002AD1E1BAFADB  PMPIDI_CH3I_Progr     Unknown  Unknown
libmpi.so.12.0     00002AD1E1F5E572  Unknown               Unknown  Unknown
libmpi.so.12.0     00002AD1E1D0B130  Unknown               Unknown  Unknown
libmpi.so.12       00002AD1E1B7C327  PMPI_Alltoallv        Unknown  Unknown
libmpifort.so.12.  00002AD1E1726B21  pmpi_alltoallv_       Unknown  Unknown
vasp_std           00000000004474A5  Unknown               Unknown  Unknown
vasp_std           000000000189AF05  Unknown               Unknown  Unknown
vasp_std           000000000188DC11  Unknown               Unknown  Unknown
vasp_std           000000000188F164  Unknown               Unknown  Unknown
vasp_std           0000000001891BC4  Unknown               Unknown  Unknown
vasp_std           00000000006D5FC9  Unknown               Unknown  Unknown
vasp_std           00000000006D2358  Unknown               Unknown  Unknown
vasp_std           0000000000E4BE43  Unknown               Unknown  Unknown
vasp_std           0000000000EC6C9E  Unknown               Unknown  Unknown
vasp_std           0000000001937477  Unknown               Unknown  Unknown
vasp_std           0000000001911A78  Unknown               Unknown  Unknown
vasp_std           000000000040B822  Unknown               Unknown  Unknown
libc-2.17.so       00002AD1E2931505  __libc_start_main     Unknown  Unknown
vasp_std           000000000040B729  Unknown               Unknown  Unknown
forrtl: error (78): process killed (SIGTERM)
Image              PC                Routine            Line        Source             
vasp_std           0000000006498474  Unknown               Unknown  Unknown
libpthread-2.17.s  00002B593AE5E5F0  Unknown               Unknown  Unknown
libmpi.so.12       00002B593BDD3952  PMPIDI_CH3I_Progr     Unknown  Unknown
libmpi.so.12.0     00002B593C182572  Unknown               Unknown  Unknown
libmpi.so.12.0     00002B593BF2F130  Unknown               Unknown  Unknown
libmpi.so.12       00002B593BDA0327  PMPI_Alltoallv        Unknown  Unknown
libmpifort.so.12.  00002B593B94AB21  pmpi_alltoallv_       Unknown  Unknown
vasp_std           00000000004474A5  Unknown               Unknown  Unknown
vasp_std           000000000189AF05  Unknown               Unknown  Unknown
vasp_std           000000000188DC11  Unknown               Unknown  Unknown
vasp_std           000000000188F164  Unknown               Unknown  Unknown
vasp_std           0000000001891BC4  Unknown               Unknown  Unknown
vasp_std           00000000006D5FC9  Unknown               Unknown  Unknown
vasp_std           00000000006D2358  Unknown               Unknown  Unknown
vasp_std           0000000000E4BE43  Unknown               Unknown  Unknown
vasp_std           0000000000EC6C9E  Unknown               Unknown  Unknown
vasp_std           0000000001937477  Unknown               Unknown  Unknown
vasp_std           0000000001911A78  Unknown               Unknown  Unknown
vasp_std           000000000040B822  Unknown               Unknown  Unknown
libc-2.17.so       00002B593CB55505  __libc_start_main     Unknown  Unknown
vasp_std           000000000040B729  Unknown               Unknown  Unknown
forrtl: error (78): process killed (SIGTERM)
Image              PC                Routine            Line        Source             
vasp_std           0000000006498474  Unknown               Unknown  Unknown
libpthread-2.17.s  00002B30B9EEE5F0  Unknown               Unknown  Unknown
libc-2.17.so       00002B30BBCA6727  __sched_yield         Unknown  Unknown
libmpi.so.12       00002B30BAE63C73  PMPIDI_CH3I_Progr     Unknown  Unknown
libmpi.so.12.0     00002B30BB212572  Unknown               Unknown  Unknown
libmpi.so.12.0     00002B30BAFBF130  Unknown               Unknown  Unknown
libmpi.so.12       00002B30BAE30327  PMPI_Alltoallv        Unknown  Unknown
libmpifort.so.12.  00002B30BA9DAB21  pmpi_alltoallv_       Unknown  Unknown
vasp_std           00000000004474A5  Unknown               Unknown  Unknown
vasp_std           000000000189AF05  Unknown               Unknown  Unknown
vasp_std           000000000188DC11  Unknown               Unknown  Unknown
vasp_std           000000000188F164  Unknown               Unknown  Unknown
vasp_std           0000000001891BC4  Unknown               Unknown  Unknown
vasp_std           00000000006D5FC9  Unknown               Unknown  Unknown
vasp_std           00000000006D2358  Unknown               Unknown  Unknown
vasp_std           0000000000E4BE43  Unknown               Unknown  Unknown
vasp_std           0000000000EC6C9E  Unknown               Unknown  Unknown
vasp_std           0000000001937477  Unknown               Unknown  Unknown
vasp_std           0000000001911A78  Unknown               Unknown  Unknown
vasp_std           000000000040B822  Unknown               Unknown  Unknown
libc-2.17.so       00002B30BBBE5505  __libc_start_main     Unknown  Unknown
vasp_std           000000000040B729  Unknown               Unknown  Unknown
forrtl: error (78): process killed (SIGTERM)
Image              PC                Routine            Line        Source             
vasp_std           0000000006498474  Unknown               Unknown  Unknown
libpthread-2.17.s  00002B794C9405F0  Unknown               Unknown  Unknown
libmpi.so.12       00002B794D8B591A  PMPIDI_CH3I_Progr     Unknown  Unknown
libmpi.so.12.0     00002B794DC64572  Unknown               Unknown  Unknown
libmpi.so.12.0     00002B794DA11130  Unknown               Unknown  Unknown
libmpi.so.12       00002B794D882327  PMPI_Alltoallv        Unknown  Unknown
libmpifort.so.12.  00002B794D42CB21  pmpi_alltoallv_       Unknown  Unknown
vasp_std           00000000004474A5  Unknown               Unknown  Unknown
vasp_std           000000000189AF05  Unknown               Unknown  Unknown
vasp_std           000000000188DC11  Unknown               Unknown  Unknown
vasp_std           000000000188F164  Unknown               Unknown  Unknown
vasp_std           0000000001891BC4  Unknown               Unknown  Unknown
vasp_std           00000000006D5FC9  Unknown               Unknown  Unknown
vasp_std           00000000006D2358  Unknown               Unknown  Unknown
vasp_std           0000000000E4BE43  Unknown               Unknown  Unknown
vasp_std           0000000000EC6C9E  Unknown               Unknown  Unknown
vasp_std           0000000001937477  Unknown               Unknown  Unknown
vasp_std           0000000001911A78  Unknown               Unknown  Unknown
vasp_std           000000000040B822  Unknown               Unknown  Unknown
libc-2.17.so       00002B794E637505  __libc_start_main     Unknown  Unknown
vasp_std           000000000040B729  Unknown               Unknown  Unknown
forrtl: error (78): process killed (SIGTERM)
Image              PC                Routine            Line        Source             
vasp_std           0000000006498474  Unknown               Unknown  Unknown
libpthread-2.17.s  00002BA9BCBBB5F0  Unknown               Unknown  Unknown
libc-2.17.so       00002BA9BE973727  __sched_yield         Unknown  Unknown
libmpi.so.12       00002BA9BDB30C73  PMPIDI_CH3I_Progr     Unknown  Unknown
libmpi.so.12.0     00002BA9BDEDF572  Unknown               Unknown  Unknown
libmpi.so.12.0     00002BA9BDC8C130  Unknown               Unknown  Unknown
libmpi.so.12       00002BA9BDAFD327  PMPI_Alltoallv        Unknown  Unknown
libmpifort.so.12.  00002BA9BD6A7B21  pmpi_alltoallv_       Unknown  Unknown
vasp_std           00000000004474A5  Unknown               Unknown  Unknown
vasp_std           000000000189AF05  Unknown               Unknown  Unknown
vasp_std           000000000188DC11  Unknown               Unknown  Unknown
vasp_std           000000000188F164  Unknown               Unknown  Unknown
vasp_std           0000000001891BC4  Unknown               Unknown  Unknown
vasp_std           00000000006D5FC9  Unknown               Unknown  Unknown
vasp_std           00000000006D2358  Unknown               Unknown  Unknown
vasp_std           0000000000E4BE43  Unknown               Unknown  Unknown
vasp_std           0000000000EC6C9E  Unknown               Unknown  Unknown
vasp_std           0000000001937477  Unknown               Unknown  Unknown
vasp_std           0000000001911A78  Unknown               Unknown  Unknown
vasp_std           000000000040B822  Unknown               Unknown  Unknown
libc-2.17.so       00002BA9BE8B2505  __libc_start_main     Unknown  Unknown
vasp_std           000000000040B729  Unknown               Unknown  Unknown
forrtl: error (78): process killed (SIGTERM)
Image              PC                Routine            Line        Source             
vasp_std           0000000006498474  Unknown               Unknown  Unknown
libpthread-2.17.s  00002AE0302805F0  Unknown               Unknown  Unknown
libmpi.so.12       00002AE0311F5981  PMPIDI_CH3I_Progr     Unknown  Unknown
libmpi.so.12.0     00002AE0315A4572  Unknown               Unknown  Unknown
libmpi.so.12.0     00002AE031351130  Unknown               Unknown  Unknown
libmpi.so.12       00002AE0311C2327  PMPI_Alltoallv        Unknown  Unknown
libmpifort.so.12.  00002AE030D6CB21  pmpi_alltoallv_       Unknown  Unknown
vasp_std           00000000004474A5  Unknown               Unknown  Unknown
vasp_std           000000000189AF05  Unknown               Unknown  Unknown
vasp_std           000000000188DC11  Unknown               Unknown  Unknown
vasp_std           000000000188F164  Unknown               Unknown  Unknown
vasp_std           0000000001891BC4  Unknown               Unknown  Unknown
vasp_std           00000000006D5FC9  Unknown               Unknown  Unknown
vasp_std           00000000006D2358  Unknown               Unknown  Unknown
vasp_std           0000000000E4BE43  Unknown               Unknown  Unknown
vasp_std           0000000000EC6C9E  Unknown               Unknown  Unknown
vasp_std           0000000001937477  Unknown               Unknown  Unknown
vasp_std           0000000001911A78  Unknown               Unknown  Unknown
vasp_std           000000000040B822  Unknown               Unknown  Unknown
libc-2.17.so       00002AE031F77505  __libc_start_main     Unknown  Unknown
vasp_std           000000000040B729  Unknown               Unknown  Unknown
forrtl: error (78): process killed (SIGTERM)
Image              PC                Routine            Line        Source             
vasp_std           0000000006498474  Unknown               Unknown  Unknown
libpthread-2.17.s  00002BA2F69835F0  Unknown               Unknown  Unknown
libmpi.so.12       00002BA2F78F8918  PMPIDI_CH3I_Progr     Unknown  Unknown
libmpi.so.12.0     00002BA2F7CA7572  Unknown               Unknown  Unknown
libmpi.so.12.0     00002BA2F7A54130  Unknown               Unknown  Unknown
libmpi.so.12       00002BA2F78C5327  PMPI_Alltoallv        Unknown  Unknown
libmpifort.so.12.  00002BA2F746FB21  pmpi_alltoallv_       Unknown  Unknown
vasp_std           00000000004474A5  Unknown               Unknown  Unknown
vasp_std           000000000189AF05  Unknown               Unknown  Unknown
vasp_std           000000000188DC11  Unknown               Unknown  Unknown
vasp_std           000000000188F164  Unknown               Unknown  Unknown
vasp_std           0000000001891BC4  Unknown               Unknown  Unknown
vasp_std           00000000006D5FC9  Unknown               Unknown  Unknown
vasp_std           00000000006D2358  Unknown               Unknown  Unknown
vasp_std           0000000000E4BE43  Unknown               Unknown  Unknown
vasp_std           0000000000EC6C9E  Unknown               Unknown  Unknown
vasp_std           0000000001937477  Unknown               Unknown  Unknown
vasp_std           0000000001911A78  Unknown               Unknown  Unknown
vasp_std           000000000040B822  Unknown               Unknown  Unknown
libc-2.17.so       00002BA2F867A505  __libc_start_main     Unknown  Unknown
vasp_std           000000000040B729  Unknown               Unknown  Unknown
forrtl: error (78): process killed (SIGTERM)
Image              PC                Routine            Line        Source             
vasp_std           0000000006498474  Unknown               Unknown  Unknown
libpthread-2.17.s  00002AEB2216F5F0  Unknown               Unknown  Unknown
libc-2.17.so       00002AEB23F27727  __sched_yield         Unknown  Unknown
libmpi.so.12       00002AEB230E4C73  PMPIDI_CH3I_Progr     Unknown  Unknown
libmpi.so.12.0     00002AEB23493572  Unknown               Unknown  Unknown
libmpi.so.12.0     00002AEB23240130  Unknown               Unknown  Unknown
libmpi.so.12       00002AEB230B1327  PMPI_Alltoallv        Unknown  Unknown
libmpifort.so.12.  00002AEB22C5BB21  pmpi_alltoallv_       Unknown  Unknown
vasp_std           00000000004474A5  Unknown               Unknown  Unknown
vasp_std           000000000189AF05  Unknown               Unknown  Unknown
vasp_std           000000000188DC11  Unknown               Unknown  Unknown
vasp_std           000000000188F164  Unknown               Unknown  Unknown
vasp_std           0000000001891BC4  Unknown               Unknown  Unknown
vasp_std           00000000006D5FC9  Unknown               Unknown  Unknown
vasp_std           00000000006D2358  Unknown               Unknown  Unknown
vasp_std           0000000000E4BE43  Unknown               Unknown  Unknown
vasp_std           0000000000EC6C9E  Unknown               Unknown  Unknown
vasp_std           0000000001937477  Unknown               Unknown  Unknown
vasp_std           0000000001911A78  Unknown               Unknown  Unknown
vasp_std           000000000040B822  Unknown               Unknown  Unknown
libc-2.17.so       00002AEB23E66505  __libc_start_main     Unknown  Unknown
vasp_std           000000000040B729  Unknown               Unknown  Unknown
forrtl: error (78): process killed (SIGTERM)
Image              PC                Routine            Line        Source             
vasp_std           0000000006498474  Unknown               Unknown  Unknown
libpthread-2.17.s  00002B03AB40A5F0  Unknown               Unknown  Unknown
libmpi.so.12       00002B03AC37F959  PMPIDI_CH3I_Progr     Unknown  Unknown
libmpi.so.12.0     00002B03AC72E572  Unknown               Unknown  Unknown
libmpi.so.12.0     00002B03AC4DB130  Unknown               Unknown  Unknown
libmpi.so.12       00002B03AC34C327  PMPI_Alltoallv        Unknown  Unknown
libmpifort.so.12.  00002B03ABEF6B21  pmpi_alltoallv_       Unknown  Unknown
vasp_std           00000000004474A5  Unknown               Unknown  Unknown
vasp_std           000000000189AF05  Unknown               Unknown  Unknown
vasp_std           000000000188DC11  Unknown               Unknown  Unknown
vasp_std           000000000188F164  Unknown               Unknown  Unknown
vasp_std           0000000001891BC4  Unknown               Unknown  Unknown
vasp_std           00000000006D5FC9  Unknown               Unknown  Unknown
vasp_std           00000000006D2358  Unknown               Unknown  Unknown
vasp_std           0000000000E4BE43  Unknown               Unknown  Unknown
vasp_std           0000000000EC6C9E  Unknown               Unknown  Unknown
vasp_std           0000000001937477  Unknown               Unknown  Unknown
vasp_std           0000000001911A78  Unknown               Unknown  Unknown
vasp_std           000000000040B822  Unknown               Unknown  Unknown
libc-2.17.so       00002B03AD101505  __libc_start_main     Unknown  Unknown
vasp_std           000000000040B729  Unknown               Unknown  Unknown
forrtl: error (78): process killed (SIGTERM)
Image              PC                Routine            Line        Source             
vasp_std           0000000006498474  Unknown               Unknown  Unknown
libpthread-2.17.s  00002B7955EF05F0  Unknown               Unknown  Unknown
libmpi.so.12       00002B7956E65959  PMPIDI_CH3I_Progr     Unknown  Unknown
libmpi.so.12.0     00002B7957214572  Unknown               Unknown  Unknown
libmpi.so.12.0     00002B7956FC1130  Unknown               Unknown  Unknown
libmpi.so.12       00002B7956E32327  PMPI_Alltoallv        Unknown  Unknown
libmpifort.so.12.  00002B79569DCB21  pmpi_alltoallv_       Unknown  Unknown
vasp_std           00000000004474A5  Unknown               Unknown  Unknown
vasp_std           000000000189AF05  Unknown               Unknown  Unknown
vasp_std           000000000188DC11  Unknown               Unknown  Unknown
vasp_std           000000000188F164  Unknown               Unknown  Unknown
vasp_std           0000000001891BC4  Unknown               Unknown  Unknown
vasp_std           00000000006D5FC9  Unknown               Unknown  Unknown
vasp_std           00000000006D2358  Unknown               Unknown  Unknown
vasp_std           0000000000E4BE43  Unknown               Unknown  Unknown
vasp_std           0000000000EC6C9E  Unknown               Unknown  Unknown
vasp_std           0000000001937477  Unknown               Unknown  Unknown
vasp_std           0000000001911A78  Unknown               Unknown  Unknown
vasp_std           000000000040B822  Unknown               Unknown  Unknown
libc-2.17.so       00002B7957BE7505  __libc_start_main     Unknown  Unknown
vasp_std           000000000040B729  Unknown               Unknown  Unknown
forrtl: error (78): process killed (SIGTERM)
Image              PC                Routine            Line        Source             
vasp_std           0000000006498474  Unknown               Unknown  Unknown
libpthread-2.17.s  00002B137629F5F0  Unknown               Unknown  Unknown
libmpi.so.12       00002B1377214959  PMPIDI_CH3I_Progr     Unknown  Unknown
libmpi.so.12.0     00002B13775C3572  Unknown               Unknown  Unknown
libmpi.so.12.0     00002B1377370130  Unknown               Unknown  Unknown
libmpi.so.12       00002B13771E1327  PMPI_Alltoallv        Unknown  Unknown
libmpifort.so.12.  00002B1376D8BB21  pmpi_alltoallv_       Unknown  Unknown
vasp_std           00000000004474A5  Unknown               Unknown  Unknown
vasp_std           000000000189AF05  Unknown               Unknown  Unknown
vasp_std           000000000188DC11  Unknown               Unknown  Unknown
vasp_std           000000000188F164  Unknown               Unknown  Unknown
vasp_std           0000000001891BC4  Unknown               Unknown  Unknown
vasp_std           00000000006D5FC9  Unknown               Unknown  Unknown
vasp_std           00000000006D2358  Unknown               Unknown  Unknown
vasp_std           0000000000E4BE43  Unknown               Unknown  Unknown
vasp_std           0000000000EC6C9E  Unknown               Unknown  Unknown
vasp_std           0000000001937477  Unknown               Unknown  Unknown
vasp_std           0000000001911A78  Unknown               Unknown  Unknown
vasp_std           000000000040B822  Unknown               Unknown  Unknown
libc-2.17.so       00002B1377F96505  __libc_start_main     Unknown  Unknown
vasp_std           000000000040B729  Unknown               Unknown  Unknown
forrtl: error (78): process killed (SIGTERM)
Image              PC                Routine            Line        Source             
vasp_std           0000000006498474  Unknown               Unknown  Unknown
libpthread-2.17.s  00002B2DB91675F0  Unknown               Unknown  Unknown
libmpi.so.12       00002B2DBA0DC911  PMPIDI_CH3I_Progr     Unknown  Unknown
libmpi.so.12.0     00002B2DBA48B572  Unknown               Unknown  Unknown
libmpi.so.12.0     00002B2DBA238130  Unknown               Unknown  Unknown
libmpi.so.12       00002B2DBA0A9327  PMPI_Alltoallv        Unknown  Unknown
libmpifort.so.12.  00002B2DB9C53B21  pmpi_alltoallv_       Unknown  Unknown
vasp_std           00000000004474A5  Unknown               Unknown  Unknown
vasp_std           000000000189AF05  Unknown               Unknown  Unknown
vasp_std           000000000188DC11  Unknown               Unknown  Unknown
vasp_std           000000000188F164  Unknown               Unknown  Unknown
vasp_std           0000000001891BC4  Unknown               Unknown  Unknown
vasp_std           00000000006D5FC9  Unknown               Unknown  Unknown
vasp_std           00000000006D2358  Unknown               Unknown  Unknown
vasp_std           0000000000E4BE43  Unknown               Unknown  Unknown
vasp_std           0000000000EC6C9E  Unknown               Unknown  Unknown
vasp_std           0000000001937477  Unknown               Unknown  Unknown
vasp_std           0000000001911A78  Unknown               Unknown  Unknown
vasp_std           000000000040B822  Unknown               Unknown  Unknown
libc-2.17.so       00002B2DBAE5E505  __libc_start_main     Unknown  Unknown
vasp_std           000000000040B729  Unknown               Unknown  Unknown
forrtl: error (78): process killed (SIGTERM)
Image              PC                Routine            Line        Source             
vasp_std           0000000006498474  Unknown               Unknown  Unknown
libpthread-2.17.s  00002B3B9D3F35F0  Unknown               Unknown  Unknown
libmpi.so.12       00002B3B9E368918  PMPIDI_CH3I_Progr     Unknown  Unknown
libmpi.so.12.0     00002B3B9E717572  Unknown               Unknown  Unknown
libmpi.so.12.0     00002B3B9E4C4130  Unknown               Unknown  Unknown
libmpi.so.12       00002B3B9E335327  PMPI_Alltoallv        Unknown  Unknown
libmpifort.so.12.  00002B3B9DEDFB21  pmpi_alltoallv_       Unknown  Unknown
vasp_std           00000000004474A5  Unknown               Unknown  Unknown
vasp_std           000000000189AF05  Unknown               Unknown  Unknown
vasp_std           000000000188DC11  Unknown               Unknown  Unknown
vasp_std           000000000188F164  Unknown               Unknown  Unknown
vasp_std           0000000001891BC4  Unknown               Unknown  Unknown
vasp_std           00000000006D5FC9  Unknown               Unknown  Unknown
vasp_std           00000000006D2358  Unknown               Unknown  Unknown
vasp_std           0000000000E4BE43  Unknown               Unknown  Unknown
vasp_std           0000000000EC6C9E  Unknown               Unknown  Unknown
vasp_std           0000000001937477  Unknown               Unknown  Unknown
vasp_std           0000000001911A78  Unknown               Unknown  Unknown
vasp_std           000000000040B822  Unknown               Unknown  Unknown
libc-2.17.so       00002B3B9F0EA505  __libc_start_main     Unknown  Unknown
vasp_std           000000000040B729  Unknown               Unknown  Unknown
forrtl: error (78): process killed (SIGTERM)
Image              PC                Routine            Line        Source             
vasp_std           0000000006498474  Unknown               Unknown  Unknown
libpthread-2.17.s  00002B11ABB715F0  Unknown               Unknown  Unknown
libmpi.so.12       00002B11ACAE781E  PMPIDI_CH3I_Progr     Unknown  Unknown
libmpi.so.12.0     00002B11ACE95572  Unknown               Unknown  Unknown
libmpi.so.12.0     00002B11ACC42130  Unknown               Unknown  Unknown
libmpi.so.12       00002B11ACAB3327  PMPI_Alltoallv        Unknown  Unknown
libmpifort.so.12.  00002B11AC65DB21  pmpi_alltoallv_       Unknown  Unknown
vasp_std           00000000004474A5  Unknown               Unknown  Unknown
vasp_std           000000000189AF05  Unknown               Unknown  Unknown
vasp_std           000000000188DC11  Unknown               Unknown  Unknown
vasp_std           000000000188F164  Unknown               Unknown  Unknown
vasp_std           0000000001891BC4  Unknown               Unknown  Unknown
vasp_std           00000000006D5FC9  Unknown               Unknown  Unknown
vasp_std           00000000006D2358  Unknown               Unknown  Unknown
vasp_std           0000000000E4BE43  Unknown               Unknown  Unknown
vasp_std           0000000000EC6C9E  Unknown               Unknown  Unknown
vasp_std           0000000001937477  Unknown               Unknown  Unknown
vasp_std           0000000001911A78  Unknown               Unknown  Unknown
vasp_std           000000000040B822  Unknown               Unknown  Unknown
libc-2.17.so       00002B11AD868505  __libc_start_main     Unknown  Unknown
vasp_std           000000000040B729  Unknown               Unknown  Unknown
forrtl: error (78): process killed (SIGTERM)
Image              PC                Routine            Line        Source             
vasp_std           0000000006498474  Unknown               Unknown  Unknown
libpthread-2.17.s  00002B962ECB45F0  Unknown               Unknown  Unknown
libc-2.17.so       00002B9630A6C727  __sched_yield         Unknown  Unknown
libmpi.so.12       00002B962FC29C73  PMPIDI_CH3I_Progr     Unknown  Unknown
libmpi.so.12.0     00002B962FFD8572  Unknown               Unknown  Unknown
libmpi.so.12.0     00002B962FD85130  Unknown               Unknown  Unknown
libmpi.so.12       00002B962FBF6327  PMPI_Alltoallv        Unknown  Unknown
libmpifort.so.12.  00002B962F7A0B21  pmpi_alltoallv_       Unknown  Unknown
vasp_std           00000000004474A5  Unknown               Unknown  Unknown
vasp_std           000000000189AF05  Unknown               Unknown  Unknown
vasp_std           000000000188DC11  Unknown               Unknown  Unknown
vasp_std           000000000188F164  Unknown               Unknown  Unknown
vasp_std           0000000001891BC4  Unknown               Unknown  Unknown
vasp_std           00000000006D5FC9  Unknown               Unknown  Unknown
vasp_std           00000000006D2358  Unknown               Unknown  Unknown
vasp_std           0000000000E4BE43  Unknown               Unknown  Unknown
vasp_std           0000000000EC6C9E  Unknown               Unknown  Unknown
vasp_std           0000000001937477  Unknown               Unknown  Unknown
vasp_std           0000000001911A78  Unknown               Unknown  Unknown
vasp_std           000000000040B822  Unknown               Unknown  Unknown
libc-2.17.so       00002B96309AB505  __libc_start_main     Unknown  Unknown
vasp_std           000000000040B729  Unknown               Unknown  Unknown
forrtl: error (78): process killed (SIGTERM)
Image              PC                Routine            Line        Source             
vasp_std           0000000006498474  Unknown               Unknown  Unknown
libpthread-2.17.s  00002B75C914D5F0  Unknown               Unknown  Unknown
libmpi.so.12       00002B75CA0C2918  PMPIDI_CH3I_Progr     Unknown  Unknown
libmpi.so.12.0     00002B75CA471572  Unknown               Unknown  Unknown
libmpi.so.12.0     00002B75CA21E130  Unknown               Unknown  Unknown
libmpi.so.12       00002B75CA08F327  PMPI_Alltoallv        Unknown  Unknown
libmpifort.so.12.  00002B75C9C39B21  pmpi_alltoallv_       Unknown  Unknown
vasp_std           00000000004474A5  Unknown               Unknown  Unknown
vasp_std           000000000189AF05  Unknown               Unknown  Unknown
vasp_std           000000000188DC11  Unknown               Unknown  Unknown
vasp_std           000000000188F164  Unknown               Unknown  Unknown
vasp_std           0000000001891BC4  Unknown               Unknown  Unknown
vasp_std           00000000006D5FC9  Unknown               Unknown  Unknown
vasp_std           00000000006D2358  Unknown               Unknown  Unknown
vasp_std           0000000000E4BE43  Unknown               Unknown  Unknown
vasp_std           0000000000EC6C9E  Unknown               Unknown  Unknown
vasp_std           0000000001937477  Unknown               Unknown  Unknown
vasp_std           0000000001911A78  Unknown               Unknown  Unknown
vasp_std           000000000040B822  Unknown               Unknown  Unknown
libc-2.17.so       00002B75CAE44505  __libc_start_main     Unknown  Unknown
vasp_std           000000000040B729  Unknown               Unknown  Unknown
forrtl: error (78): process killed (SIGTERM)
Image              PC                Routine            Line        Source             
vasp_std           0000000006498474  Unknown               Unknown  Unknown
libpthread-2.17.s  00002AC7A9AC45F0  Unknown               Unknown  Unknown
libmpi.so.12       00002AC7AAA39959  PMPIDI_CH3I_Progr     Unknown  Unknown
libmpi.so.12.0     00002AC7AADE8572  Unknown               Unknown  Unknown
libmpi.so.12.0     00002AC7AAB95130  Unknown               Unknown  Unknown
libmpi.so.12       00002AC7AAA06327  PMPI_Alltoallv        Unknown  Unknown
libmpifort.so.12.  00002AC7AA5B0B21  pmpi_alltoallv_       Unknown  Unknown
vasp_std           00000000004474A5  Unknown               Unknown  Unknown
vasp_std           000000000189AF05  Unknown               Unknown  Unknown
vasp_std           000000000188DC11  Unknown               Unknown  Unknown
vasp_std           000000000188F164  Unknown               Unknown  Unknown
vasp_std           0000000001891BC4  Unknown               Unknown  Unknown
vasp_std           00000000006D5FC9  Unknown               Unknown  Unknown
vasp_std           00000000006D2358  Unknown               Unknown  Unknown
vasp_std           0000000000E4BE43  Unknown               Unknown  Unknown
vasp_std           0000000000EC6C9E  Unknown               Unknown  Unknown
vasp_std           0000000001937477  Unknown               Unknown  Unknown
vasp_std           0000000001911A78  Unknown               Unknown  Unknown
vasp_std           000000000040B822  Unknown               Unknown  Unknown
libc-2.17.so       00002AC7AB7BB505  __libc_start_main     Unknown  Unknown
vasp_std           000000000040B729  Unknown               Unknown  Unknown
forrtl: error (78): process killed (SIGTERM)
Image              PC                Routine            Line        Source             
vasp_std           0000000006498474  Unknown               Unknown  Unknown
libpthread-2.17.s  00002AEFDE9E05F0  Unknown               Unknown  Unknown
libmpi.so.12       00002AEFDF95591A  PMPIDI_CH3I_Progr     Unknown  Unknown
libmpi.so.12.0     00002AEFDFD04572  Unknown               Unknown  Unknown
libmpi.so.12.0     00002AEFDFAB1130  Unknown               Unknown  Unknown
libmpi.so.12       00002AEFDF922327  PMPI_Alltoallv        Unknown  Unknown
libmpifort.so.12.  00002AEFDF4CCB21  pmpi_alltoallv_       Unknown  Unknown
vasp_std           00000000004474A5  Unknown               Unknown  Unknown
vasp_std           000000000189AF05  Unknown               Unknown  Unknown
vasp_std           000000000188DC11  Unknown               Unknown  Unknown
vasp_std           000000000188F164  Unknown               Unknown  Unknown
vasp_std           0000000001891BC4  Unknown               Unknown  Unknown
vasp_std           00000000006D5FC9  Unknown               Unknown  Unknown
vasp_std           00000000006D2358  Unknown               Unknown  Unknown
vasp_std           0000000000E4BE43  Unknown               Unknown  Unknown
vasp_std           0000000000EC6C9E  Unknown               Unknown  Unknown
vasp_std           0000000001937477  Unknown               Unknown  Unknown
vasp_std           0000000001911A78  Unknown               Unknown  Unknown
vasp_std           000000000040B822  Unknown               Unknown  Unknown
libc-2.17.so       00002AEFE06D7505  __libc_start_main     Unknown  Unknown
vasp_std           000000000040B729  Unknown               Unknown  Unknown
forrtl: error (78): process killed (SIGTERM)
Image              PC                Routine            Line        Source             
vasp_std           0000000006498474  Unknown               Unknown  Unknown
libpthread-2.17.s  00002B8DECF125F0  Unknown               Unknown  Unknown
libmpi.so.12       00002B8DEDE8791A  PMPIDI_CH3I_Progr     Unknown  Unknown
libmpi.so.12.0     00002B8DEE236572  Unknown               Unknown  Unknown
libmpi.so.12.0     00002B8DEDFE3130  Unknown               Unknown  Unknown
libmpi.so.12       00002B8DEDE54327  PMPI_Alltoallv        Unknown  Unknown
libmpifort.so.12.  00002B8DED9FEB21  pmpi_alltoallv_       Unknown  Unknown
vasp_std           00000000004474A5  Unknown               Unknown  Unknown
vasp_std           000000000189AF05  Unknown               Unknown  Unknown
vasp_std           000000000188DC11  Unknown               Unknown  Unknown
vasp_std           000000000188F164  Unknown               Unknown  Unknown
vasp_std           0000000001891BC4  Unknown               Unknown  Unknown
vasp_std           00000000006D5FC9  Unknown               Unknown  Unknown
vasp_std           00000000006D2358  Unknown               Unknown  Unknown
vasp_std           0000000000E4BE43  Unknown               Unknown  Unknown
vasp_std           0000000000EC6C9E  Unknown               Unknown  Unknown
vasp_std           0000000001937477  Unknown               Unknown  Unknown
vasp_std           0000000001911A78  Unknown               Unknown  Unknown
vasp_std           000000000040B822  Unknown               Unknown  Unknown
libc-2.17.so       00002B8DEEC09505  __libc_start_main     Unknown  Unknown
vasp_std           000000000040B729  Unknown               Unknown  Unknown
forrtl: error (78): process killed (SIGTERM)
Image              PC                Routine            Line        Source             
vasp_std           0000000006498474  Unknown               Unknown  Unknown
libpthread-2.17.s  00002B61766575F0  Unknown               Unknown  Unknown
libmpi.so.12       00002B61775CC959  PMPIDI_CH3I_Progr     Unknown  Unknown
libmpi.so.12.0     00002B617797B572  Unknown               Unknown  Unknown
libmpi.so.12.0     00002B6177728130  Unknown               Unknown  Unknown
libmpi.so.12       00002B6177599327  PMPI_Alltoallv        Unknown  Unknown
libmpifort.so.12.  00002B6177143B21  pmpi_alltoallv_       Unknown  Unknown
vasp_std           00000000004474A5  Unknown               Unknown  Unknown
vasp_std           000000000189AF05  Unknown               Unknown  Unknown
vasp_std           000000000188DC11  Unknown               Unknown  Unknown
vasp_std           000000000188F164  Unknown               Unknown  Unknown
vasp_std           0000000001891BC4  Unknown               Unknown  Unknown
vasp_std           00000000006D5FC9  Unknown               Unknown  Unknown
vasp_std           00000000006D2358  Unknown               Unknown  Unknown
vasp_std           0000000000E4BE43  Unknown               Unknown  Unknown
vasp_std           0000000000EC6C9E  Unknown               Unknown  Unknown
vasp_std           0000000001937477  Unknown               Unknown  Unknown
vasp_std           0000000001911A78  Unknown               Unknown  Unknown
vasp_std           000000000040B822  Unknown               Unknown  Unknown
libc-2.17.so       00002B617834E505  __libc_start_main     Unknown  Unknown
vasp_std           000000000040B729  Unknown               Unknown  Unknown
forrtl: error (78): process killed (SIGTERM)
Image              PC                Routine            Line        Source             
vasp_std           0000000006498474  Unknown               Unknown  Unknown
libpthread-2.17.s  00002B3A57B7E5F0  Unknown               Unknown  Unknown
libmpi.so.12       00002B3A58AF3918  PMPIDI_CH3I_Progr     Unknown  Unknown
libmpi.so.12.0     00002B3A58EA2572  Unknown               Unknown  Unknown
libmpi.so.12.0     00002B3A58C4F130  Unknown               Unknown  Unknown
libmpi.so.12       00002B3A58AC0327  PMPI_Alltoallv        Unknown  Unknown
libmpifort.so.12.  00002B3A5866AB21  pmpi_alltoallv_       Unknown  Unknown
vasp_std           00000000004474A5  Unknown               Unknown  Unknown
vasp_std           000000000189AF05  Unknown               Unknown  Unknown
vasp_std           000000000188DC11  Unknown               Unknown  Unknown
vasp_std           000000000188F164  Unknown               Unknown  Unknown
vasp_std           0000000001891BC4  Unknown               Unknown  Unknown
vasp_std           00000000006D5FC9  Unknown               Unknown  Unknown
vasp_std           00000000006D2358  Unknown               Unknown  Unknown
vasp_std           0000000000E4BE43  Unknown               Unknown  Unknown
vasp_std           0000000000EC6C9E  Unknown               Unknown  Unknown
vasp_std           0000000001937477  Unknown               Unknown  Unknown
vasp_std           0000000001911A78  Unknown               Unknown  Unknown
vasp_std           000000000040B822  Unknown               Unknown  Unknown
libc-2.17.so       00002B3A59875505  __libc_start_main     Unknown  Unknown
vasp_std           000000000040B729  Unknown               Unknown  Unknown
forrtl: error (78): process killed (SIGTERM)
Image              PC                Routine            Line        Source             
vasp_std           0000000006498474  Unknown               Unknown  Unknown
libpthread-2.17.s  00002B0B621B75F0  Unknown               Unknown  Unknown
libmpi.so.12.0     00002B0B631275BB  Unknown               Unknown  Unknown
libmpi.so.12.0     00002B0B631262C2  Unknown               Unknown  Unknown
libmpi.so.12.0     00002B0B6313BB24  Unknown               Unknown  Unknown
libmpi.so.12.0     00002B0B6334C238  Unknown               Unknown  Unknown
libmpi.so.12.0     00002B0B63287AA5  Unknown               Unknown  Unknown
libmpi.so.12       00002B0B630F92C4  PMPI_Alltoallv        Unknown  Unknown
libmpifort.so.12.  00002B0B62CA3B21  pmpi_alltoallv_       Unknown  Unknown
vasp_std           00000000004474A5  Unknown               Unknown  Unknown
vasp_std           000000000189AF05  Unknown               Unknown  Unknown
vasp_std           000000000188DC11  Unknown               Unknown  Unknown
vasp_std           000000000188F164  Unknown               Unknown  Unknown
vasp_std           0000000001891BC4  Unknown               Unknown  Unknown
vasp_std           00000000006D5FC9  Unknown               Unknown  Unknown
vasp_std           00000000006D2358  Unknown               Unknown  Unknown
vasp_std           0000000000E4BE43  Unknown               Unknown  Unknown
vasp_std           0000000000EC6C9E  Unknown               Unknown  Unknown
vasp_std           0000000001937477  Unknown               Unknown  Unknown
vasp_std           0000000001911A78  Unknown               Unknown  Unknown
vasp_std           000000000040B822  Unknown               Unknown  Unknown
libc-2.17.so       00002B0B63EAE505  __libc_start_main     Unknown  Unknown
vasp_std           000000000040B729  Unknown               Unknown  Unknown
forrtl: error (78): process killed (SIGTERM)
Image              PC                Routine            Line        Source             
vasp_std           0000000006498474  Unknown               Unknown  Unknown
libpthread-2.17.s  00002B06264685F0  Unknown               Unknown  Unknown
libmpi.so.12.0     00002B062760B419  Unknown               Unknown  Unknown
libmpi.so.12.0     00002B06273D8697  Unknown               Unknown  Unknown
libmpi.so.12.0     00002B06273D72C2  Unknown               Unknown  Unknown
libmpi.so.12.0     00002B06273ECB24  Unknown               Unknown  Unknown
libmpi.so.12.0     00002B06275FD238  Unknown               Unknown  Unknown
libmpi.so.12.0     00002B0627538AA5  Unknown               Unknown  Unknown
libmpi.so.12       00002B06273AA2C4  PMPI_Alltoallv        Unknown  Unknown
libmpifort.so.12.  00002B0626F54B21  pmpi_alltoallv_       Unknown  Unknown
vasp_std           00000000004474A5  Unknown               Unknown  Unknown
vasp_std           000000000189AF05  Unknown               Unknown  Unknown
vasp_std           000000000188DC11  Unknown               Unknown  Unknown
vasp_std           000000000188F164  Unknown               Unknown  Unknown
vasp_std           0000000001891BC4  Unknown               Unknown  Unknown
vasp_std           00000000006D5FC9  Unknown               Unknown  Unknown
vasp_std           00000000006D2358  Unknown               Unknown  Unknown
vasp_std           0000000000E4BE43  Unknown               Unknown  Unknown
vasp_std           0000000000EC6C9E  Unknown               Unknown  Unknown
vasp_std           0000000001937477  Unknown               Unknown  Unknown
vasp_std           0000000001911A78  Unknown               Unknown  Unknown
vasp_std           000000000040B822  Unknown               Unknown  Unknown
libc-2.17.so       00002B062815F505  __libc_start_main     Unknown  Unknown
vasp_std           000000000040B729  Unknown               Unknown  Unknown
forrtl: error (78): process killed (SIGTERM)
Image              PC                Routine            Line        Source             
vasp_std           0000000006498474  Unknown               Unknown  Unknown
libpthread-2.17.s  00002B0D9B5695F0  Unknown               Unknown  Unknown
libmpi.so.12.0     00002B0D9C70C46B  Unknown               Unknown  Unknown
libmpi.so.12.0     00002B0D9C4D9697  Unknown               Unknown  Unknown
libmpi.so.12.0     00002B0D9C4D82C2  Unknown               Unknown  Unknown
libmpi.so.12.0     00002B0D9C4EDB24  Unknown               Unknown  Unknown
libmpi.so.12.0     00002B0D9C6FE238  Unknown               Unknown  Unknown
libmpi.so.12.0     00002B0D9C639AA5  Unknown               Unknown  Unknown
libmpi.so.12       00002B0D9C4AB2C4  PMPI_Alltoallv        Unknown  Unknown
libmpifort.so.12.  00002B0D9C055B21  pmpi_alltoallv_       Unknown  Unknown
vasp_std           00000000004474A5  Unknown               Unknown  Unknown
vasp_std           000000000189AF05  Unknown               Unknown  Unknown
vasp_std           000000000188DC11  Unknown               Unknown  Unknown
vasp_std           000000000188F164  Unknown               Unknown  Unknown
vasp_std           0000000001891BC4  Unknown               Unknown  Unknown
vasp_std           00000000006D5FC9  Unknown               Unknown  Unknown
vasp_std           00000000006D2358  Unknown               Unknown  Unknown
vasp_std           0000000000E4BE43  Unknown               Unknown  Unknown
vasp_std           0000000000EC6C9E  Unknown               Unknown  Unknown
vasp_std           0000000001937477  Unknown               Unknown  Unknown
vasp_std           0000000001911A78  Unknown               Unknown  Unknown
vasp_std           000000000040B822  Unknown               Unknown  Unknown
libc-2.17.so       00002B0D9D260505  __libc_start_main     Unknown  Unknown
vasp_std           000000000040B729  Unknown               Unknown  Unknown
forrtl: error (78): process killed (SIGTERM)
Image              PC                Routine            Line        Source             
vasp_std           0000000006498474  Unknown               Unknown  Unknown
libpthread-2.17.s  00002ADDB05155F0  Unknown               Unknown  Unknown
libmpi.so.12.0     00002ADDB16B8419  Unknown               Unknown  Unknown
libmpi.so.12.0     00002ADDB1485697  Unknown               Unknown  Unknown
libmpi.so.12.0     00002ADDB14842C2  Unknown               Unknown  Unknown
libmpi.so.12.0     00002ADDB1499B24  Unknown               Unknown  Unknown
libmpi.so.12.0     00002ADDB16AA238  Unknown               Unknown  Unknown
libmpi.so.12.0     00002ADDB15E5AA5  Unknown               Unknown  Unknown
libmpi.so.12       00002ADDB14572C4  PMPI_Alltoallv        Unknown  Unknown
libmpifort.so.12.  00002ADDB1001B21  pmpi_alltoallv_       Unknown  Unknown
vasp_std           00000000004474A5  Unknown               Unknown  Unknown
vasp_std           000000000189AF05  Unknown               Unknown  Unknown
vasp_std           000000000188DC11  Unknown               Unknown  Unknown
vasp_std           000000000188F164  Unknown               Unknown  Unknown
vasp_std           0000000001891BC4  Unknown               Unknown  Unknown
vasp_std           00000000006D5FC9  Unknown               Unknown  Unknown
vasp_std           00000000006D2358  Unknown               Unknown  Unknown
vasp_std           0000000000E4BE43  Unknown               Unknown  Unknown
vasp_std           0000000000EC6C9E  Unknown               Unknown  Unknown
vasp_std           0000000001937477  Unknown               Unknown  Unknown
vasp_std           0000000001911A78  Unknown               Unknown  Unknown
vasp_std           000000000040B822  Unknown               Unknown  Unknown
libc-2.17.so       00002ADDB220C505  __libc_start_main     Unknown  Unknown
vasp_std           000000000040B729  Unknown               Unknown  Unknown
