  PAW_PBE K_sv 06Sep2000                 
   9.00000000000000     
 parameters from PSCTR are:
   SHA256 =  bf8373ef592e31d27efa2dcc68371be6d6a25ce4db6c2ffaf9e92c44050ba21a K_sv/POTCAR
   COPYR  = (c) Copyright 06Sep2000 Georg Kresse
   COPYR  = This file is part of the software VASP. Any use, copying, and all other rights are regulated by the VASP license agreement.
   COPYR  = If you do not have a valid VASP license, you may not use, copy or distribute this file.
   VRHFIN =K:  3s3p4s
   LEXCH  = PE
   EATOM  =   775.0067 eV,   56.9614 Ry

   TITEL  = PAW_PBE K_sv 06Sep2000
   LULTRA =        F    use ultrasoft PP ?
   IUNSCR =        1    unscreen: 0-lin 1-nonlin 2-no
   RPACOR =    2.200    partial core radius
   POMASS =   39.098; ZVAL   =    9.000    mass and valenz
   RCORE  =    2.300    outmost cutoff radius
   RWIGS  =    3.000; RWIGS  =    1.588    wigner-seitz radius (au A)
   ENMAX  =  259.264; ENMIN  =  194.448 eV
   RCLOC  =    2.005    cutoff for local pot
   LCOR   =        T    correct aug charges
   LPAW   =        T    paw PP
   EAUG   =  427.853
   DEXC   =    0.000
   RMAX   =    2.358    core radius for proj-oper
   RAUG   =    1.300    factor for augmentation sphere
   RDEP   =    2.372    radius for radial grids
   RDEPT  =    2.002    core radius for aug-charge
 
   Atomic configuration
    7 entries
     n  l   j            E        occ.
     1  0  0.50     -3522.0595   2.0000
     2  0  0.50      -353.3851   2.0000
     2  1  1.50      -280.0935   6.0000
     3  0  0.50       -35.3419   2.0000
     4  0  0.50        -2.3190   1.0000
     3  1  1.50       -18.8125   6.0000
     3  2  1.50        -1.3606   0.0000
   Description
     l       E           TYP  RCUT    TYP  RCUT
     0    -35.3418873     23  2.300
     0     -2.3190215     23  2.300
     1    -18.8124623     23  2.300
     1    -20.4087390     23  2.300
     2     -1.3605826     23  2.300
   Error from kinetic energy argument (eV)
   NDATA  =      100
   STEP   =   20.000   1.050
  145.      140.      138.      133.      131.      126.      121.      118.
  113.      108.      105.      100.      95.0      89.9      84.8      79.8
  74.9      70.1      65.5      58.8      54.6      50.5      44.8      41.1
  37.7      33.0      28.6      26.0      22.3      19.0      16.1      13.6
  11.4      9.42      7.75      6.33      4.77      3.81      2.79      2.18
  1.54      1.07     0.731     0.489     0.321     0.210     0.138     0.848E-01
 0.616E-01 0.462E-01 0.386E-01 0.350E-01 0.312E-01 0.274E-01 0.224E-01 0.181E-01
 0.141E-01 0.100E-01 0.698E-02 0.499E-02 0.385E-02 0.327E-02 0.297E-02 0.274E-02
 0.250E-02 0.213E-02 0.171E-02 0.131E-02 0.942E-03 0.730E-03 0.600E-03 0.542E-03
 0.506E-03 0.461E-03 0.386E-03 0.310E-03 0.234E-03 0.182E-03 0.154E-03 0.143E-03
 0.132E-03 0.114E-03 0.908E-04 0.686E-04 0.556E-04 0.504E-04 0.471E-04 0.409E-04
 0.324E-04 0.253E-04 0.216E-04 0.203E-04 0.182E-04 0.149E-04 0.116E-04 0.101E-04
 0.943E-05 0.835E-05 0.655E-05 0.543E-05
END of PSCTR-controll parameters
 local part
   81.2582175088937     
  0.13787685E+03  0.13784495E+03  0.13774929E+03  0.13759002E+03  0.13736740E+03
  0.13708178E+03  0.13673363E+03  0.13632347E+03  0.13585197E+03  0.13531984E+03
  0.13472791E+03  0.13407707E+03  0.13336833E+03  0.13260273E+03  0.13178143E+03
  0.13090565E+03  0.12997668E+03  0.12899589E+03  0.12796472E+03  0.12688467E+03
  0.12575731E+03  0.12458427E+03  0.12336723E+03  0.12210793E+03  0.12080815E+03
  0.11946972E+03  0.11809451E+03  0.11668443E+03  0.11524140E+03  0.11376738E+03
  0.11226436E+03  0.11073432E+03  0.10917929E+03  0.10760127E+03  0.10600229E+03
  0.10438438E+03  0.10274956E+03  0.10109985E+03  0.99437239E+02  0.97763724E+02
  0.96081272E+02  0.94391827E+02  0.92697308E+02  0.90999602E+02  0.89300562E+02
  0.87602005E+02  0.85905705E+02  0.84213395E+02  0.82526760E+02  0.80847439E+02
  0.79177019E+02  0.77517032E+02  0.75868958E+02  0.74234217E+02  0.72614172E+02
  0.71010126E+02  0.69423316E+02  0.67854919E+02  0.66306048E+02  0.64777748E+02
  0.63270999E+02  0.61786717E+02  0.60325748E+02  0.58888873E+02  0.57476807E+02
  0.56090198E+02  0.54729630E+02  0.53395619E+02  0.52088619E+02  0.50809022E+02
  0.49557153E+02  0.48333280E+02  0.47137609E+02  0.45970289E+02  0.44831410E+02
  0.43721008E+02  0.42639065E+02  0.41585512E+02  0.40560231E+02  0.39563054E+02
  0.38593771E+02  0.37652128E+02  0.36737829E+02  0.35850540E+02  0.34989891E+02
  0.34155478E+02  0.33346866E+02  0.32563590E+02  0.31805159E+02  0.31071056E+02
  0.30360743E+02  0.29673662E+02  0.29009238E+02  0.28366881E+02  0.27745987E+02
  0.27145943E+02  0.26566127E+02  0.26005910E+02  0.25464660E+02  0.24941742E+02
  0.24436520E+02  0.23948361E+02  0.23476633E+02  0.23020711E+02  0.22579973E+02
  0.22153809E+02  0.21741615E+02  0.21342798E+02  0.20956777E+02  0.20582985E+02
  0.20220867E+02  0.19869883E+02  0.19529511E+02  0.19199242E+02  0.18878587E+02
  0.18567072E+02  0.18264241E+02  0.17969659E+02  0.17682907E+02  0.17403585E+02
  0.17131313E+02  0.16865729E+02  0.16606490E+02  0.16353271E+02  0.16105769E+02
  0.15863695E+02  0.15626780E+02  0.15394774E+02  0.15167443E+02  0.14944569E+02
  0.14725951E+02  0.14511406E+02  0.14300763E+02  0.14093866E+02  0.13890575E+02
  0.13690761E+02  0.13494308E+02  0.13301114E+02  0.13111085E+02  0.12924139E+02
  0.12740204E+02  0.12559217E+02  0.12381123E+02  0.12205874E+02  0.12033430E+02
  0.11863755E+02  0.11696822E+02  0.11532606E+02  0.11371085E+02  0.11212245E+02
  0.11056070E+02  0.10902550E+02  0.10751674E+02  0.10603435E+02  0.10457824E+02
  0.10314835E+02  0.10174460E+02  0.10036692E+02  0.99015222E+01  0.97689409E+01
  0.96389371E+01  0.95114980E+01  0.93866090E+01  0.92642531E+01  0.91444114E+01
  0.90270624E+01  0.89121820E+01  0.87997440E+01  0.86897192E+01  0.85820762E+01
  0.84767807E+01  0.83737961E+01  0.82730833E+01  0.81746008E+01  0.80783048E+01
  0.79841494E+01  0.78920866E+01  0.78020663E+01  0.77140371E+01  0.76279457E+01
  0.75437375E+01  0.74613570E+01  0.73807474E+01  0.73018514E+01  0.72246111E+01
  0.71489682E+01  0.70748644E+01  0.70022415E+01  0.69310413E+01  0.68612064E+01
  0.67926798E+01  0.67254054E+01  0.66593282E+01  0.65943942E+01  0.65305509E+01
  0.64677473E+01  0.64059339E+01  0.63450632E+01  0.62850894E+01  0.62259687E+01
  0.61676595E+01  0.61101224E+01  0.60533200E+01  0.59972172E+01  0.59417814E+01
  0.58869820E+01  0.58327910E+01  0.57791825E+01  0.57261330E+01  0.56736212E+01
  0.56216281E+01  0.55701370E+01  0.55191332E+01  0.54686042E+01  0.54185394E+01
  0.53689301E+01  0.53197696E+01  0.52710528E+01  0.52227762E+01  0.51749378E+01
  0.51275369E+01  0.50805742E+01  0.50340515E+01  0.49879714E+01  0.49423378E+01
  0.48971551E+01  0.48524284E+01  0.48081634E+01  0.47643661E+01  0.47210431E+01
  0.46782008E+01  0.46358459E+01  0.45939850E+01  0.45526246E+01  0.45117709E+01
  0.44714298E+01  0.44316066E+01  0.43923065E+01  0.43535336E+01  0.43152919E+01
  0.42775844E+01  0.42404135E+01  0.42037807E+01  0.41676869E+01  0.41321321E+01
  0.40971153E+01  0.40626348E+01  0.40286879E+01  0.39952712E+01  0.39623802E+01
  0.39300096E+01  0.38981534E+01  0.38668047E+01  0.38359556E+01  0.38055978E+01
  0.37757221E+01  0.37463188E+01  0.37173774E+01  0.36888871E+01  0.36608363E+01
  0.36332132E+01  0.36060056E+01  0.35792009E+01  0.35527861E+01  0.35267483E+01
  0.35010742E+01  0.34757506E+01  0.34507641E+01  0.34261015E+01  0.34017496E+01
  0.33776956E+01  0.33539266E+01  0.33304303E+01  0.33071945E+01  0.32842074E+01
  0.32614578E+01  0.32389347E+01  0.32166279E+01  0.31945274E+01  0.31726238E+01
  0.31509086E+01  0.31293734E+01  0.31080108E+01  0.30868139E+01  0.30657764E+01
  0.30448927E+01  0.30241578E+01  0.30035673E+01  0.29831176E+01  0.29628057E+01
  0.29426289E+01  0.29225854E+01  0.29026739E+01  0.28828935E+01  0.28632438E+01
  0.28437251E+01  0.28243380E+01  0.28050833E+01  0.27859626E+01  0.27669774E+01
  0.27481300E+01  0.27294224E+01  0.27108573E+01  0.26924374E+01  0.26741655E+01
  0.26560446E+01  0.26380776E+01  0.26202677E+01  0.26026178E+01  0.25851308E+01
  0.25678097E+01  0.25506571E+01  0.25336758E+01  0.25168681E+01  0.25002362E+01
  0.24837823E+01  0.24675079E+01  0.24514148E+01  0.24355040E+01  0.24197765E+01
  0.24042328E+01  0.23888734E+01  0.23736980E+01  0.23587063E+01  0.23438976E+01
  0.23292707E+01  0.23148243E+01  0.23005565E+01  0.22864655E+01  0.22725488E+01
  0.22588037E+01  0.22452275E+01  0.22318168E+01  0.22185684E+01  0.22054785E+01
  0.21925433E+01  0.21797588E+01  0.21671207E+01  0.21546248E+01  0.21422666E+01
  0.21300415E+01  0.21179450E+01  0.21059724E+01  0.20941190E+01  0.20823803E+01
  0.20707516E+01  0.20592284E+01  0.20478064E+01  0.20364810E+01  0.20252483E+01
  0.20141040E+01  0.20030442E+01  0.19920653E+01  0.19811637E+01  0.19703359E+01
  0.19595790E+01  0.19488899E+01  0.19382661E+01  0.19277051E+01  0.19172048E+01
  0.19067632E+01  0.18963789E+01  0.18860502E+01  0.18757762E+01  0.18655560E+01
  0.18553889E+01  0.18452744E+01  0.18352124E+01  0.18252030E+01  0.18152462E+01
  0.18053427E+01  0.17954929E+01  0.17856976E+01  0.17759579E+01  0.17662746E+01
  0.17566491E+01  0.17470827E+01  0.17375767E+01  0.17281326E+01  0.17187519E+01
  0.17094361E+01  0.17001868E+01  0.16910055E+01  0.16818937E+01  0.16728529E+01
  0.16638846E+01  0.16549901E+01  0.16461707E+01  0.16374277E+01  0.16287620E+01
  0.16201749E+01  0.16116670E+01  0.16032392E+01  0.15948921E+01  0.15866261E+01
  0.15784415E+01  0.15703384E+01  0.15623168E+01  0.15543765E+01  0.15465172E+01
  0.15387382E+01  0.15310391E+01  0.15234188E+01  0.15158765E+01  0.15084111E+01
  0.15010213E+01  0.14937057E+01  0.14864629E+01  0.14792912E+01  0.14721889E+01
  0.14651542E+01  0.14581851E+01  0.14512799E+01  0.14444362E+01  0.14376523E+01
  0.14309258E+01  0.14242548E+01  0.14176370E+01  0.14110704E+01  0.14045529E+01
  0.13980823E+01  0.13916568E+01  0.13852742E+01  0.13789328E+01  0.13726305E+01
  0.13663658E+01  0.13601368E+01  0.13539420E+01  0.13477799E+01  0.13416491E+01
  0.13355485E+01  0.13294768E+01  0.13234330E+01  0.13174163E+01  0.13114259E+01
  0.13054613E+01  0.12995219E+01  0.12936074E+01  0.12877175E+01  0.12818521E+01
  0.12760113E+01  0.12701950E+01  0.12644036E+01  0.12586373E+01  0.12528966E+01
  0.12471820E+01  0.12414940E+01  0.12358333E+01  0.12302007E+01  0.12245970E+01
  0.12190229E+01  0.12134794E+01  0.12079674E+01  0.12024877E+01  0.11970412E+01
  0.11916290E+01  0.11862518E+01  0.11809106E+01  0.11756062E+01  0.11703395E+01
  0.11651112E+01  0.11599220E+01  0.11547726E+01  0.11496637E+01  0.11445957E+01
  0.11395692E+01  0.11345845E+01  0.11296419E+01  0.11247417E+01  0.11198839E+01
  0.11150685E+01  0.11102956E+01  0.11055649E+01  0.11008762E+01  0.10962291E+01
  0.10916233E+01  0.10870582E+01  0.10825332E+01  0.10780478E+01  0.10736010E+01
  0.10691922E+01  0.10648205E+01  0.10604848E+01  0.10561844E+01  0.10519180E+01
  0.10476846E+01  0.10434832E+01  0.10393126E+01  0.10351716E+01  0.10310591E+01
  0.10269739E+01  0.10229148E+01  0.10188809E+01  0.10148708E+01  0.10108836E+01
  0.10069181E+01  0.10029734E+01  0.99904839E+00  0.99514221E+00  0.99125396E+00
  0.98738279E+00  0.98352795E+00  0.97968871E+00  0.97586447E+00  0.97205464E+00
  0.96825877E+00  0.96447643E+00  0.96070729E+00  0.95695112E+00  0.95320772E+00
  0.94947698E+00  0.94575888E+00  0.94205345E+00  0.93836077E+00  0.93468102E+00
  0.93101442E+00  0.92736124E+00  0.92372182E+00  0.92009656E+00  0.91648588E+00
  0.91289027E+00  0.90931023E+00  0.90574630E+00  0.90219906E+00  0.89866908E+00
  0.89515694E+00  0.89166325E+00  0.88818858E+00  0.88473354E+00  0.88129867E+00
  0.87788455E+00  0.87449169E+00  0.87112062E+00  0.86777179E+00  0.86444567E+00
  0.86114265E+00  0.85786311E+00  0.85460735E+00  0.85137565E+00  0.84816822E+00
  0.84498522E+00  0.84182675E+00  0.83869286E+00  0.83558352E+00  0.83249867E+00
  0.82943818E+00  0.82640186E+00  0.82338946E+00  0.82040071E+00  0.81743526E+00
  0.81449272E+00  0.81157266E+00  0.80867461E+00  0.80579804E+00  0.80294240E+00
  0.80010711E+00  0.79729153E+00  0.79449502E+00  0.79171691E+00  0.78895653E+00
  0.78621316E+00  0.78348612E+00  0.78077471E+00  0.77807823E+00  0.77539599E+00
  0.77272733E+00  0.77007159E+00  0.76742813E+00  0.76479635E+00  0.76217565E+00
  0.75956548E+00  0.75696531E+00  0.75437465E+00  0.75179306E+00  0.74922012E+00
  0.74665547E+00  0.74409880E+00  0.74154983E+00  0.73900835E+00  0.73647419E+00
  0.73394722E+00  0.73142737E+00  0.72891462E+00  0.72640898E+00  0.72391051E+00
  0.72141931E+00  0.71893551E+00  0.71645931E+00  0.71399090E+00  0.71153053E+00
  0.70907848E+00  0.70663506E+00  0.70420060E+00  0.70177546E+00  0.69935999E+00
  0.69695459E+00  0.69455966E+00  0.69217559E+00  0.68980277E+00  0.68744162E+00
  0.68509250E+00  0.68275580E+00  0.68043189E+00  0.67812111E+00  0.67582379E+00
  0.67354024E+00  0.67127074E+00  0.66901557E+00  0.66677494E+00  0.66454907E+00
  0.66233812E+00  0.66014222E+00  0.65796148E+00  0.65579596E+00  0.65364567E+00
  0.65151060E+00  0.64939069E+00  0.64728584E+00  0.64519593E+00  0.64312079E+00
  0.64106023E+00  0.63901401E+00  0.63698187E+00  0.63496354E+00  0.63295869E+00
  0.63096698E+00  0.62898807E+00  0.62702155E+00  0.62506703E+00  0.62312410E+00
  0.62119231E+00  0.61927124E+00  0.61736043E+00  0.61545944E+00  0.61356783E+00
  0.61168515E+00  0.60981097E+00  0.60794487E+00  0.60608644E+00  0.60423530E+00
  0.60239106E+00  0.60055337E+00  0.59872189E+00  0.59689631E+00  0.59507633E+00
  0.59326170E+00  0.59145217E+00  0.58964754E+00  0.58784764E+00  0.58605231E+00
  0.58426145E+00  0.58247498E+00  0.58069284E+00  0.57891504E+00  0.57714158E+00
  0.57537250E+00  0.57360789E+00  0.57184782E+00  0.57009243E+00  0.56834186E+00
  0.56659627E+00  0.56485585E+00  0.56312080E+00  0.56139134E+00  0.55966771E+00
  0.55795015E+00  0.55623893E+00  0.55453430E+00  0.55283654E+00  0.55114592E+00
  0.54946272E+00  0.54778718E+00  0.54611958E+00  0.54446017E+00  0.54280916E+00
  0.54116681E+00  0.53953330E+00  0.53790884E+00  0.53629360E+00  0.53468775E+00
  0.53309142E+00  0.53150473E+00  0.52992778E+00  0.52836065E+00  0.52680339E+00
  0.52525601E+00  0.52371852E+00  0.52219088E+00  0.52067305E+00  0.51916493E+00
  0.51766644E+00  0.51617744E+00  0.51469778E+00  0.51322729E+00  0.51176580E+00
  0.51031310E+00  0.50886897E+00  0.50743318E+00  0.50600548E+00  0.50458562E+00
  0.50317332E+00  0.50176831E+00  0.50037030E+00  0.49897901E+00  0.49759414E+00
  0.49621539E+00  0.49484249E+00  0.49347514E+00  0.49211307E+00  0.49075602E+00
  0.48940372E+00  0.48805594E+00  0.48671244E+00  0.48537300E+00  0.48403744E+00
  0.48270555E+00  0.48137717E+00  0.48005214E+00  0.47873034E+00  0.47741165E+00
  0.47609598E+00  0.47478325E+00  0.47347341E+00  0.47216644E+00  0.47086234E+00
  0.46956110E+00  0.46826278E+00  0.46696742E+00  0.46567509E+00  0.46438588E+00
  0.46309989E+00  0.46181723E+00  0.46053804E+00  0.45926244E+00  0.45799059E+00
  0.45672264E+00  0.45545875E+00  0.45419911E+00  0.45294389E+00  0.45169326E+00
  0.45044742E+00  0.44920654E+00  0.44797081E+00  0.44674039E+00  0.44551547E+00
  0.44429619E+00  0.44308271E+00  0.44187516E+00  0.44067369E+00  0.43947840E+00
  0.43828940E+00  0.43710678E+00  0.43593062E+00  0.43476098E+00  0.43359792E+00
  0.43244147E+00  0.43129163E+00  0.43014843E+00  0.42901183E+00  0.42788180E+00
  0.42675830E+00  0.42564125E+00  0.42453057E+00  0.42342616E+00  0.42232791E+00
  0.42123569E+00  0.42014936E+00  0.41906879E+00  0.41799382E+00  0.41692429E+00
  0.41586002E+00  0.41480084E+00  0.41374657E+00  0.41269703E+00  0.41165202E+00
  0.41061136E+00  0.40957485E+00  0.40854230E+00  0.40751353E+00  0.40648834E+00
  0.40546658E+00  0.40444806E+00  0.40343263E+00  0.40242013E+00  0.40141043E+00
  0.40040340E+00  0.39939892E+00  0.39839688E+00  0.39739718E+00  0.39639975E+00
  0.39540451E+00  0.39441140E+00  0.39342037E+00  0.39243140E+00  0.39144446E+00
  0.39045956E+00  0.38947671E+00  0.38849592E+00  0.38751725E+00  0.38654073E+00
  0.38556644E+00  0.38459444E+00  0.38362481E+00  0.38265764E+00  0.38169302E+00
  0.38073106E+00  0.37977185E+00  0.37881551E+00  0.37786215E+00  0.37691189E+00
  0.37596485E+00  0.37502114E+00  0.37408089E+00  0.37314421E+00  0.37221123E+00
  0.37128206E+00  0.37035680E+00  0.36943556E+00  0.36851843E+00  0.36760549E+00
  0.36669683E+00  0.36579250E+00  0.36489256E+00  0.36399708E+00  0.36310608E+00
  0.36221959E+00  0.36133764E+00  0.36046024E+00  0.35958738E+00  0.35871906E+00
  0.35785525E+00  0.35699592E+00  0.35614102E+00  0.35529050E+00  0.35444429E+00
  0.35360232E+00  0.35276449E+00  0.35193072E+00  0.35110092E+00  0.35027496E+00
  0.34945276E+00  0.34863418E+00  0.34781913E+00  0.34700748E+00  0.34619910E+00
  0.34539389E+00  0.34459170E+00  0.34379242E+00  0.34299593E+00  0.34220209E+00
  0.34141080E+00  0.34062193E+00  0.33983537E+00  0.33905102E+00  0.33826877E+00
  0.33748854E+00  0.33671023E+00  0.33593378E+00  0.33515912E+00  0.33438618E+00
  0.33361492E+00  0.33284529E+00  0.33207724E+00  0.33131076E+00  0.33054583E+00
  0.32978243E+00  0.32902056E+00  0.32826023E+00  0.32750146E+00  0.32674427E+00
  0.32598869E+00  0.32523477E+00  0.32448256E+00  0.32373211E+00  0.32298348E+00
  0.32223673E+00  0.32149194E+00  0.32074918E+00  0.32000851E+00  0.31927001E+00
  0.31853377E+00  0.31779984E+00  0.31706832E+00  0.31633928E+00  0.31561280E+00
  0.31488896E+00  0.31416782E+00  0.31344946E+00  0.31273395E+00  0.31202135E+00
  0.31131172E+00  0.31060511E+00  0.30990155E+00  0.30920110E+00  0.30850377E+00
  0.30780959E+00  0.30711859E+00  0.30643076E+00  0.30574612E+00  0.30506467E+00
  0.30438639E+00  0.30371127E+00  0.30303928E+00  0.30237041E+00  0.30170461E+00
  0.30104184E+00  0.30038206E+00  0.29972519E+00  0.29907119E+00  0.29841998E+00
  0.29777150E+00  0.29712566E+00  0.29648241E+00  0.29584165E+00  0.29520330E+00
  0.29456730E+00  0.29393355E+00  0.29330198E+00  0.29267251E+00  0.29204506E+00
  0.29141954E+00  0.29079587E+00  0.29017399E+00  0.28955381E+00  0.28893527E+00
  0.28831829E+00  0.28770282E+00  0.28708881E+00  0.28647619E+00  0.28586492E+00
  0.28525498E+00  0.28464632E+00  0.28403891E+00  0.28343274E+00  0.28282779E+00
  0.28222405E+00  0.28162150E+00  0.28102016E+00  0.28042002E+00  0.27982109E+00
  0.27922339E+00  0.27862695E+00  0.27803178E+00  0.27743792E+00  0.27684541E+00
  0.27625429E+00  0.27566459E+00  0.27507638E+00  0.27448969E+00  0.27390457E+00
  0.27332107E+00  0.27273925E+00  0.27215915E+00  0.27158083E+00  0.27100432E+00
  0.27042969E+00  0.26985698E+00  0.26928624E+00  0.26871751E+00  0.26815085E+00
  0.26758629E+00  0.26702386E+00  0.26646362E+00  0.26590558E+00  0.26534977E+00
  0.26479621E+00  0.26424492E+00  0.26369590E+00  0.26314917E+00  0.26260472E+00
  0.26206255E+00  0.26152266E+00  0.26098502E+00  0.26044964E+00  0.25991648E+00
  0.25938552E+00  0.25885674E+00  0.25833010E+00  0.25780556E+00  0.25728309E+00
  0.25676263E+00  0.25624414E+00  0.25572758E+00  0.25521288E+00  0.25469999E+00
  0.25418886E+00  0.25367944E+00  0.25317168E+00  0.25266551E+00  0.25216089E+00
  0.25165776E+00  0.25115608E+00  0.25065579E+00  0.25015685E+00  0.24965920E+00
  0.24916280E+00  0.24866760E+00  0.24817356E+00  0.24768065E+00  0.24718883E+00
 gradient corrections used for XC
           5
 core charge-density (partial)
  0.42234627E-03  0.42217410E-03  0.42165797E-03  0.42079899E-03  0.41959902E-03
  0.41806065E-03  0.41618720E-03  0.41398269E-03  0.41145186E-03  0.40860014E-03
  0.40543360E-03  0.40195899E-03  0.39818367E-03  0.39411562E-03  0.38976339E-03
  0.38513608E-03  0.38024331E-03  0.37509521E-03  0.36970237E-03  0.36407578E-03
  0.35822686E-03  0.35216736E-03  0.34590939E-03  0.33946532E-03  0.33284777E-03
  0.32606959E-03  0.31914378E-03  0.31208351E-03  0.30490202E-03  0.29761263E-03
  0.29022867E-03  0.28276347E-03  0.27523029E-03  0.26764232E-03  0.26001262E-03
  0.25235412E-03  0.24467951E-03  0.23700132E-03  0.22933178E-03  0.22168287E-03
  0.21406624E-03  0.20649321E-03  0.19897476E-03  0.19152147E-03  0.18414351E-03
  0.17685064E-03  0.16965216E-03  0.16255694E-03  0.15557334E-03  0.14870928E-03
  0.14197215E-03  0.13536884E-03  0.12890575E-03  0.12258875E-03  0.11642319E-03
  0.11041392E-03  0.10456525E-03  0.98880983E-04  0.93364412E-04  0.88018322E-04
  0.82845001E-04  0.77846247E-04  0.73023378E-04  0.68377244E-04  0.63908240E-04
  0.59616321E-04  0.55501014E-04  0.51561440E-04  0.47796323E-04  0.44204014E-04
  0.40782508E-04  0.37529464E-04  0.34442222E-04  0.31517825E-04  0.28753040E-04
  0.26144380E-04  0.23688122E-04  0.21380329E-04  0.19216873E-04  0.17193453E-04
  0.15305620E-04  0.13548792E-04  0.11918279E-04  0.10409302E-04  0.90170088E-05
  0.77364981E-05  0.65628342E-05  0.54910658E-05  0.45162432E-05  0.36334338E-05
  0.28377386E-05  0.21243059E-05  0.14883459E-05  0.92514297E-06  0.43006859E-06
 -0.14080666E-08 -0.37370950E-06 -0.69114054E-06 -0.95787985E-06 -0.11779723E-05
 -0.13553221E-05 -0.14936875E-05 -0.15966750E-05 -0.16677363E-05 -0.17101640E-05
 -0.17270900E-05 -0.17214835E-05 -0.16961501E-05 -0.16537316E-05 -0.15967067E-05
 -0.15273923E-05 -0.14479447E-05 -0.13603627E-05 -0.12664902E-05 -0.11680196E-05
 -0.10664957E-05 -0.96332005E-06 -0.85975572E-06 -0.75693215E-06 -0.65585054E-06
 -0.55738941E-06 -0.46231037E-06 -0.37126407E-06 -0.28479625E-06 -0.20335399E-06
 -0.12729188E-06 -0.56878332E-07  0.76981643E-08  0.66322817E-07  0.11894836E-06
  0.16558899E-06  0.20631441E-06  0.24124401E-06  0.27054123E-06  0.29440810E-06
  0.31307998E-06  0.32682047E-06  0.33591667E-06  0.34067454E-06  0.34141460E-06
  0.33846789E-06  0.33217212E-06  0.32286821E-06  0.31089694E-06  0.29659607E-06
  0.28029754E-06  0.26232506E-06  0.24299195E-06  0.22259916E-06  0.20143368E-06
  0.17976704E-06  0.15785421E-06  0.13593255E-06  0.11422117E-06  0.92920340E-07
  0.72211158E-07  0.52255431E-07  0.33195673E-07  0.15155293E-07 -0.17610830E-08
 -0.17467150E-07 -0.31894350E-07 -0.44991184E-07 -0.56722435E-07 -0.67068310E-07
 -0.76023510E-07 -0.83596249E-07 -0.89807218E-07 -0.94688531E-07 -0.98282632E-07
 -0.10064120E-06 -0.10182404E-06 -0.10189801E-06 -0.10093591E-06 -0.99015433E-07
 -0.96218146E-07 -0.92628485E-07 -0.88332802E-07 -0.83418464E-07 -0.77972988E-07
 -0.72083248E-07 -0.65834724E-07 -0.59310824E-07 -0.52592256E-07 -0.45756473E-07
 -0.38877173E-07 -0.32023871E-07 -0.25261530E-07 -0.18650252E-07 -0.12245037E-07
 -0.60955944E-08 -0.24621847E-09  0.52642861E-08  0.10402624E-07  0.15140981E-07
  0.19456947E-07  0.23333400E-07  0.26758346E-07  0.29724730E-07  0.32230207E-07
  0.34276889E-07  0.35871072E-07  0.37022932E-07  0.37746212E-07  0.38057895E-07
  0.37977861E-07  0.37528548E-07  0.36734600E-07  0.35622520E-07  0.34220326E-07
  0.32557213E-07  0.30663220E-07  0.28568912E-07  0.26305070E-07  0.23902404E-07
  0.21391274E-07  0.18801432E-07  0.16161784E-07  0.13500175E-07  0.10843185E-07
  0.82159612E-08  0.56420589E-08  0.31433129E-08  0.73972738E-09 -0.15506112E-08
 -0.37115997E-08 -0.57291632E-08 -0.75912793E-08 -0.92879831E-08 -0.10811353E-07
 -0.12155482E-07 -0.13316426E-07 -0.14292145E-07 -0.15082426E-07 -0.15688792E-07
 -0.16114407E-07 -0.16363959E-07 -0.16443550E-07 -0.16360569E-07 -0.16123559E-07
 -0.15742086E-07 -0.15226604E-07 -0.14588312E-07 -0.13839023E-07 -0.12991021E-07
 -0.12056931E-07 -0.11049585E-07 -0.99818968E-08 -0.88667410E-08 -0.77168357E-08
 -0.65446354E-08 -0.53622291E-08 -0.41812470E-08 -0.30127760E-08 -0.18672831E-08
 -0.75454863E-09  0.31639196E-09  0.13372965E-08  0.23007554E-08  0.32002221E-08
  0.40300338E-08  0.47854237E-08  0.54625248E-08  0.60583651E-08  0.65708556E-08
  0.69987702E-08  0.73417194E-08  0.76001172E-08  0.77751426E-08  0.78686958E-08
  0.78833495E-08  0.78222970E-08  0.76892966E-08  0.74886127E-08  0.72249563E-08
  0.69034225E-08  0.65294285E-08  0.61086501E-08  0.56469599E-08  0.51503651E-08
  0.46249476E-08  0.40768052E-08  0.35119956E-08  0.29364831E-08  0.23560879E-08
  0.17764390E-08  0.12029310E-08  0.64068427E-09  0.94509729E-10 -0.43112276E-09
 -0.93211117E-09 -0.14047439E-08 -0.18457181E-08 -0.22521533E-08 -0.26216010E-08
 -0.29520497E-08 -0.32419261E-08 -0.34900924E-08 -0.36958393E-08 -0.38588758E-08
 -0.39793158E-08 -0.40576612E-08 -0.40947823E-08 -0.40918960E-08 -0.40505410E-08
 -0.39725519E-08 -0.38600311E-08 -0.37153194E-08 -0.35409660E-08 -0.33396970E-08
 -0.31143845E-08 -0.28680144E-08 -0.26036557E-08 -0.23244290E-08 -0.20334763E-08
 -0.17339318E-08 -0.14288938E-08 -0.11213976E-08 -0.81439027E-09 -0.51070738E-09
 -0.21305101E-09  0.76029803E-10  0.35415667E-09  0.61913732E-09  0.86897878E-09
  0.11018983E-08  0.13163321E-08  0.15109415E-08  0.16846174E-08  0.18364820E-08
  0.19658886E-08  0.20724192E-08  0.21558805E-08  0.22162977E-08  0.22539063E-08
  0.22691430E-08  0.22626348E-08  0.22351862E-08  0.21877664E-08  0.21214942E-08
  0.20376231E-08  0.19375255E-08  0.18226754E-08  0.16946323E-08  0.15550240E-08
  0.14055292E-08  0.12478608E-08  0.10837492E-08  0.91492608E-09  0.74310832E-09
  0.56998328E-09  0.39719434E-09  0.22632745E-09  0.58898641E-10 -0.10365735E-09
 -0.25999748E-09 -0.40887950E-09 -0.54916997E-09 -0.67985095E-09 -0.80002545E-09
 -0.90892165E-09 -0.10058958E-08 -0.10904340E-08 -0.11621525E-08 -0.12207973E-08
 -0.12662418E-08 -0.12984843E-08 -0.13176440E-08 -0.13239556E-08 -0.13177643E-08
 -0.12995185E-08 -0.12697625E-08 -0.12291291E-08 -0.11783305E-08 -0.11181497E-08
 -0.10494310E-08 -0.97307067E-09 -0.89000688E-09 -0.80121019E-09 -0.70767363E-09
 -0.61040302E-09 -0.51040749E-09 -0.40869023E-09 -0.30623958E-09 -0.20402053E-09
 -0.10296670E-09 -0.39728392E-11  0.92112096E-10  0.18449126E-09  0.27242553E-09
  0.35523851E-09  0.43232071E-09  0.50313312E-09  0.56720994E-09  0.62416063E-09
  0.67367124E-09  0.71550491E-09  0.74950181E-09  0.77557826E-09  0.79372528E-09
  0.80400645E-09  0.80655522E-09  0.80157168E-09  0.78931879E-09  0.77011816E-09
  0.74434545E-09  0.71242542E-09  0.67482665E-09  0.63205605E-09  0.58465315E-09
  0.53318434E-09  0.47823689E-09  0.42041313E-09  0.36032451E-09  0.29858585E-09
  0.23580966E-09  0.17260067E-09  0.10955057E-09  0.47233072E-10 -0.13800847E-10
 -0.73027236E-10 -0.12995317E-09 -0.18412036E-09 -0.23510829E-09 -0.28253703E-09
 -0.32606950E-09 -0.36541336E-09 -0.40032240E-09 -0.43059755E-09 -0.45608729E-09
 -0.47668783E-09 -0.49234266E-09 -0.50304182E-09 -0.50882070E-09 -0.50975852E-09
 -0.50597638E-09 -0.49763508E-09 -0.48493259E-09 -0.46810123E-09 -0.44740468E-09
 -0.42313476E-09 -0.39560803E-09 -0.36516224E-09 -0.33215279E-09 -0.29694897E-09
 -0.25993031E-09 -0.22148286E-09 -0.18199553E-09 -0.14185650E-09 -0.10144974E-09
 -0.61151627E-10 -0.21327785E-10  0.17669972E-10  0.55506450E-10  0.91865668E-10
  0.12645322E-09  0.15899836E-09  0.18925589E-09  0.21700762E-09  0.24206377E-09
  0.26426383E-09  0.28347737E-09  0.29960438E-09  0.31257542E-09  0.32235148E-09
  0.32892354E-09  0.33231193E-09  0.33256536E-09  0.32975980E-09  0.32399707E-09
  0.31540333E-09  0.30412728E-09  0.29033828E-09  0.27422428E-09  0.25598970E-09
  0.23585316E-09  0.21404512E-09  0.19080556E-09  0.16638155E-09  0.14102485E-09
  0.11498950E-09  0.88529528E-10  0.61896593E-10  0.35337813E-10  0.90936298E-11
 -0.16604198E-10 -0.41534475E-10 -0.65488305E-10 -0.88270689E-10 -0.10970194E-09
 -0.12961893E-09 -0.14787620E-09 -0.16434680E-09 -0.17892301E-09 -0.19151687E-09
 -0.20206049E-09 -0.21050617E-09 -0.21682638E-09 -0.22101350E-09 -0.22307944E-09
 -0.22305507E-09 -0.22098947E-09 -0.21694909E-09 -0.21101673E-09 -0.20329041E-09
 -0.19388213E-09 -0.18291651E-09 -0.17052944E-09 -0.15686650E-09 -0.14208149E-09
 -0.12633484E-09 -0.10979198E-09 -0.92621772E-10 -0.74994868E-10 -0.57082164E-10
 -0.39053236E-10 -0.21074844E-10 -0.33094909E-11  0.14085943E-10  0.30961491E-10
  0.47175290E-10  0.62594681E-10  0.77097194E-10  0.90571425E-10  0.10291779E-09
  0.11404914E-09  0.12389132E-09  0.13238348E-09  0.13947835E-09  0.14514239E-09
  0.14935577E-09  0.15211220E-09  0.15341876E-09  0.15329549E-09  0.15177494E-09
  0.14890160E-09  0.14473120E-09  0.13933004E-09  0.13277407E-09  0.12514806E-09
  0.11654461E-09  0.10706314E-09  0.96808881E-10  0.85891754E-10  0.74425306E-10
  0.62525601E-10  0.50310117E-10  0.37896658E-10  0.25402285E-10  0.12942277E-10
  0.62913173E-12 -0.11428393E-10 -0.23126174E-10 -0.34365565E-10 -0.45054170E-10
 -0.55106538E-10 -0.64444790E-10 -0.72999158E-10 -0.80708442E-10 -0.87520380E-10
 -0.93391929E-10 -0.98289462E-10 -0.10218887E-09 -0.10507557E-09 -0.10694447E-09
 -0.10779976E-09 -0.10765474E-09 -0.10653146E-09 -0.10446038E-09 -0.10147989E-09
 -0.97635805E-10 -0.92980824E-10 -0.87573877E-10 -0.81479486E-10 -0.74767062E-10
 -0.67510183E-10 -0.59785839E-10 -0.51673676E-10 -0.43255218E-10 -0.34613097E-10
 -0.25830285E-10 -0.16989340E-10 -0.81716705E-11  0.54317386E-12  0.90781823E-11
  0.17359524E-10  0.25317152E-10  0.32885351E-10  0.40003251E-10  0.46615271E-10
  0.52671516E-10  0.58128114E-10  0.62947488E-10  0.67098569E-10  0.70556950E-10
  0.73304966E-10  0.75331726E-10  0.76633071E-10  0.77211485E-10  0.77075933E-10
  0.76241657E-10  0.74729915E-10  0.72567671E-10  0.69787238E-10  0.66425883E-10
  0.62525396E-10  0.58131623E-10  0.53293976E-10  0.48064915E-10  0.42499421E-10
  0.36654449E-10  0.30588376E-10  0.24360449E-10  0.18030238E-10  0.11657086E-10
  0.52995849E-11 -0.98493834E-12 -0.71409162E-11 -0.13115005E-10 -0.18856523E-10
 -0.24317857E-10 -0.29454830E-10 -0.34227036E-10 -0.38598131E-10 -0.42536083E-10
 -0.46013378E-10 -0.49007183E-10 -0.51499462E-10 -0.53477051E-10 -0.54931679E-10
 -0.55859956E-10 -0.56263307E-10 -0.56147874E-10 -0.55524367E-10 -0.54407885E-10
 -0.52817698E-10 -0.50776996E-10 -0.48312605E-10 -0.45454682E-10 -0.42236375E-10
 -0.38693479E-10 -0.34864053E-10 -0.30788047E-10 -0.26506899E-10 -0.22063139E-10
 -0.17499985E-10 -0.12860940E-10 -0.81893977E-11 -0.35282520E-11  0.10804791E-11
  0.55960160E-11  0.99791619E-11  0.14192627E-10  0.18201329E-10  0.21972669E-10
  0.25476780E-10  0.28686747E-10  0.31578795E-10  0.34132444E-10  0.36330642E-10
  0.38159845E-10  0.39610086E-10  0.40674996E-10  0.41351799E-10  0.41641268E-10
  0.41547661E-10  0.41078618E-10  0.40245028E-10  0.39060882E-10  0.37543084E-10
  0.35711250E-10  0.33587486E-10  0.31196140E-10  0.28563550E-10  0.25717764E-10
  0.22688265E-10  0.19505675E-10  0.16201463E-10  0.12807644E-10  0.93564857E-11
  0.58802081E-11  0.24106989E-11 -0.10207695E-11 -0.43838102E-11 -0.76491804E-11
 -0.10789024E-10 -0.13777099E-10 -0.16588985E-10 -0.19202272E-10 -0.21596726E-10
 -0.23754436E-10 -0.25659935E-10 -0.27300293E-10 -0.28665195E-10 -0.29746988E-10
 -0.30540701E-10 -0.31044048E-10 -0.31257402E-10 -0.31183743E-10 -0.30828592E-10
 -0.30199913E-10 -0.29308005E-10 -0.28165367E-10 -0.26786548E-10 -0.25187982E-10
 -0.23387809E-10 -0.21405685E-10 -0.19262573E-10 -0.16980542E-10 -0.14582541E-10
 -0.12092184E-10 -0.95335220E-11 -0.69308239E-11 -0.43083508E-11 -0.16901394E-11
  0.90021053E-12  0.34397413E-11  0.59063333E-11  0.82788899E-11  0.10537511E-10
  0.12663650E-10  0.14640262E-10  0.16451929E-10  0.18084975E-10  0.19527557E-10
  0.20769743E-10  0.21803572E-10  0.22623090E-10  0.23224374E-10  0.23605530E-10
  0.23766681E-10  0.23709933E-10  0.23439320E-10  0.22960741E-10  0.22281874E-10
  0.21412077E-10  0.20362282E-10  0.19144864E-10  0.17773515E-10  0.16263089E-10
  0.14629461E-10  0.12889360E-10  0.11060207E-10  0.91599492E-11  0.72068869E-11
  0.52195057E-11  0.32163068E-11  0.12156396E-11 -0.76446008E-12 -0.27064279E-11
 -0.45933209E-11 -0.64089604E-11 -0.81380654E-11 -0.97663757E-11 -0.11280764E-10
 -0.12669336E-10 -0.13921520E-10 -0.15028136E-10 -0.15981462E-10 -0.16775279E-10
 -0.17404901E-10 -0.17867196E-10 -0.18160589E-10 -0.18285051E-10 -0.18242078E-10
 -0.18034648E-10 -0.17667179E-10 -0.17145460E-10 -0.16476584E-10 -0.15668856E-10
 -0.14731709E-10 -0.13675593E-10 -0.12511874E-10 -0.11252708E-10 -0.99109283E-11
 -0.84999150E-11 -0.70334671E-11 -0.55256726E-11 -0.39907767E-11 -0.24430521E-11
 -0.89666951E-12  0.63442782E-12  0.21366461E-11  0.35968580E-11  0.50025134E-11
  0.63417438E-11  0.76034586E-11  0.87774328E-11  0.98543862E-11  0.10826053E-10
  0.11685239E-10  0.12425872E-10  0.13043041E-10  0.13533017E-10  0.13893278E-10
  0.14122503E-10  0.14220574E-10  0.14188557E-10  0.14028673E-10  0.13744263E-10
  0.13339738E-10  0.12820529E-10  0.12193016E-10  0.11464464E-10  0.10642939E-10
  0.97372254E-11  0.87567371E-11  0.77114229E-11  0.66116693E-11  0.54682006E-11
  0.42919776E-11  0.30940956E-11  0.18856827E-11  0.67779924E-12 -0.51866084E-12
 -0.16930652E-11 -0.28351351E-11 -0.39350324E-11 -0.49834420E-11 -0.59716476E-11
 -0.68916015E-11 -0.77359875E-11 -0.84982755E-11 -0.91727695E-11 -0.97546462E-11
 -0.10239986E-10 -0.10625796E-10 -0.10910022E-10 -0.11091553E-10 -0.11170222E-10
 -0.11146789E-10 -0.11022922E-10 -0.10801171E-10 -0.10484931E-10 -0.10078399E-10
 -0.95865269E-11 -0.90149631E-11 -0.83699945E-11 -0.76584795E-11 -0.68877790E-11
 -0.60656824E-11 -0.52003322E-11 -0.43001451E-11 -0.33737331E-11 -0.24298231E-11
 -0.14771766E-11 -0.52451071E-12  0.41957960E-12  0.13466971E-11  0.22487152E-11
  0.31178466E-11  0.39467094E-11  0.47283872E-11  0.54564848E-11  0.61251787E-11
  0.67292613E-11  0.72641791E-11  0.77260646E-11  0.81117618E-11  0.84188440E-11
  0.86456264E-11  0.87911702E-11  0.88552813E-11  0.88385015E-11  0.87420935E-11
  0.85680195E-11  0.83189142E-11  0.79980519E-11  0.76093079E-11  0.71571158E-11
  0.66464199E-11  0.60826235E-11  0.54715348E-11  0.48193081E-11  0.41323848E-11
  0.34174309E-11  0.26812743E-11  0.19308411E-11  0.11730923E-11  0.41496047E-12
 -0.33671219E-12 -0.10752339E-11 -0.17941217E-11 -0.24871565E-11 -0.31484358E-11
 -0.37724225E-11 -0.43539893E-11 -0.48884597E-11 -0.53716441E-11 -0.57998703E-11
 -0.61700103E-11 -0.64795005E-11 -0.67263578E-11 -0.69091892E-11 -0.70271967E-11
 -0.70801766E-11 -0.70685130E-11 -0.69931672E-11 -0.68556608E-11 -0.66580550E-11
 -0.64029248E-11 -0.60933288E-11 -0.57327758E-11 -0.53251870E-11 -0.48748554E-11
 -0.43864023E-11 -0.38647313E-11 -0.33149811E-11 -0.27424754E-11 -0.21526732E-11
 -0.15511178E-11 -0.94338585E-12 -0.33503685E-12  0.26843664E-12  0.86165749E-12
  0.14394108E-11  0.19966886E-11  0.25287323E-11  0.30310722E-11  0.34995637E-11
  0.39304207E-11  0.43202446E-11  0.46660501E-11  0.49652867E-11  0.52158558E-11
  0.54161238E-11  0.55649311E-11  0.56615960E-11  0.57059148E-11  0.56981577E-11
  0.56390601E-11  0.55298102E-11  0.53720322E-11  0.51677666E-11  0.49194460E-11
  0.46298688E-11  0.43021691E-11  0.39397841E-11  0.35464197E-11  0.31260137E-11
  0.26826972E-11  0.22207553E-11  0.17445866E-11  0.12586622E-11  0.76748456E-12
  0.27554674E-12 -0.21270797E-12 -0.69292527E-12 -0.11608779E-11 -0.16125020E-11
 -0.20439317E-11 -0.24515312E-11 -0.28319246E-11 -0.31820230E-11 -0.34990490E-11
 -0.37805571E-11 -0.40244520E-11 -0.42290032E-11 -0.43928555E-11 -0.45150369E-11
 -0.45949625E-11 -0.46324349E-11 -0.46276410E-11 -0.45811461E-11 -0.44938835E-11
 -0.43671420E-11 -0.42025496E-11 -0.40020552E-11 -0.37679063E-11 -0.35026262E-11
 -0.32089868E-11 -0.28899816E-11 -0.25487956E-11 -0.21887741E-11 -0.18133914E-11
 -0.14262173E-11 -0.10308842E-11 -0.63105375E-12 -0.23038330E-12  0.16750667E-12
  0.55906473E-12  0.94083953E-12  0.13095097E-11  0.16619119E-11  0.19950676E-11
  0.23062075E-11  0.25927937E-11  0.28525400E-11  0.30834293E-11  0.32837285E-11
  0.34520003E-11  0.35871132E-11  0.36882476E-11  0.37548993E-11  0.37868805E-11
  0.37843176E-11  0.37476464E-11  0.36776044E-11  0.35752202E-11  0.34418016E-11
 kinetic energy density (partial)
  0.14671665E+00  0.14665692E+00  0.14647785E+00  0.14617982E+00  0.14576348E+00
  0.14522974E+00  0.14457972E+00  0.14381485E+00  0.14293674E+00  0.14194729E+00
  0.14084859E+00  0.13964300E+00  0.13833304E+00  0.13692150E+00  0.13541133E+00
  0.13380569E+00  0.13210791E+00  0.13032150E+00  0.12845012E+00  0.12649760E+00
  0.12446788E+00  0.12236504E+00  0.12019328E+00  0.11795688E+00  0.11566021E+00
  0.11330773E+00  0.11090396E+00  0.10845345E+00  0.10596079E+00  0.10343060E+00
  0.10086750E+00  0.98276118E-01  0.95661052E-01  0.93026875E-01  0.90378119E-01
  0.87719261E-01  0.85054714E-01  0.82388814E-01  0.79725813E-01  0.77069862E-01
  0.74425008E-01  0.71795182E-01  0.69184190E-01  0.66595706E-01  0.64033263E-01
  0.61500249E-01  0.58999897E-01  0.56535284E-01  0.54109321E-01  0.51724753E-01
  0.49384152E-01  0.47089917E-01  0.44844271E-01  0.42649256E-01  0.40506736E-01
  0.38418397E-01  0.36385743E-01  0.34410099E-01  0.32492615E-01  0.30634263E-01
  0.28835845E-01  0.27097990E-01  0.25421162E-01  0.23805664E-01  0.22251638E-01
  0.20759076E-01  0.19327821E-01  0.17957572E-01  0.16647893E-01  0.15398220E-01
  0.14207860E-01  0.13076007E-01  0.12001744E-01  0.10984050E-01  0.10021806E-01
  0.91138085E-02  0.82587680E-02  0.74553228E-02  0.67020435E-02  0.59974411E-02
  0.53399739E-02  0.47280546E-02  0.41600577E-02  0.36343261E-02  0.31491777E-02
  0.27029124E-02  0.22938180E-02  0.19201767E-02  0.15802707E-02  0.12723879E-02
  0.99482760E-03  0.74590518E-03  0.52395716E-03  0.32734567E-03  0.15446268E-03
  0.37338923E-05 -0.12637763E-03 -0.23736820E-03 -0.33069051E-03 -0.40775099E-03
 -0.46990744E-03 -0.51846704E-03 -0.55468456E-03 -0.57976096E-03 -0.59484224E-03
 -0.60101856E-03 -0.59932367E-03 -0.59073458E-03 -0.57617150E-03 -0.55649797E-03
 -0.53252129E-03 -0.50499314E-03 -0.47461036E-03 -0.44201597E-03 -0.40780036E-03
 -0.37250261E-03 -0.33661197E-03 -0.30056952E-03 -0.26476983E-03 -0.22956286E-03
 -0.19525585E-03 -0.16211534E-03 -0.13036921E-03 -0.10020879E-03 -0.71791021E-04
 -0.45240618E-04 -0.20652225E-04  0.19073928E-05  0.22397187E-04  0.40799688E-04
  0.57118893E-04  0.71378193E-04  0.83618360E-04  0.93895574E-04  0.10227952E-03
  0.10885158E-03  0.11370302E-03  0.11693339E-03  0.11864885E-03  0.11896071E-03
  0.11798403E-03  0.11583623E-03  0.11263592E-03  0.10850172E-03  0.10355124E-03
  0.97900128E-04  0.91661213E-04  0.84943732E-04  0.77852669E-04  0.70488166E-04
  0.62945023E-04  0.55312282E-04  0.47672894E-04  0.40103452E-04  0.32674008E-04
  0.25447951E-04  0.18481951E-04  0.11825964E-04  0.55232892E-05 -0.38931709E-06
 -0.58814881E-05 -0.10929046E-04 -0.15513766E-04 -0.19623107E-04 -0.23249917E-04
 -0.26392107E-04 -0.29052311E-04 -0.31237531E-04 -0.32958766E-04 -0.34230631E-04
 -0.35070982E-04 -0.35500526E-04 -0.35542441E-04 -0.35222000E-04 -0.34566204E-04
 -0.33603415E-04 -0.32363018E-04 -0.30875083E-04 -0.29170047E-04 -0.27278418E-04
 -0.25230494E-04 -0.23056101E-04 -0.20784355E-04 -0.18443442E-04 -0.16060425E-04
 -0.13661065E-04 -0.11269676E-04 -0.89089871E-05 -0.66000428E-05 -0.43621108E-05
 -0.22126184E-05 -0.16710667E-06  0.17607961E-05  0.35593826E-05  0.52188570E-05
  0.67313102E-05  0.80906790E-05  0.92926922E-05  0.10334804E-04  0.11216116E-04
  0.11937290E-04  0.12500451E-04  0.12909084E-04  0.13167923E-04  0.13282839E-04
  0.13260721E-04  0.13109355E-04  0.12837304E-04  0.12453787E-04  0.11968555E-04
  0.11391779E-04  0.10733929E-04  0.10005664E-04  0.92177256E-05  0.83808344E-05
  0.75055942E-05  0.66024017E-05  0.56813625E-05  0.47522150E-05  0.38242611E-05
  0.29063042E-05  0.20065956E-05  0.11327882E-05  0.29189743E-06 -0.50972885E-06
 -0.12664343E-05 -0.19732700E-05 -0.26260029E-05 -0.32211189E-05 -0.37558172E-05
 -0.42280009E-05 -0.46362601E-05 -0.49798505E-05 -0.52586670E-05 -0.54732132E-05
 -0.56245664E-05 -0.57143396E-05 -0.57446408E-05 -0.57180294E-05 -0.56374712E-05
 -0.55062913E-05 -0.53281269E-05 -0.51068789E-05 -0.48466641E-05 -0.45517669E-05
 -0.42265928E-05 -0.38756221E-05 -0.35033661E-05 -0.31143239E-05 -0.27129424E-05
 -0.23035783E-05 -0.18904620E-05 -0.14776655E-05 -0.10690722E-05 -0.66835033E-06
 -0.27892913E-06  0.96021363E-07  0.45360758E-06  0.79122631E-06  0.11065754E-05
  0.13976612E-05  0.16628032E-05  0.19006353E-05  0.21101041E-05  0.22904655E-05
  0.24412769E-05  0.25623891E-05  0.26539339E-05  0.27163114E-05  0.27501747E-05
  0.27564126E-05  0.27361320E-05  0.26906379E-05  0.26214136E-05  0.25300993E-05
  0.24184708E-05  0.22884171E-05  0.21419192E-05  0.19810277E-05  0.18078411E-05
  0.16244853E-05  0.14330927E-05  0.12357823E-05  0.10346417E-05  0.83170848E-06
  0.62895455E-06  0.42827026E-06  0.23145078E-06  0.40183567E-07 -0.14396269E-06
 -0.31954753E-06 -0.48526674E-06 -0.63995874E-06 -0.78260953E-06 -0.91235605E-06
 -0.10284881E-05 -0.11304486E-05 -0.12178332E-05 -0.12903871E-05 -0.13480024E-05
 -0.13907129E-05 -0.14186885E-05 -0.14322282E-05 -0.14317526E-05 -0.14177955E-05
 -0.13909944E-05 -0.13520810E-05 -0.13018709E-05 -0.12412532E-05 -0.11711791E-05
 -0.10926516E-05 -0.10067141E-05 -0.91443915E-06 -0.81691820E-06 -0.71525054E-06
 -0.61053317E-06 -0.50385091E-06 -0.39626695E-06 -0.28881404E-06 -0.18248617E-06
 -0.78230994E-07  0.23057141E-07  0.12054335E-06  0.21345767E-06  0.30109969E-06
  0.38284245E-06  0.45813548E-06  0.52650706E-06  0.58756574E-06  0.64100102E-06
  0.68658328E-06  0.72416308E-06  0.75366964E-06  0.77510872E-06  0.78855994E-06
  0.79417343E-06  0.79216606E-06  0.78281711E-06  0.76646363E-06  0.74349534E-06
  0.71434932E-06  0.67950438E-06  0.63947533E-06  0.59480708E-06  0.54606861E-06
  0.49384708E-06  0.43874183E-06  0.38135852E-06  0.32230349E-06  0.26217818E-06
  0.20157382E-06  0.14106649E-06  0.81212318E-07  0.22543117E-07 -0.34437613E-07
 -0.89258336E-07 -0.14148271E-06 -0.19071237E-06 -0.23658933E-06 -0.27879789E-06
 -0.31706612E-06 -0.35116693E-06 -0.38091867E-06 -0.40618529E-06 -0.42687614E-06
 -0.44294531E-06 -0.45439062E-06 -0.46125227E-06 -0.46361107E-06 -0.46158650E-06
 -0.45533431E-06 -0.44504405E-06 -0.43093621E-06 -0.41325933E-06 -0.39228679E-06
 -0.36831362E-06 -0.34165310E-06 -0.31263341E-06 -0.28159413E-06 -0.24888286E-06
 -0.21485183E-06 -0.17985450E-06 -0.14424240E-06 -0.10836197E-06 -0.72551539E-07
 -0.37138590E-07 -0.24370558E-08  0.31255087E-07  0.63658036E-07  0.94512154E-07
  0.12357971E-06  0.15064637E-06  0.17552246E-06  0.19804391E-06  0.21807301E-06
  0.23549886E-06  0.25023758E-06  0.26223227E-06  0.27145274E-06  0.27789496E-06
  0.28158041E-06  0.28255503E-06  0.28088820E-06  0.27667132E-06  0.27001645E-06
  0.26105461E-06  0.24993409E-06  0.23681862E-06  0.22188540E-06  0.20532315E-06
  0.18733004E-06  0.16811167E-06  0.14787894E-06  0.12684604E-06  0.10522841E-06
  0.83240733E-07  0.61095030E-07  0.38998816E-07  0.17153351E-07 -0.42480111E-08
 -0.25021344E-07 -0.44993555E-07 -0.64003643E-07 -0.81903824E-07 -0.98560499E-07
 -0.11385507E-06 -0.12768459E-06 -0.13996229E-06 -0.15061788E-06 -0.15959777E-06
 -0.16686507E-06 -0.17239949E-06 -0.17619704E-06 -0.17826968E-06 -0.17864470E-06
 -0.17736413E-06 -0.17448393E-06 -0.17007312E-06 -0.16421279E-06 -0.15699504E-06
 -0.14852189E-06 -0.13890406E-06 -0.12825973E-06 -0.11671333E-06 -0.10439416E-06
 -0.91435176E-07 -0.77971648E-07 -0.64139886E-07 -0.50075983E-07 -0.35914589E-07
 -0.21787731E-07 -0.78236938E-08  0.58540496E-08  0.19127823E-07  0.31886660E-07
  0.44027137E-07  0.55454109E-07  0.66081355E-07  0.75832134E-07  0.84639625E-07
  0.92447287E-07  0.99209098E-07  0.10488971E-06  0.10946449E-06  0.11291948E-06
  0.11525123E-06  0.11646660E-06  0.11658241E-06  0.11562505E-06  0.11362997E-06
  0.11064120E-06  0.10671066E-06  0.10189755E-06  0.96267612E-07  0.89892375E-07
  0.82848364E-07  0.75216290E-07  0.67080216E-07  0.58526714E-07  0.49644022E-07
  0.40521209E-07  0.31247346E-07  0.21910707E-07  0.12597986E-07  0.33935567E-08
 -0.56212332E-08 -0.14368724E-07 -0.22775557E-07 -0.30773228E-07 -0.38298593E-07
 -0.45294308E-07 -0.51709208E-07 -0.57498616E-07 -0.62624598E-07 -0.67056140E-07
 -0.70769262E-07 -0.73747071E-07 -0.75979742E-07 -0.77464440E-07 -0.78205181E-07
 -0.78212634E-07 -0.77503866E-07 -0.76102039E-07 -0.74036061E-07 -0.71340183E-07
 -0.68053574E-07 -0.64219845E-07 -0.59886558E-07 -0.55104700E-07 -0.49928149E-07
 -0.44413117E-07 -0.38617589E-07 -0.32600760E-07 -0.26422474E-07 -0.20142670E-07
 -0.13820833E-07 -0.75154759E-08 -0.12836293E-08  0.48196389E-08  0.10741674E-07
  0.16432657E-07  0.21845987E-07  0.26938629E-07  0.31671424E-07  0.36009354E-07
  0.39921761E-07  0.43382531E-07  0.46370224E-07  0.48868163E-07  0.50864479E-07
  0.52352113E-07  0.53328768E-07  0.53796826E-07  0.53763223E-07  0.53239287E-07
  0.52240536E-07  0.50786448E-07  0.48900197E-07  0.46608361E-07  0.43940614E-07
  0.40929383E-07  0.37609500E-07  0.34017835E-07  0.30192917E-07  0.26174554E-07
  0.22003444E-07  0.17720788E-07  0.13367911E-07  0.89858846E-08  0.46151607E-08
  0.29522326E-09 -0.39357484E-08 -0.80411959E-08 -0.11986476E-07 -0.15739134E-07
 -0.19269145E-07 -0.22549138E-07 -0.25554585E-07 -0.28263960E-07 -0.30658869E-07
 -0.32724152E-07 -0.34447953E-07 -0.35821751E-07 -0.36840373E-07 -0.37501967E-07
 -0.37807949E-07 -0.37762926E-07 -0.37374581E-07 -0.36653547E-07 -0.35613244E-07
 -0.34269703E-07 -0.32641367E-07 -0.30748876E-07 -0.28614833E-07 -0.26263562E-07
 -0.23720852E-07 -0.21013695E-07 -0.18170020E-07 -0.15218420E-07 -0.12187879E-07
 -0.91075069E-08 -0.60062735E-08 -0.29127485E-08  0.14514631E-09  0.31403756E-08
  0.60470165E-08  0.88404694E-08  0.11497653E-07  0.13997181E-07  0.16319523E-07
  0.18447139E-07  0.20364603E-07  0.22058694E-07  0.23518476E-07  0.24735347E-07
  0.25703072E-07  0.26417793E-07  0.26878015E-07  0.27084573E-07  0.27040578E-07
  0.26751345E-07  0.26224301E-07  0.25468878E-07  0.24496387E-07  0.23319878E-07
  0.21953991E-07  0.20414794E-07  0.18719605E-07  0.16886820E-07  0.14935716E-07
  0.12886271E-07  0.10758961E-07  0.85745733E-08  0.63540089E-08  0.41180934E-08
  0.18873911E-08 -0.31797530E-09 -0.24784977E-08 -0.45754462E-08 -0.65910230E-08
 -0.85085049E-08 -0.10312373E-07 -0.11988431E-07 -0.13523904E-07 -0.14907533E-07
 -0.16129640E-07 -0.17182191E-07 -0.18058836E-07 -0.18754931E-07 -0.19267552E-07
 -0.19595488E-07 -0.19739216E-07 -0.19700871E-07 -0.19484191E-07 -0.19094455E-07
 -0.18538409E-07 -0.17824171E-07 -0.16961142E-07 -0.15959890E-07 -0.14832035E-07
 -0.13590127E-07 -0.12247515E-07 -0.10818209E-07 -0.93167464E-08 -0.77580483E-08
 -0.61572789E-08 -0.45297046E-08 -0.28905548E-08 -0.12548853E-08  0.36255414E-09
  0.19474467E-08  0.34860298E-08  0.49652087E-08  0.63726623E-08  0.76969400E-08
  0.89275493E-08  0.10055032E-07  0.11071033E-07  0.11968351E-07  0.12740988E-07
  0.13384179E-07  0.13894411E-07  0.14269437E-07  0.14508267E-07  0.14611161E-07
  0.14579600E-07  0.14416253E-07  0.14124931E-07  0.13710533E-07  0.13178981E-07
  0.12537150E-07  0.11792792E-07  0.10954442E-07  0.10031340E-07  0.90333219E-08
  0.79707321E-08  0.68543145E-08  0.56951111E-08  0.45043570E-08  0.32933765E-08
  0.20734789E-08  0.85585726E-09 -0.34851013E-09 -0.15289551E-08 -0.26752099E-08
 -0.37774931E-08 -0.48265888E-08 -0.58139200E-08 -0.67316145E-08 -0.75725642E-08
 -0.83304750E-08 -0.89999103E-08 -0.95763247E-08 -0.10056090E-07 -0.10436512E-07
 -0.10715837E-07 -0.10893257E-07 -0.10968893E-07 -0.10943786E-07 -0.10819864E-07
 -0.10599918E-07 -0.10287555E-07 -0.98871568E-08 -0.94038243E-08 -0.88433214E-08
 -0.82120107E-08 -0.75167871E-08 -0.67650063E-08 -0.59644110E-08 -0.51230548E-08
 -0.42492247E-08 -0.33513621E-08 -0.24379850E-08 -0.15176095E-08 -0.59867337E-09
  0.31053825E-09  0.12019653E-08  0.20678412E-08  0.29007584E-08  0.36937284E-08
  0.44402382E-08  0.51343009E-08  0.57705009E-08  0.63440334E-08  0.68507371E-08
  0.72871219E-08  0.76503883E-08  0.79384424E-08  0.81499022E-08  0.82840991E-08
  0.83410722E-08  0.83215561E-08  0.82269634E-08  0.80593606E-08  0.78214395E-08
  0.75164822E-08  0.71483226E-08  0.67213026E-08  0.62402251E-08  0.57103034E-08
  0.51371075E-08  0.45265085E-08  0.38846210E-08  0.32177437E-08  0.25323005E-08
  0.18347804E-08  0.11316778E-08  0.42943465E-09 -0.26561731E-09 -0.94731132E-09
 -0.16096986E-08 -0.22470986E-08 -0.28541453E-08 -0.34258311E-08 -0.39575461E-08
 -0.44451129E-08 -0.48848179E-08 -0.52734369E-08 -0.56082568E-08 -0.58870921E-08
 -0.61082958E-08 -0.62707661E-08 -0.63739480E-08 -0.64178293E-08 -0.64029327E-08
 -0.63303025E-08 -0.62014873E-08 -0.60185179E-08 -0.57838823E-08 -0.55004952E-08
 -0.51716664E-08 -0.48010637E-08 -0.43926755E-08 -0.39507692E-08 -0.34798490E-08
 -0.29846115E-08 -0.24699008E-08 -0.19406622E-08 -0.14018968E-08 -0.85861501E-09
 -0.31579194E-09  0.22167720E-09  0.74901974E-09  0.12616266E-08  0.17550914E-08
  0.22252468E-08  0.26681985E-08  0.30803562E-08  0.34584611E-08  0.37996102E-08
  0.41012775E-08  0.43613303E-08  0.45780431E-08  0.47501068E-08  0.48766342E-08
  0.49571614E-08  0.49916462E-08  0.49804620E-08  0.49243878E-08  0.48245957E-08
  0.46826343E-08  0.45004093E-08  0.42801606E-08  0.40244381E-08  0.37360732E-08
  0.34181497E-08  0.30739726E-08  0.27070343E-08  0.23209813E-08  0.19195786E-08
  0.15066744E-08  0.10861640E-08  0.66195439E-09  0.23792861E-09 -0.18208847E-09
 -0.59436391E-09 -0.99528887E-09 -0.13814092E-08 -0.17494544E-08 -0.20963641E-08
 -0.24193128E-08 -0.27157317E-08 -0.29833282E-08 -0.32201022E-08 -0.34243605E-08
 -0.35947268E-08 -0.37301502E-08 -0.38299096E-08 -0.38936153E-08 -0.39212083E-08
 -0.39129554E-08 -0.38694429E-08 -0.37915658E-08 -0.36805164E-08 -0.35377684E-08
 -0.33650603E-08 -0.31643757E-08 -0.29379220E-08 -0.26881074E-08 -0.24175163E-08
 -0.21288839E-08 -0.18250690E-08 -0.15090271E-08 -0.11837817E-08 -0.85239701E-09
 -0.51794927E-09 -0.18349910E-09  0.14793582E-09  0.47340726E-09  0.79006198E-09
  0.10951661E-08  0.13861278E-08  0.16605191E-08  0.19160948E-08  0.21508105E-08
  0.23628381E-08  0.25505794E-08  0.27126768E-08  0.28480226E-08  0.29557654E-08
  0.30353141E-08  0.30863396E-08  0.31087743E-08  0.31028090E-08  0.30688877E-08
  0.30076998E-08  0.29201711E-08  0.28074516E-08  0.26709027E-08  0.25120815E-08
  0.23327245E-08  0.21347294E-08  0.19201358E-08  0.16911051E-08  0.14498992E-08
  0.11988590E-08  0.94038189E-09  0.67690005E-09  0.41085761E-09  0.14468870E-09
 -0.11920429E-09 -0.37847191E-09 -0.63083805E-09 -0.87411938E-09 -0.11062438E-08
 -0.13252674E-08 -0.15293905E-08 -0.17169715E-08 -0.18865401E-08 -0.20368074E-08
 -0.21666758E-08 -0.22752460E-08 -0.23618224E-08 -0.24259167E-08 -0.24672494E-08
 -0.24857500E-08 -0.24815541E-08 -0.24550001E-08 -0.24066231E-08 -0.23371476E-08
 -0.22474786E-08 -0.21386908E-08 -0.20120169E-08 -0.18688344E-08 -0.17106514E-08
 -0.15390911E-08 -0.13558757E-08 -0.11628100E-08 -0.96176363E-09 -0.75465369E-09
 -0.54342676E-09 -0.33004108E-09 -0.11644874E-09  0.95421732E-10  0.30368242E-09
  0.50650246E-09  0.70212375E-09  0.88887583E-09  0.10651897E-08  0.12296107E-08
  0.13808100E-08  0.15175950E-08  0.16389183E-08  0.17438850E-08  0.18317591E-08
  0.19019680E-08  0.19541055E-08  0.19879330E-08  0.20033801E-08  0.20005426E-08
  0.19796798E-08  0.19412097E-08  0.18857037E-08  0.18138792E-08  0.17265911E-08
  0.16248230E-08  0.15096761E-08  0.13823580E-08  0.12441706E-08  0.10964973E-08
  0.94078902E-09  0.77855090E-09  0.61132773E-09  0.44068971E-09  0.26821795E-09
  0.95490155E-10 -0.75933531E-10 -0.24452431E-09 -0.40879808E-09 -0.56732823E-09
 -0.71875770E-09 -0.86181037E-09 -0.99530143E-09 -0.11181470E-08 -0.12293724E-08
 -0.13281199E-08 -0.14136546E-08 -0.14853696E-08 -0.15427903E-08 -0.15855761E-08
 -0.16135228E-08 -0.16265621E-08 -0.16247606E-08 -0.16083179E-08 -0.15775626E-08
 -0.15329484E-08 -0.14750479E-08 -0.14045462E-08 -0.13222336E-08 -0.12289967E-08
 -0.11258098E-08 -0.10137247E-08 -0.89386016E-09 -0.76739163E-09 -0.63553940E-09
 -0.49955736E-09 -0.36072124E-09 -0.22031694E-09 -0.79628763E-10  0.60072016E-10
  0.19753848E-09  0.33155896E-09  0.46096750E-09  0.58465375E-09  0.70157234E-09
  0.81075141E-09  0.91130051E-09  0.10024176E-08  0.10833951E-08  0.11536254E-08
  0.12126048E-08  0.12599368E-08  0.12953346E-08  0.13186222E-08  0.13297347E-08
  0.13287175E-08  0.13157247E-08  0.12910162E-08  0.12549543E-08  0.12079992E-08
 atomic pseudo charge-density
  0.90000000E+01  0.89855285E+01  0.89426177E+01  0.88727309E+01  0.87781564E+01
  0.86618056E+01  0.85269730E+01  0.83770908E+01  0.82155048E+01  0.80452944E+01
  0.78691467E+01  0.76892870E+01  0.75074607E+01  0.73249561E+01  0.71426556E+01
  0.69611042E+01  0.67805827E+01  0.66011807E+01  0.64228613E+01  0.62455156E+01
  0.60690064E+01  0.58932006E+01  0.57179912E+01  0.55433116E+01  0.53691421E+01
  0.51955125E+01  0.50224999E+01  0.48502248E+01  0.46788445E+01  0.45085475E+01
  0.43395457E+01  0.41720679E+01  0.40063535E+01  0.38426463E+01  0.36811896E+01
  0.35222215E+01  0.33659711E+01  0.32126555E+01  0.30624769E+01  0.29156213E+01
  0.27722568E+01  0.26325329E+01  0.24965798E+01  0.23645086E+01  0.22364116E+01
  0.21123624E+01  0.19924168E+01  0.18766136E+01  0.17649755E+01  0.16575101E+01
  0.15542110E+01  0.14550585E+01  0.13600212E+01  0.12690567E+01  0.11821127E+01
  0.10991281E+01  0.10200337E+01  0.94475317E+00  0.87320423E+00  0.80529900E+00
  0.74094499E+00  0.68004576E+00  0.62250159E+00  0.56821006E+00  0.51706664E+00
  0.46896521E+00  0.42379858E+00  0.38145886E+00  0.34183795E+00  0.30482788E+00
  0.27032117E+00  0.23821114E+00  0.20839218E+00  0.18076006E+00  0.15521210E+00
  0.13164744E+00  0.10996718E+00  0.90074562E-01  0.71875129E-01  0.55276824E-01
  0.40190111E-01  0.26528065E-01  0.14206439E-01  0.31437260E-02 -0.67387952E-02
 -0.15517031E-01 -0.23264052E-01 -0.30050086E-01 -0.35942516E-01 -0.41005896E-01
 -0.45301968E-01 -0.48889688E-01 -0.51825262E-01 -0.54162187E-01 -0.55951295E-01
 -0.57240806E-01 -0.58076384E-01 -0.58501194E-01 -0.58555969E-01 -0.58279069E-01
 -0.57706560E-01 -0.56872274E-01 -0.55807886E-01 -0.54542988E-01 -0.53105163E-01
 -0.51520057E-01 -0.49811459E-01 -0.48001374E-01 -0.46110099E-01 -0.44156297E-01
 -0.42157074E-01 -0.40128052E-01 -0.38083441E-01 -0.36036108E-01 -0.33997656E-01
 -0.31978483E-01 -0.29987857E-01 -0.28033977E-01 -0.26124041E-01 -0.24264305E-01
 -0.22460147E-01 -0.20716123E-01 -0.19036024E-01 -0.17422933E-01 -0.15879275E-01
 -0.14406867E-01 -0.13006970E-01 -0.11680332E-01 -0.10427235E-01 -0.92475356E-02
 -0.81407059E-02 -0.71058721E-02 -0.61418507E-02 -0.52471833E-02 -0.44201688E-02
 -0.36588943E-02 -0.29612644E-02 -0.23250279E-02 -0.17478037E-02 -0.12271047E-02
 -0.76035947E-03 -0.34493385E-03  0.21850512E-04  0.34269815E-03  0.62032343E-03
  0.85743553E-03  0.10567247E-02  0.12208499E-02  0.13524271E-02  0.14540197E-02
  0.15281290E-02  0.15771863E-02  0.16035460E-02  0.16094791E-02  0.15971685E-02
  0.15687044E-02  0.15260804E-02  0.14711915E-02  0.14058313E-02  0.13316907E-02
  0.12503575E-02  0.11633158E-02  0.10719464E-02  0.97752783E-03  0.88123731E-03
  0.78415274E-03  0.68725469E-03  0.59142884E-03  0.49746873E-03  0.40607880E-03
  0.31787765E-03  0.23340154E-03  0.15310799E-03  0.77379643E-04  0.65281370E-05
 -0.59201859E-04 -0.11962858E-03 -0.17462906E-03 -0.22413499E-03 -0.26812859E-03
 -0.30663854E-03 -0.33973590E-03 -0.36753014E-03 -0.39016521E-03 -0.40781575E-03
 -0.42068338E-03 -0.42899310E-03 -0.43298982E-03 -0.43293508E-03 -0.42910384E-03
 -0.42178150E-03 -0.41126101E-03 -0.39784018E-03 -0.38181918E-03 -0.36349816E-03
 -0.34317506E-03 -0.32114361E-03 -0.29769149E-03 -0.27309863E-03 -0.24763572E-03
 -0.22156288E-03 -0.19512845E-03 -0.16856797E-03 -0.14210333E-03 -0.11594202E-03
 -0.90276567E-04 -0.65284061E-04 -0.41125871E-04 -0.17947432E-04  0.41218259E-05
  0.24968441E-04  0.44494782E-04  0.62618815E-04  0.79273779E-04  0.94407780E-04
  0.10798331E-03  0.11997670E-03  0.13037751E-03  0.13918786E-03  0.14642176E-03
  0.15210430E-03  0.15627091E-03  0.15896655E-03  0.16024488E-03  0.16016741E-03
  0.15880267E-03  0.15622532E-03  0.15251536E-03  0.14775722E-03  0.14203901E-03
  0.13545163E-03  0.12808804E-03  0.12004247E-03  0.11140968E-03  0.10228428E-03
  0.92760030E-04  0.82929245E-04  0.72882180E-04  0.62706488E-04  0.52486718E-04
  0.42303849E-04  0.32234881E-04  0.22352458E-04  0.12724554E-04  0.34141910E-05
 -0.55207879E-05 -0.14027903E-04 -0.22060179E-04 -0.29576235E-04 -0.36540343E-04
 -0.42922436E-04 -0.48698079E-04 -0.53848404E-04 -0.58360011E-04 -0.62224828E-04
 -0.65439947E-04 -0.68007431E-04 -0.69934089E-04 -0.71231233E-04 -0.71914409E-04
 -0.72003114E-04 -0.71520496E-04 -0.70493035E-04 -0.68950223E-04 -0.66924226E-04
 -0.64449551E-04 -0.61562699E-04 -0.58301826E-04 -0.54706399E-04 -0.50816863E-04
 -0.46674311E-04 -0.42320155E-04 -0.37795820E-04 -0.33142440E-04 -0.28400572E-04
 -0.23609921E-04 -0.18809083E-04 -0.14035308E-04 -0.93242769E-05 -0.47098987E-05
 -0.22412819E-06  0.41031958E-05  0.82444926E-05  0.12174560E-04  0.15870673E-04
  0.19312666E-04  0.22482984E-04  0.25366726E-04  0.27951660E-04  0.30228218E-04
  0.32189481E-04  0.33831133E-04  0.35151407E-04  0.36151015E-04  0.36833054E-04
  0.37202911E-04  0.37268141E-04  0.37038345E-04  0.36525030E-04  0.35741462E-04
  0.34702515E-04  0.33424503E-04  0.31925022E-04  0.30222772E-04  0.28337387E-04
  0.26289263E-04  0.24099378E-04  0.21789124E-04  0.19380131E-04  0.16894105E-04
  0.14352658E-04  0.11777156E-04  0.91885659E-05  0.66073128E-05  0.40531425E-05
  0.15449967E-05 -0.89910437E-06 -0.32621690E-05 -0.55283302E-05 -0.76829308E-05
 -0.97125976E-05 -0.11605304E-04 -0.13350419E-04 -0.14938751E-04 -0.16362570E-04
 -0.17615625E-04 -0.18693151E-04 -0.19591861E-04 -0.20309929E-04 -0.20846960E-04
 -0.21203959E-04 -0.21383277E-04 -0.21388563E-04 -0.21224694E-04 -0.20897709E-04
 -0.20414730E-04 -0.19783878E-04 -0.19014185E-04 -0.18115503E-04 -0.17098402E-04
 -0.15974076E-04 -0.14754241E-04 -0.13451027E-04 -0.12076882E-04 -0.10644466E-04
 -0.91665467E-05 -0.76559047E-05 -0.61252327E-05 -0.45870420E-05 -0.30535723E-05
 -0.15367052E-05 -0.47883280E-07  0.14019662E-05  0.28025012E-05  0.41440291E-05
  0.54175642E-05  0.66148780E-05  0.77285437E-05  0.87519723E-05  0.96794423E-05
  0.10506122E-04  0.11228083E-04  0.11842310E-04  0.12346700E-04  0.12740057E-04
  0.13022077E-04  0.13193331E-04  0.13255235E-04  0.13210026E-04  0.13060716E-04
  0.12811058E-04  0.12465492E-04  0.12029102E-04  0.11507554E-04  0.10907043E-04
  0.10234232E-04  0.94961878E-05  0.87003177E-05  0.78543048E-05  0.69660414E-05
  0.60435632E-05  0.50949835E-05  0.41284291E-05  0.31519762E-05  0.21735896E-05
  0.12010630E-05  0.24196273E-06 -0.69642613E-06 -0.16071497E-05 -0.24836318E-05
 -0.33197169E-05 -0.41097081E-05 -0.48484013E-05 -0.55311147E-05 -0.61537137E-05
 -0.67126304E-05 -0.72048793E-05 -0.76280675E-05 -0.79804002E-05 -0.82606812E-05
 -0.84683098E-05 -0.86032715E-05 -0.86661258E-05 -0.86579891E-05 -0.85805138E-05
 -0.84358636E-05 -0.82266857E-05 -0.79560790E-05 -0.76275609E-05 -0.72450297E-05
 -0.68127266E-05 -0.63351946E-05 -0.58172363E-05 -0.52638711E-05 -0.46802903E-05
 -0.40718134E-05 -0.34438430E-05 -0.28018208E-05 -0.21511834E-05 -0.14973204E-05
 -0.84553215E-06 -0.20098998E-06  0.43130166E-06  0.10465415E-05  0.16401649E-05
  0.22078752E-05  0.27456722E-05  0.32498774E-05  0.37171565E-05  0.41445390E-05
  0.45294339E-05  0.48696426E-05  0.51633682E-05  0.54092218E-05  0.56062249E-05
  0.57538090E-05  0.58518116E-05  0.59004697E-05  0.59004094E-05  0.58526332E-05
  0.57585049E-05  0.56197306E-05  0.54383395E-05  0.52166601E-05  0.49572966E-05
  0.46631022E-05  0.43371517E-05  0.39827126E-05  0.36032149E-05  0.32022211E-05
  0.27833950E-05  0.23504701E-05  0.19072193E-05  0.14574230E-05  0.10048398E-05
  0.55317613E-06  0.10605806E-06 -0.33299614E-06 -0.76060208E-06 -0.11735336E-05
 -0.15687458E-05 -0.19433953E-05 -0.22948596E-05 -0.26207538E-05 -0.29189448E-05
 -0.31875638E-05 -0.34250159E-05 -0.36299882E-05 -0.38014543E-05 -0.39386775E-05
 -0.40412109E-05 -0.41088956E-05 -0.41418568E-05 -0.41404967E-05 -0.41054869E-05
 -0.40377571E-05 -0.39384833E-05 -0.38090738E-05 -0.36511530E-05 -0.34665447E-05
 -0.32572536E-05 -0.30254458E-05 -0.27734283E-05 -0.25036281E-05 -0.22185699E-05
 -0.19208545E-05 -0.16131363E-05 -0.12981006E-05 -0.97844201E-06 -0.65684203E-06
 -0.33594800E-06 -0.18352279E-07  0.29342759E-06  0.59696782E-06  0.88995621E-06
  0.11702087E-05  0.14356847E-05  0.16845008E-05  0.19149434E-05  0.21254791E-05
  0.23147639E-05  0.24816507E-05  0.26251950E-05  0.27446585E-05  0.28395119E-05
  0.29094350E-05  0.29543156E-05  0.29742466E-05  0.29695216E-05  0.29406290E-05
  0.28882444E-05  0.28132218E-05  0.27165837E-05  0.25995093E-05  0.24633228E-05
  0.23094795E-05  0.21395521E-05  0.19552156E-05  0.17582321E-05  0.15504347E-05
  0.13337119E-05  0.11099905E-05  0.88122015E-06  0.64935668E-06  0.41634615E-06
  0.18410935E-06 -0.45473365E-07 -0.27057664E-06 -0.48944394E-06 -0.70040058E-06
 -0.90186588E-06 -0.10923644E-05 -0.12705359E-05 -0.14351446E-05 -0.15850868E-05
 -0.17193977E-05 -0.18372568E-05 -0.19379919E-05 -0.20210820E-05 -0.20861592E-05
 -0.21330084E-05 -0.21615672E-05 -0.21719229E-05 -0.21643099E-05 -0.21391048E-05
 -0.20968211E-05 -0.20381025E-05 -0.19637155E-05 -0.18745410E-05 -0.17715653E-05
 -0.16558700E-05 -0.15286217E-05 -0.13910612E-05 -0.12444917E-05 -0.10902674E-05
 -0.92978192E-06 -0.76445547E-06 -0.59572356E-06 -0.42502468E-06 -0.25378866E-06
 -0.83425141E-07  0.84687575E-07  0.24921319E-06  0.40886759E-06  0.56242842E-06
  0.70874399E-06  0.84674143E-06  0.97543413E-06  0.10939283E-05  0.12014286E-05
  0.12972432E-05  0.13807872E-05  0.14515861E-05  0.15092774E-05  0.15536120E-05
  0.15844540E-05  0.16017800E-05  0.16056775E-05  0.15963422E-05  0.15740745E-05
  0.15392756E-05  0.14924421E-05  0.14341606E-05  0.13651016E-05  0.12860119E-05
  0.11977082E-05  0.11010684E-05  0.99702403E-06  0.88655121E-06  0.77066242E-06
  0.65039733E-06  0.52681399E-06  0.40097979E-06  0.27396268E-06  0.14682240E-06
  0.20601971E-07 -0.10368055E-06 -0.22503994E-06 -0.34253133E-06 -0.45525722E-06
 -0.56237404E-06 -0.66309812E-06 -0.75671112E-06 -0.84256476E-06 -0.92008502E-06
 -0.98877550E-06 -0.10482203E-05 -0.10980859E-05 -0.11381227E-05 -0.11681657E-05
 -0.11881341E-05 -0.11980311E-05 -0.11979420E-05 -0.11880323E-05 -0.11685452E-05
 -0.11397983E-05 -0.11021792E-05 -0.10561422E-05 -0.10022026E-05 -0.94093202E-06
 -0.87295240E-06 -0.79893044E-06 -0.71957127E-06 -0.63561202E-06 -0.54781536E-06
 -0.45696277E-06 -0.36384793E-06 -0.26926996E-06 -0.17402687E-06 -0.78908998E-07
  0.15307254E-07  0.10786558E-06  0.19803558E-06  0.28511833E-06  0.36845157E-06
  0.44741448E-06  0.52143211E-06  0.58997928E-06  0.65258410E-06  0.70883093E-06
  0.75836285E-06  0.80088361E-06  0.83615908E-06  0.86401814E-06  0.88435302E-06
  0.89711919E-06  0.90233469E-06  0.90007892E-06  0.89049104E-06  0.87376785E-06
  0.85016123E-06  0.81997522E-06  0.78356264E-06  0.74132148E-06  0.69369089E-06
  0.64114692E-06  0.58419804E-06  0.52338048E-06  0.45925341E-06  0.39239396E-06
  0.32339230E-06  0.25284652E-06  0.18135772E-06  0.10952498E-06  0.37940547E-07
 -0.32814877E-07 -0.10217671E-06 -0.16960081E-06 -0.23456760E-06 -0.29658588E-06
 -0.35519639E-06 -0.40997505E-06 -0.46053582E-06 -0.50653323E-06 -0.54766458E-06
 -0.58367168E-06 -0.61434225E-06 -0.63951092E-06 -0.65905978E-06 -0.67291865E-06
 -0.68106480E-06 -0.68352245E-06 -0.68036176E-06 -0.67169757E-06 -0.65768769E-06
 -0.63853098E-06 -0.61446506E-06 -0.58576372E-06 -0.55273416E-06 -0.51571393E-06
 -0.47506769E-06 -0.43118383E-06 -0.38447091E-06 -0.33535404E-06 -0.28427112E-06
 -0.23166911E-06 -0.17800024E-06 -0.12371823E-06 -0.69274615E-07 -0.15115067E-07
  0.38324096E-07  0.90619322E-07  0.14136306E-06  0.19016683E-06  0.23666404E-06
  0.28051263E-06  0.32139749E-06  0.35903253E-06  0.39316259E-06  0.42356500E-06
  0.45005085E-06  0.47246603E-06  0.49069190E-06  0.50464568E-06  0.51428057E-06
  0.51958558E-06  0.52058498E-06  0.51733764E-06  0.50993592E-06  0.49850444E-06
  0.48319854E-06  0.46420257E-06  0.44172786E-06  0.41601068E-06  0.38730984E-06
  0.35590431E-06  0.32209060E-06  0.28618010E-06  0.24849632E-06  0.20937207E-06
  0.16914665E-06  0.12816297E-06  0.86764732E-07  0.45293652E-07  0.40867069E-08
 -0.36526503E-07 -0.76226304E-07 -0.11470538E-06 -0.15167104E-06 -0.18684739E-06
 -0.21997727E-06 -0.25082403E-06 -0.27917315E-06 -0.30483359E-06 -0.32763899E-06
 -0.34744860E-06 -0.36414806E-06 -0.37764985E-06 -0.38789363E-06 -0.39484626E-06
 -0.39850169E-06 -0.39888053E-06 -0.39602952E-06 -0.39002071E-06 -0.38095051E-06
 -0.36893854E-06 -0.35412626E-06 -0.33667554E-06 -0.31676704E-06 -0.29459841E-06
 -0.27038252E-06 -0.24434543E-06 -0.21672442E-06 -0.18776589E-06 -0.15772324E-06
 -0.12685473E-06 -0.95421310E-07 -0.63684517E-07 -0.31904340E-07 -0.33716182E-09
  0.30766238E-07  0.61162612E-07  0.90618081E-07  0.11890986E-06  0.14582789E-06
  0.17117630E-06  0.19477478E-06  0.21645978E-06  0.23608557E-06  0.25352511E-06
  0.26867082E-06  0.28143512E-06  0.29175082E-06  0.29957137E-06  0.30487091E-06
  0.30764414E-06  0.30790608E-06  0.30569162E-06  0.30105498E-06  0.29406891E-06
  0.28482391E-06  0.27342717E-06  0.26000151E-06  0.24468414E-06  0.22762534E-06
  0.20898711E-06  0.18894163E-06  0.16766978E-06  0.14535957E-06  0.12220451E-06
  0.98401992E-07  0.74151672E-07  0.49653833E-07  0.25107790E-07  0.71030876E-09
 -0.23345912E-07 -0.46873721E-07 -0.69692914E-07 -0.91631566E-07 -0.11252727E-06
 -0.13222830E-06 -0.15059464E-06 -0.16749892E-06 -0.18282727E-06 -0.19648001E-06
 -0.20837219E-06 -0.21843413E-06 -0.22661168E-06 -0.23286645E-06 -0.23717588E-06
 -0.23953318E-06 -0.23994718E-06 -0.23844200E-06 -0.23505665E-06 -0.22984449E-06
 -0.22287264E-06 -0.21422120E-06 -0.20398246E-06 -0.19225998E-06 -0.17916760E-06
 -0.16482843E-06 -0.14937368E-06 -0.13294156E-06 -0.11567606E-06 -0.97725764E-07
 -0.79242550E-07 -0.60380399E-07 -0.41294125E-07 -0.22138148E-07 -0.30652836E-08
  0.15774442E-07  0.34234932E-07  0.52175119E-07  0.69460000E-07  0.85961616E-07
  0.10155996E-06  0.11614381E-06  0.12961147E-06  0.14187147E-06  0.15284309E-06
  0.16245691E-06  0.17065514E-06  0.17739194E-06  0.18263363E-06  0.18635873E-06
  0.18855805E-06  0.18923451E-06  0.18840300E-06  0.18609006E-06  0.18233357E-06
  0.17718224E-06  0.17069511E-06  0.16294093E-06  0.15399753E-06  0.14395102E-06
  0.13289505E-06  0.12092999E-06  0.10816198E-06  0.94702111E-07  0.80665418E-07
  0.66169966E-07  0.51335876E-07  0.36284355E-07  0.21136735E-07  0.60135220E-08
 -0.89665313E-08 -0.23687332E-07 -0.38036320E-07 -0.51905295E-07 -0.65191215E-07
 -0.77796925E-07 -0.89631845E-07 -0.10061259E-06 -0.11066352E-06 -0.11971724E-06
 -0.12771503E-06 -0.13460715E-06 -0.14035317E-06 -0.14492213E-06 -0.14829269E-06
 -0.15045312E-06 -0.15140133E-06 -0.15114475E-06 -0.14970011E-06 -0.14709327E-06
 -0.14335882E-06 -0.13853978E-06 -0.13268710E-06 -0.12585919E-06 -0.11812138E-06
 -0.10954530E-06 -0.10020828E-06 -0.90192653E-07 -0.79585059E-07 -0.68475724E-07
 -0.56957706E-07 -0.45126145E-07 -0.33077495E-07 -0.20908758E-07 -0.87167309E-08
  0.34027518E-08  0.15355548E-07  0.27049922E-07  0.38397226E-07  0.49312554E-07
  0.59715353E-07  0.69530002E-07  0.78686336E-07  0.87120135E-07  0.94773551E-07
  0.10159549E-06  0.10754192E-06  0.11257613E-06  0.11666897E-06  0.11979892E-06
  0.12195224E-06  0.12312295E-06  0.12331281E-06  0.12253119E-06  0.12079496E-06
  0.11812822E-06  0.11456209E-06  0.11013431E-06  0.10488897E-06  0.98876027E-07
  0.92150892E-07  0.84773917E-07  0.76809883E-07  0.68327447E-07  0.59398563E-07
  0.50097899E-07  0.40502219E-07  0.30689773E-07  0.20739675E-07  0.10731271E-07
  0.74352865E-09 -0.91455766E-08 -0.18859653E-07 -0.28324467E-07 -0.37468498E-07
 -0.46223460E-07 -0.54524807E-07 -0.62312189E-07 -0.69529886E-07 -0.76127189E-07
 -0.82058743E-07 -0.87284844E-07 -0.91771689E-07 -0.95491582E-07 -0.98423088E-07
 -0.10055114E-06 -0.10186709E-06 -0.10236872E-06 -0.10206019E-06 -0.10095193E-06
 -0.99060510E-07 -0.96408463E-07 -0.93024027E-07 -0.88940888E-07 -0.84197861E-07
 -0.78838542E-07 -0.72910913E-07 -0.66466936E-07 -0.59562103E-07 -0.52254978E-07
 -0.44606709E-07 -0.36680538E-07 -0.28541280E-07 -0.20254809E-07 -0.11887534E-07
 -0.35058728E-08  0.48242616E-08  0.13037969E-07  0.21071854E-07  0.28864511E-07
  0.36356976E-07  0.43493175E-07  0.50220332E-07  0.56489351E-07  0.62255171E-07
  0.67477075E-07  0.72118969E-07  0.76149625E-07  0.79542878E-07  0.82277790E-07
  0.84338772E-07  0.85715654E-07  0.86403722E-07  0.86403703E-07  0.85721711E-07
   16.2516435017787      T
 Non local Part
           0           2   1.24792909188821     
  -16.0991126929987        7.76346019584400        7.76346019584400     
  -7.18699010108414     
 Reciprocal Space Part
  0.11234034E+02  0.11197784E+02  0.11089472E+02  0.10910400E+02  0.10662719E+02
  0.10349392E+02  0.99741495E+01  0.95414322E+01  0.90563218E+01  0.85244642E+01
  0.79519838E+01  0.73453915E+01  0.67114874E+01  0.60572608E+01  0.53897888E+01
  0.47161348E+01  0.40432494E+01  0.33778745E+01  0.27264535E+01  0.20950472E+01
  0.14892585E+01  0.91416542E+00  0.37426524E+00 -0.12657166E+00 -0.58513596E+00
 -0.99890211E+00 -0.13660394E+01 -0.16854114E+01 -0.19565640E+01 -0.21797035E+01
 -0.23556636E+01 -0.24858642E+01 -0.25722622E+01 -0.26172950E+01 -0.26238185E+01
 -0.25950412E+01 -0.25344554E+01 -0.24457658E+01 -0.23328194E+01 -0.21995357E+01
 -0.20498387E+01 -0.18875938E+01 -0.17165477E+01 -0.15402747E+01 -0.13621284E+01
 -0.11852008E+01 -0.10122883E+01 -0.84586485E+00 -0.68806297E+00 -0.54066247E+00
 -0.40508616E+00 -0.28240267E+00 -0.17333589E+00 -0.78280299E-01  0.26783942E-02
  0.69738003E-01  0.12335089E+00  0.16419206E+00  0.19312514E+00  0.21116715E+00
  0.21945285E+00  0.21919949E+00  0.21167264E+00  0.19815375E+00  0.17991017E+00
  0.15816791E+00  0.13408773E+00  0.10874472E+00  0.83111662E-01  0.58046239E-01
  0.34282100E-01  0.12423688E-01 -0.70553233E-02 -0.23810245E-01 -0.37620531E-01
 -0.48382260E-01 -0.56098325E-01 -0.60866769E-01 -0.62867715E-01 -0.62349337E-01
 -0.59613313E-01 -0.55000183E-01 -0.48875013E-01 -0.41613720E-01 -0.33590366E-01
 -0.25165706E-01 -0.16677178E-01 -0.84305159E-02 -0.69307777E-03  0.63110671E-02
  0.12404286E-01  0.17456828E-01  0.21386658E-01  0.24157820E-01  0.25777498E-01
  0.26291963E-01  0.25781623E-01  0.24355398E-01  0.22144642E-01  0.19296840E-01
 Real Space Part
 -0.93474015E+01 -0.93369773E+01 -0.93057371E+01 -0.92537792E+01 -0.91812667E+01
 -0.90884277E+01 -0.89755537E+01 -0.88429999E+01 -0.86911832E+01 -0.85205815E+01
 -0.83317319E+01 -0.81252295E+01 -0.79017253E+01 -0.76619245E+01 -0.74065840E+01
 -0.71365104E+01 -0.68525573E+01 -0.65556226E+01 -0.62466457E+01 -0.59266048E+01
 -0.55965132E+01 -0.52574163E+01 -0.49103881E+01 -0.45565276E+01 -0.41969550E+01
 -0.38328080E+01 -0.34652378E+01 -0.30954051E+01 -0.27244755E+01 -0.23536163E+01
 -0.19839911E+01 -0.16167563E+01 -0.12530564E+01 -0.89401969E+00 -0.54075406E+00
 -0.19434243E+00  0.14416138E+00  0.47373692E+00  0.79340129E+00  0.11022132E+01
  0.13992768E+01  0.16837456E+01  0.19548264E+01  0.22117820E+01  0.24539353E+01
  0.26806720E+01  0.28914433E+01  0.30857690E+01  0.32632391E+01  0.34235166E+01
  0.35663384E+01  0.36915176E+01  0.37989441E+01  0.38885851E+01  0.39604862E+01
  0.40147708E+01  0.40516402E+01  0.40713726E+01  0.40743223E+01  0.40609180E+01
  0.40316612E+01  0.39871237E+01  0.39279454E+01  0.38548312E+01  0.37685477E+01
  0.36699196E+01  0.35598258E+01  0.34391950E+01  0.33090014E+01  0.31702598E+01
  0.30240204E+01  0.28713635E+01  0.27133945E+01  0.25512374E+01  0.23860295E+01
  0.22189157E+01  0.20510418E+01  0.18835489E+01  0.17175674E+01  0.15542105E+01
  0.13945685E+01  0.12397028E+01  0.10906399E+01  0.94836559E+00  0.81381583E+00
  0.68789928E+00  0.57062533E+00  0.46188005E+00  0.36243523E+00  0.27298041E+00
  0.19414081E+00  0.12646620E+00  0.70427534E-01  0.26414198E-01 -0.52719272E-02
 -0.24395688E-01 -0.30811522E-01 -0.25053817E-01 -0.36994389E-02  0.00000000E+00
 Reciprocal Space Part
  0.12504838E+02  0.12442855E+02  0.12257736E+02  0.11951962E+02  0.11529619E+02
  0.10996336E+02  0.10359192E+02  0.96265968E+01  0.88081615E+01  0.79145386E+01
  0.69572534E+01  0.59485208E+01  0.49010526E+01  0.38278597E+01  0.27420514E+01
  0.16566371E+01  0.58433148E+00 -0.46263049E+00 -0.14726685E+01 -0.24350167E+01
 -0.33398671E+01 -0.41784934E+01 -0.49433544E+01 -0.56281748E+01 -0.62280028E+01
 -0.67392440E+01 -0.71596714E+01 -0.74884127E+01 -0.77259142E+01 -0.78738845E+01
 -0.79352180E+01 -0.79139015E+01 -0.78149047E+01 -0.76440592E+01 -0.74079263E+01
 -0.71136577E+01 -0.67688524E+01 -0.63814115E+01 -0.59593936E+01 -0.55108754E+01
 -0.50438169E+01 -0.45659364E+01 -0.40845955E+01 -0.36066964E+01 -0.31385929E+01
 -0.26860162E+01 -0.22540161E+01 -0.18469181E+01 -0.14682965E+01 -0.11209629E+01
 -0.80697012E+00 -0.52762971E+00 -0.28354331E+00 -0.74644943E-01  0.99746029E-01
  0.24086366E+00  0.35042731E+00  0.43056866E+00  0.48375551E+00  0.51271435E+00
  0.52035322E+00  0.50968661E+00  0.48376390E+00  0.44560246E+00  0.39812683E+00
  0.34411473E+00  0.28615059E+00  0.22658729E+00  0.16751623E+00  0.11074588E+00
  0.57788657E-01  0.98558890E-02 -0.32139753E-01 -0.67574840E-01 -0.96099633E-01
 -0.11761721E+00 -0.13225823E+00 -0.14035220E+00 -0.14239645E+00 -0.13902351E+00
 -0.13096808E+00 -0.11903434E+00 -0.10406451E+00 -0.86909311E-01 -0.68401018E-01
 -0.49329572E-01 -0.30422187E-01 -0.12326696E-01  0.44012096E-02  0.19306795E-01
  0.32041249E-01  0.42362970E-01  0.50135438E-01  0.55322020E-01  0.57978110E-01
  0.58241064E-01  0.56318405E-01  0.52474790E-01  0.47018251E-01  0.40286182E-01
 Real Space Part
 -0.35250965E+02 -0.35222004E+02 -0.35135202E+02 -0.34990807E+02 -0.34789228E+02
 -0.34531041E+02 -0.34216980E+02 -0.33847939E+02 -0.33424969E+02 -0.32949275E+02
 -0.32422214E+02 -0.31845287E+02 -0.31220141E+02 -0.30548559E+02 -0.29832457E+02
 -0.29073881E+02 -0.28274996E+02 -0.27438084E+02 -0.26565535E+02 -0.25659841E+02
 -0.24723588E+02 -0.23759449E+02 -0.22770173E+02 -0.21758580E+02 -0.20727550E+02
 -0.19680014E+02 -0.18618944E+02 -0.17547345E+02 -0.16468243E+02 -0.15384675E+02
 -0.14299680E+02 -0.13216288E+02 -0.12137508E+02 -0.11066317E+02 -0.10005652E+02
 -0.89583963E+01 -0.79273706E+01 -0.69153214E+01 -0.59249108E+01 -0.49587062E+01
 -0.40191702E+01 -0.31086509E+01 -0.22293724E+01 -0.13834259E+01 -0.57276066E+00
  0.20082352E+00  0.93568430E+00  0.16303437E+01  0.22834944E+01  0.28940056E+01
  0.34609278E+01  0.39834974E+01  0.44611397E+01  0.48934719E+01  0.52803048E+01
  0.56216437E+01  0.59176884E+01  0.61688324E+01  0.63756610E+01  0.65389487E+01
  0.66596555E+01  0.67389223E+01  0.67780654E+01  0.67785700E+01  0.67420833E+01
  0.66704057E+01  0.65654826E+01  0.64293940E+01  0.62643442E+01  0.60726507E+01
  0.58567321E+01  0.56190958E+01  0.53623249E+01  0.50890648E+01  0.48020090E+01
  0.45038852E+01  0.41974407E+01  0.38854276E+01  0.35705882E+01  0.32556400E+01
  0.29432611E+01  0.26360757E+01  0.23366392E+01  0.20474246E+01  0.17708031E+01
  0.15090685E+01  0.12632404E+01  0.10339344E+01  0.82285343E+00  0.63156890E+00
  0.46153457E+00  0.31406352E+00  0.19031629E+00  0.91290747E-01  0.17806373E-01
 -0.29459984E-01 -0.50021049E-01 -0.44707639E-01 -0.68265323E-02  0.00000000E+00
 Non local Part
           1           2   1.24792909188821     
  -7.50860202546680       -7.58600095312329       -7.58600095312329     
  -7.64998298834266     
 Reciprocal Space Part
  0.00000000E+00 -0.53862776E+01 -0.10725710E+02 -0.15970566E+02 -0.21071403E+02
 -0.25976360E+02 -0.30630615E+02 -0.34976069E+02 -0.38951273E+02 -0.42491644E+02
 -0.45529980E+02 -0.47997270E+02 -0.49823805E+02 -0.50940557E+02 -0.51280805E+02
 -0.50781948E+02 -0.49387468E+02 -0.47048970E+02 -0.43728238E+02 -0.39399226E+02
 -0.34049924E+02 -0.27684008E+02 -0.20322232E+02 -0.12003465E+02 -0.27853454E+01
  0.72555013E+01  0.18023720E+02  0.29405969E+02  0.41272163E+02  0.53477195E+02
  0.65863125E+02  0.78261790E+02  0.90497776E+02  0.10239171E+03  0.11376375E+03
  0.12443727E+03  0.13424253E+03  0.14302037E+03  0.15062571E+03  0.15693088E+03
  0.16182855E+03  0.16523434E+03  0.16708888E+03  0.16735940E+03  0.16604069E+03
  0.16315545E+03  0.15875402E+03  0.15291349E+03  0.14573614E+03  0.13734740E+03
  0.12789315E+03  0.11753671E+03  0.10645525E+03  0.94836083E+02  0.82872636E+02
  0.70760330E+02  0.58692473E+02  0.46856238E+02  0.35428833E+02  0.24573956E+02
  0.14438628E+02  0.51504672E+01 -0.31845307E+01 -0.10483653E+02 -0.16688546E+02
 -0.21765689E+02 -0.25706260E+02 -0.28525422E+02 -0.30261046E+02 -0.30971925E+02
 -0.30735542E+02 -0.29645450E+02 -0.27808343E+02 -0.25340918E+02 -0.22366596E+02
 -0.19012202E+02 -0.15404694E+02 -0.11668019E+02 -0.79201856E+01 -0.42706063E+01
 -0.81779396E+00  0.23525582E+01  0.51690646E+01  0.75756828E+01  0.95322849E+01
  0.11014769E+02  0.12014724E+02  0.12538679E+02  0.12606972E+02  0.12252290E+02
  0.11517936E+02  0.10455878E+02  0.91246585E+01  0.75872228E+01  0.59087305E+01
  0.41544260E+01  0.23876195E+01  0.66783695E+00 -0.95081342E+00 -0.24210201E+01
 Real Space Part
  0.00000000E+00  0.35066042E+02  0.69984727E+02  0.10460934E+03  0.13879443E+03
  0.17239646E+03  0.20527444E+03  0.23729050E+03  0.26831055E+03  0.29820485E+03
  0.32684859E+03  0.35412246E+03  0.37991322E+03  0.40411418E+03  0.42662573E+03
  0.44735583E+03  0.46622043E+03  0.48314394E+03  0.49805957E+03  0.51090973E+03
  0.52164633E+03  0.53023110E+03  0.53663579E+03  0.54084242E+03  0.54284344E+03
  0.54264183E+03  0.54025118E+03  0.53569575E+03  0.52901042E+03  0.52024061E+03
  0.50944219E+03  0.49668129E+03  0.48203406E+03  0.46558643E+03  0.44743374E+03
  0.42768035E+03  0.40643924E+03  0.38383149E+03  0.35998573E+03  0.33503755E+03
  0.30912887E+03  0.28240724E+03  0.25502506E+03  0.22713886E+03  0.19890844E+03
  0.17049598E+03  0.14206519E+03  0.11378037E+03  0.85805382E+02  0.58302767E+02
  0.31432661E+02  0.53518081E+01 -0.19787479E+02 -0.43838353E+02 -0.66660472E+02
 -0.88121030E+02 -0.10809578E+03 -0.12647002E+03 -0.14313962E+03 -0.15801191E+03
 -0.17100664E+03 -0.18205687E+03 -0.19110974E+03 -0.19812731E+03 -0.20308723E+03
 -0.20598342E+03 -0.20682666E+03 -0.20564506E+03 -0.20248451E+03 -0.19740902E+03
 -0.19050097E+03 -0.18186126E+03 -0.17160938E+03 -0.15988334E+03 -0.14683953E+03
 -0.13265250E+03 -0.11751454E+03 -0.10163522E+03 -0.85240871E+02 -0.68573775E+02
 -0.51891443E+02 -0.35465697E+02 -0.19581616E+02 -0.45362173E+01  0.93653885E+01
  0.21791529E+02  0.33000188E+02  0.43320639E+02  0.52423006E+02  0.59984520E+02
  0.65675419E+02  0.69165705E+02  0.70126447E+02  0.68231917E+02  0.63164025E+02
  0.54595826E+02  0.42211437E+02  0.26188579E+02  0.34213915E+01  0.00000000E+00
 Reciprocal Space Part
  0.00000000E+00  0.57914878E+01  0.11532444E+02  0.17171483E+02  0.22655574E+02
  0.27929365E+02  0.32934676E+02  0.37610208E+02  0.41891511E+02  0.45711223E+02
  0.48999618E+02  0.51685447E+02  0.53697069E+02  0.54963866E+02  0.55417879E+02
  0.54995649E+02  0.53640195E+02  0.51303062E+02  0.47946389E+02  0.43544899E+02
  0.38087764E+02  0.31580251E+02  0.24045092E+02  0.15523507E+02  0.60758298E+01
 -0.42183037E+01 -0.15260252E+02 -0.26933155E+02 -0.39103219E+02 -0.51621495E+02
 -0.64326119E+02 -0.77044979E+02 -0.89598748E+02 -0.10180423E+03 -0.11347791E+03
 -0.12443969E+03 -0.13451662E+03 -0.14354665E+03 -0.15138214E+03 -0.15789325E+03
 -0.16297092E+03 -0.16652945E+03 -0.16850863E+03 -0.16887531E+03 -0.16762435E+03
 -0.16477898E+03 -0.16039050E+03 -0.15453735E+03 -0.14732356E+03 -0.13887660E+03
 -0.12934472E+03 -0.11889376E+03 -0.10770367E+03 -0.95964607E+02 -0.83872911E+02
 -0.71626918E+02 -0.59422792E+02 -0.47450448E+02 -0.35889674E+02 -0.24906542E+02
 -0.14650200E+02 -0.52501099E+01  0.31861894E+01  0.10574767E+02  0.16856383E+02
  0.21996966E+02  0.25987473E+02  0.28843161E+02  0.30602291E+02  0.31324320E+02
  0.31087632E+02  0.29986887E+02  0.28130051E+02  0.25635221E+02  0.22627297E+02
  0.19234629E+02  0.15585697E+02  0.11805936E+02  0.80147649E+01  0.43229042E+01
  0.83004002E+00 -0.23771164E+01 -0.52263342E+01 -0.76609099E+01 -0.96402449E+01
 -0.11139957E+02 -0.12151542E+02 -0.12681608E+02 -0.12750739E+02 -0.12392008E+02
 -0.11649228E+02 -0.10574976E+02 -0.92284797E+01 -0.76734163E+01 -0.59757016E+01
 -0.42013346E+01 -0.24143547E+01 -0.67497146E+00  0.96208858E+00  0.24489756E+01
 Real Space Part
  0.00000000E+00 -0.35272791E+02 -0.70396962E+02 -0.10522454E+03 -0.13960883E+03
 -0.17340507E+03 -0.20647105E+03 -0.23866775E+03 -0.26985995E+03 -0.29991680E+03
 -0.32871246E+03 -0.35612664E+03 -0.38204515E+03 -0.40636044E+03 -0.42897211E+03
 -0.44978738E+03 -0.46872158E+03 -0.48569854E+03 -0.50065099E+03 -0.51352096E+03
 -0.52426006E+03 -0.53282979E+03 -0.53920183E+03 -0.54335816E+03 -0.54529132E+03
 -0.54500449E+03 -0.54251154E+03 -0.53783711E+03 -0.53101656E+03 -0.52209591E+03
 -0.51113170E+03 -0.49819082E+03 -0.48335031E+03 -0.46669702E+03 -0.44832734E+03
 -0.42834673E+03 -0.40686938E+03 -0.38401759E+03 -0.35992134E+03 -0.33471758E+03
 -0.30854966E+03 -0.28156658E+03 -0.25392227E+03 -0.22577476E+03 -0.19728539E+03
 -0.16861792E+03 -0.13993761E+03 -0.11141027E+03 -0.83201312E+02 -0.55474763E+02
 -0.28392211E+02 -0.21118047E+01  0.23212802E+02  0.47433489E+02  0.70408723E+02
  0.92004595E+02  0.11209585E+03  0.13056692E+03  0.14731287E+03  0.16224040E+03
  0.17526876E+03  0.18633064E+03  0.19537297E+03  0.20235775E+03  0.20726276E+03
  0.21008220E+03  0.21082730E+03  0.20952681E+03  0.20622746E+03  0.20099426E+03
  0.19391078E+03  0.18507931E+03  0.17462090E+03  0.16267531E+03  0.14940086E+03
  0.13497421E+03  0.11958994E+03  0.10346007E+03  0.86813523E+02  0.69895349E+02
  0.52965955E+02  0.36300192E+02  0.20186290E+02  0.49245163E+01 -0.91767037E+01
 -0.21782112E+02 -0.33152839E+02 -0.43622026E+02 -0.52856155E+02 -0.60528934E+02
 -0.66307038E+02 -0.69856942E+02 -0.70846234E+02 -0.68945769E+02 -0.63834160E+02
 -0.55181088E+02 -0.42667451E+02 -0.26473169E+02 -0.34586907E+01  0.00000000E+00
 Non local Part
           2           1   1.24792909188821     
 -0.644224221464676     
 Reciprocal Space Part
  0.00000000E+00  0.12238647E-01  0.48755404E-01  0.10902878E+00  0.19216979E+00
  0.29696042E+00  0.42186797E+00  0.56506934E+00  0.72447978E+00  0.89778564E+00
  0.10824807E+01  0.12759050E+01  0.14752867E+01  0.16777843E+01  0.18805303E+01
  0.20806750E+01  0.22754293E+01  0.24621059E+01  0.26381592E+01  0.28012214E+01
  0.29491363E+01  0.30799885E+01  0.31921290E+01  0.32841954E+01  0.33551277E+01
  0.34041787E+01  0.34309195E+01  0.34352392E+01  0.34173400E+01  0.33777268E+01
  0.33171925E+01  0.32367988E+01  0.31378527E+01  0.30218805E+01  0.28905972E+01
  0.27458754E+01  0.25897113E+01  0.24241896E+01  0.22514485E+01  0.20736447E+01
  0.18929187E+01  0.17113621E+01  0.15309866E+01  0.13536954E+01  0.11812574E+01
  0.10152849E+01  0.85721486E+00  0.70829350E+00  0.56956548E+00  0.44186670E+00
  0.32582123E+00  0.22184210E+00  0.13013594E+00  0.50711003E-01 -0.16611454E-01
 -0.72183018E-01 -0.11651143E+00 -0.15024188E+00 -0.17413670E+00 -0.18905396E+00
 -0.19592539E+00 -0.19573421E+00 -0.18949318E+00 -0.17822346E+00 -0.16293449E+00
 -0.14460551E+00 -0.12416872E+00 -0.10249461E+00 -0.80379500E-01 -0.58535507E-01
 -0.37582956E-01 -0.18045338E-01 -0.34672566E-03  0.15188426E-01  0.28333239E-01
  0.38954302E-01  0.47005731E-01  0.52521638E-01  0.55607300E-01  0.56429316E-01
  0.55205051E-01  0.52191682E-01  0.47675131E-01  0.41959174E-01  0.35354988E-01
  0.28171369E-01  0.20705829E-01  0.13236744E-01  0.60166811E-02 -0.73299212E-03
 -0.68261687E-02 -0.12114711E-01 -0.16489832E-01 -0.19850844E-01 -0.22260861E-01
 -0.23631081E-01 -0.24031262E-01 -0.23529070E-01 -0.22216958E-01 -0.20207243E-01
 Real Space Part
  0.00000000E+00  0.47059252E-02  0.18805335E-01  0.42243186E-01  0.74927929E-01
  0.11673179E+00  0.16749116E+00  0.22700711E+00  0.29504599E+00  0.37134021E+00
  0.45558902E+00  0.54745948E+00  0.64658757E+00  0.75257932E+00  0.86501207E+00
  0.98343595E+00  0.11073753E+01  0.12363302E+01  0.13697785E+01  0.15071770E+01
  0.16479642E+01  0.17915615E+01  0.19373757E+01  0.20848011E+01  0.22332216E+01
  0.23820133E+01  0.25305467E+01  0.26781891E+01  0.28243071E+01  0.29682695E+01
  0.31094495E+01  0.32472272E+01  0.33809929E+01  0.35101489E+01  0.36341130E+01
  0.37523203E+01  0.38642265E+01  0.39693100E+01  0.40670749E+01  0.41570530E+01
  0.42388062E+01  0.43119294E+01  0.43760521E+01  0.44308407E+01  0.44760005E+01
  0.45112775E+01  0.45364604E+01  0.45513813E+01  0.45559182E+01  0.45499951E+01
  0.45335836E+01  0.45067037E+01  0.44694239E+01  0.44218620E+01  0.43641848E+01
  0.42966084E+01  0.42193975E+01  0.41328650E+01  0.40373709E+01  0.39333214E+01
  0.38211675E+01  0.37014034E+01  0.35745645E+01  0.34412257E+01  0.33019986E+01
  0.31575293E+01  0.30084956E+01  0.28556038E+01  0.26995859E+01  0.25411961E+01
  0.23812070E+01  0.22204066E+01  0.20595939E+01  0.18995752E+01  0.17411603E+01
  0.15851580E+01  0.14323724E+01  0.12835983E+01  0.11396176E+01  0.10011942E+01
  0.86907096E+00  0.74396476E+00  0.62656301E+00  0.51751879E+00  0.41744086E+00
  0.32694041E+00  0.24508273E+00  0.17085265E+00  0.10490450E+00  0.47796921E-01
  0.32048024E-04 -0.37958604E-01 -0.65814680E-01 -0.83247826E-01 -0.90047384E-01
 -0.86046669E-01 -0.71155771E-01 -0.46249176E-01 -0.61867389E-02  0.00000000E+00
 PAW radial sets
         373   1.10454679998659     
(5E20.12)                                
 augmentation charges (non sperical)
 -0.327944813384E-01  0.212629384317E+00  0.164730385358E+00  0.158684585728E+00  0.138887024670E+00
  0.212629384317E+00 -0.140740475662E+00  0.875341016818E-01  0.852390201961E-01  0.355376856143E-01
  0.164730385358E+00  0.875341016818E-01  0.263525229939E+00  0.254301332634E+00  0.181150776247E+00
  0.158684585728E+00  0.852390201961E-01  0.254301332634E+00  0.245355340276E+00  0.174685705949E+00
  0.138887024670E+00  0.355376856143E-01  0.181150776247E+00  0.174685705949E+00  0.158084901210E+00
 uccopancies in atom
  0.200000000059E+01  0.000000000000E+00  0.000000000000E+00  0.000000000000E+00  0.000000000000E+00
  0.000000000000E+00  0.100000000215E+01  0.000000000000E+00  0.000000000000E+00  0.000000000000E+00
  0.000000000000E+00  0.000000000000E+00  0.200000000005E+01  0.000000000000E+00  0.000000000000E+00
  0.000000000000E+00  0.000000000000E+00  0.000000000000E+00  0.000000000000E+00  0.000000000000E+00
  0.000000000000E+00  0.000000000000E+00  0.000000000000E+00  0.000000000000E+00  0.000000000000E+00
 grid
  0.394465137901E-04  0.407292160115E-04  0.420536285092E-04  0.434211075974E-04  0.448330536940E-04
  0.462909127554E-04  0.477961777565E-04  0.493503902202E-04  0.509551417960E-04  0.526120758897E-04
  0.543228893466E-04  0.560893341891E-04  0.579132194111E-04  0.597964128306E-04  0.617408430020E-04
  0.637485011919E-04  0.658214434176E-04  0.679617925531E-04  0.701717405030E-04  0.724535504471E-04
  0.748095591581E-04  0.772421793949E-04  0.797539023732E-04  0.823473003167E-04  0.850250290916E-04
  0.877898309261E-04  0.906445372190E-04  0.935920714389E-04  0.966354521184E-04  0.997777959454E-04
  0.103022320954E-03  0.106372349823E-03  0.109831313272E-03  0.113402753584E-03  0.117090328225E-03
  0.120897813595E-03  0.124829108890E-03  0.128888240100E-03  0.133079364131E-03  0.137406773061E-03
  0.141874898533E-03  0.146488316298E-03  0.151251750901E-03  0.156170080513E-03  0.161248341935E-03
  0.166491735749E-03  0.171905631649E-03  0.177495573938E-03  0.183267287206E-03  0.189226682190E-03
  0.195379861832E-03  0.201733127525E-03  0.208292985570E-03  0.215066153833E-03  0.222059568631E-03
  0.229280391832E-03  0.236736018190E-03  0.244434082917E-03  0.252382469505E-03  0.260589317796E-03
  0.269063032320E-03  0.277812290901E-03  0.286846053544E-03  0.296173571612E-03  0.305804397298E-03
  0.315748393410E-03  0.326015743468E-03  0.336616962136E-03  0.347562905988E-03  0.358864784627E-03
  0.370534172165E-03  0.382583019074E-03  0.395023664426E-03  0.407868848530E-03  0.421131725976E-03
  0.434825879109E-03  0.448965331940E-03  0.463564564503E-03  0.478638527689E-03  0.494202658552E-03
  0.510272896123E-03  0.526865697730E-03  0.543998055851E-03  0.561687515518E-03  0.579952192284E-03
  0.598810790773E-03  0.618282623839E-03  0.638387632340E-03  0.659146405561E-03  0.680580202301E-03
  0.702710972640E-03  0.725561380420E-03  0.749154826457E-03  0.773515472501E-03  0.798668265982E-03
  0.824638965558E-03  0.851454167495E-03  0.879141332904E-03  0.907728815860E-03  0.937245892446E-03
  0.967722790726E-03  0.999190721707E-03  0.103168191130E-02  0.106522963332E-02  0.109986824358E-02
  0.113563321502E-02  0.117256117412E-02  0.121068993832E-02  0.125005855481E-02  0.129070734050E-02
  0.133267792329E-02  0.137601328473E-02  0.142075780402E-02  0.146695730344E-02  0.151465909534E-02
  0.156391203051E-02  0.161476654826E-02  0.166727472806E-02  0.172149034287E-02  0.177746891423E-02
  0.183526776908E-02  0.189494609850E-02  0.195656501831E-02  0.202018763167E-02  0.208587909370E-02
  0.215370667819E-02  0.222373984653E-02  0.229605031879E-02  0.237071214721E-02  0.244780179203E-02
  0.252739819979E-02  0.260958288416E-02  0.269444000944E-02  0.278205647674E-02  0.287252201298E-02
  0.296592926278E-02  0.306237388331E-02  0.316195464231E-02  0.326477351917E-02  0.337093580940E-02
  0.348055023246E-02  0.359372904311E-02  0.371058814634E-02  0.383124721607E-02  0.395582981774E-02
  0.408446353483E-02  0.421728009949E-02  0.435441552750E-02  0.449601025751E-02  0.464220929491E-02
  0.479316236029E-02  0.494902404277E-02  0.510995395833E-02  0.527611691328E-02  0.544768307300E-02
  0.562482813623E-02  0.580773351499E-02  0.599658652037E-02  0.619158055436E-02  0.639291530789E-02
  0.660079696533E-02  0.681543841566E-02  0.703705947050E-02  0.726588708917E-02  0.750215561113E-02
  0.774610699602E-02  0.799799107136E-02  0.825806578845E-02  0.852659748653E-02  0.880386116554E-02
  0.909014076769E-02  0.938572946833E-02  0.969092997611E-02  0.100060548430E-01  0.103314267845E-01
  0.106673790097E-01  0.110142555633E-01  0.113724116770E-01  0.117422141340E-01  0.121240416444E-01
  0.125182852329E-01  0.129253486394E-01  0.133456487323E-01  0.137796159358E-01  0.142276946701E-01
  0.146903438070E-01  0.151680371397E-01  0.156612638678E-01  0.161705290987E-01  0.166963543645E-01
  0.172392781561E-01  0.177998564750E-01  0.183786634024E-01  0.189762916871E-01  0.195933533527E-01
  0.202304803243E-01  0.208883250755E-01  0.215675612970E-01  0.222688845859E-01  0.229930131585E-01
  0.237406885859E-01  0.245126765529E-01  0.253097676428E-01  0.261327781464E-01  0.269825508984E-01
  0.278599561404E-01  0.287658924120E-01  0.297012874711E-01  0.306670992440E-01  0.316643168064E-01
  0.326939613961E-01  0.337570874592E-01  0.348547837298E-01  0.359881743446E-01  0.371584199948E-01
  0.383667191141E-01  0.396143091064E-01  0.409024676130E-01  0.422325138206E-01  0.436058098128E-01
  0.450237619647E-01  0.464878223832E-01  0.479994903942E-01  0.495603140778E-01  0.511718918537E-01
  0.528358741185E-01  0.545539649355E-01  0.563279237797E-01  0.581595673400E-01  0.600507713795E-01
  0.620034726564E-01  0.640196709075E-01  0.661014308959E-01  0.682508845257E-01  0.704702330253E-01
  0.727617492016E-01  0.751277797673E-01  0.775707477444E-01  0.800931549457E-01  0.826975845366E-01
  0.853867036804E-01  0.881632662704E-01  0.910301157490E-01  0.939901880208E-01  0.970465144584E-01
  0.100202225007E+00  0.103460551390E+00  0.106824830419E+00  0.110298507409E+00  0.113885139709E+00
  0.117588400343E+00  0.121412081775E+00  0.125360099789E+00  0.129436497499E+00  0.133645449493E+00
  0.137991266106E+00  0.142478397833E+00  0.147111439891E+00  0.151895136918E+00  0.156834387838E+00
  0.161934250877E+00  0.167199948739E+00  0.172636873959E+00  0.178250594424E+00  0.184046859074E+00
  0.190031603790E+00  0.196210957474E+00  0.202591248325E+00  0.209179010317E+00  0.215980989895E+00
  0.223004152879E+00  0.230255691604E+00  0.237743032277E+00  0.245473842590E+00  0.253456039569E+00
  0.261697797680E+00  0.270207557205E+00  0.278994032880E+00  0.288066222824E+00  0.297433417753E+00
  0.307105210492E+00  0.317091505804E+00  0.327402530526E+00  0.338048844049E+00  0.349041349129E+00
  0.360391303051E+00  0.372110329160E+00  0.384210428763E+00  0.396703993418E+00  0.409603817629E+00
  0.422923111941E+00  0.436675516478E+00  0.450875114901E+00  0.465536448842E+00  0.480674532787E+00
  0.496304869457E+00  0.512443465682E+00  0.529106848796E+00  0.546312083559E+00  0.564076789634E+00
  0.582419159634E+00  0.601357977747E+00  0.620912638979E+00  0.641103169011E+00  0.661950244710E+00
  0.683475215304E+00  0.705700124244E+00  0.728647731778E+00  0.752341538261E+00  0.776805808223E+00
  0.802065595213E+00  0.828146767460E+00  0.855076034365E+00  0.882880973849E+00  0.911590060599E+00
  0.941232695231E+00  0.971839234392E+00  0.100344102185E+01  0.103607042060E+01  0.106976084600E+01
  0.110454679999E+01  0.114046390641E+01  0.117754894754E+01  0.121583990169E+01  0.125537598214E+01
  0.129619767730E+01  0.133834679215E+01  0.138186649107E+01  0.142680134202E+01  0.147319736223E+01
  0.152110206527E+01  0.157056450975E+01  0.162163534952E+01  0.167436688561E+01  0.172881311969E+01
  0.178502980948E+01  0.184307452578E+01  0.190300671145E+01  0.196488774229E+01  0.202878098987E+01
  0.209475188647E+01  0.216286799205E+01  0.223319906346E+01  0.230581712585E+01  0.238079654648E+01
  0.245821411081E+01  0.253814910119E+01  0.262068337806E+01  0.270590146371E+01  0.279389062891E+01
  0.288474098226E+01  0.297854556245E+01  0.307540043358E+01  0.317540478349E+01  0.327866102539E+01
  0.338527490267E+01  0.349535559728E+01  0.360901584146E+01  0.372637203323E+01  0.384754435559E+01
  0.397265689958E+01  0.410183779139E+01  0.423521932353E+01  0.437293809035E+01  0.451513512791E+01
  0.466195605838E+01  0.481355123924E+01  0.497007591720E+01  0.513169038720E+01  0.529856015659E+01
  0.547085611460E+01  0.564875470733E+01  0.583243811849E+01
 aepotential
  0.193682430431E+05  0.193735702274E+05  0.193438105523E+05  0.192791281461E+05  0.191799515520E+05
  0.190469909007E+05  0.188812054024E+05  0.186838038284E+05  0.184561637235E+05  0.181999151220E+05
  0.179168364913E+05  0.176088465455E+05  0.172780169301E+05  0.169264936747E+05  0.165565109098E+05
  0.161703185636E+05  0.157702152132E+05  0.153584565368E+05  0.149373020117E+05  0.145088917394E+05
  0.140753715260E+05  0.136387427056E+05  0.132008821089E+05  0.127636050536E+05  0.123285393902E+05
  0.118972226259E+05  0.114710106463E+05  0.110511559434E+05  0.106387401435E+05  0.102347252048E+05
  0.983992491852E+04  0.945502974846E+04  0.908060530420E+04  0.871710030779E+04  0.836485613711E+04
  0.802411446400E+04  0.769502629138E+04  0.737766067167E+04  0.707201350851E+04  0.677801606405E+04
  0.649554316501E+04  0.622442098990E+04  0.596443441715E+04  0.571533378154E+04  0.547684120870E+04
  0.524865632819E+04  0.503046123739E+04  0.482192550206E+04  0.462270974699E+04  0.443246984893E+04
  0.425085928951E+04  0.407753265723E+04  0.391214720859E+04  0.375436538198E+04  0.360385514600E+04
  0.346029512889E+04  0.332336763180E+04  0.319276912037E+04  0.306820485094E+04  0.294938914819E+04
  0.283604932522E+04  0.272792144490E+04  0.262475449870E+04  0.252630730832E+04  0.243234883912E+04
  0.234266077431E+04  0.225703152086E+04  0.217526283378E+04  0.209716505043E+04  0.202255659539E+04
  0.195126615666E+04  0.188313116795E+04  0.181799601273E+04  0.175571421807E+04  0.169614627017E+04
  0.163915991784E+04  0.158462988512E+04  0.153243663677E+04  0.148246786844E+04  0.143461654584E+04
  0.138878092577E+04  0.134486506941E+04  0.130277768344E+04  0.126243217887E+04  0.122374657279E+04
  0.118664295492E+04  0.115104745239E+04  0.111688999811E+04  0.108410405880E+04  0.105262644230E+04
  0.102239717658E+04  0.993359391242E+03  0.965458736105E+03  0.938643984527E+03  0.912866262716E+03
  0.888079063263E+03  0.864238141248E+03  0.841301545009E+03  0.819229168852E+03  0.797983097442E+03
  0.777526954757E+03  0.757826249705E+03  0.738848104072E+03  0.720561174908E+03  0.702935537585E+03
  0.685942783144E+03  0.669555674226E+03  0.653748262545E+03  0.638495819454E+03  0.623774698221E+03
  0.609562320736E+03  0.595837071670E+03  0.582578353289E+03  0.569766441306E+03  0.557382469273E+03
  0.545408345281E+03  0.533826819919E+03  0.522621326571E+03  0.511776005639E+03  0.501275648513E+03
  0.491105697861E+03  0.481252152759E+03  0.471701618549E+03  0.462441207368E+03  0.453458558555E+03
  0.444741785362E+03  0.436279473500E+03  0.428060637324E+03  0.420074712146E+03  0.412311530297E+03
  0.404761318357E+03  0.397414603627E+03  0.390262346662E+03  0.383295749776E+03  0.376506364584E+03
  0.369886056617E+03  0.363426903299E+03  0.357121335066E+03  0.350961974947E+03  0.344941717580E+03
  0.339053674690E+03  0.333291198417E+03  0.327647827214E+03  0.322117319583E+03  0.316693619528E+03
  0.311370851758E+03  0.306143319794E+03  0.301005494728E+03  0.295952004640E+03  0.290977633308E+03
  0.286077309526E+03  0.281246107904E+03  0.276479230183E+03  0.271772015036E+03  0.267119921034E+03
  0.262518529067E+03  0.257963536132E+03  0.253450748574E+03  0.248976084563E+03  0.244535563582E+03
  0.240125308961E+03  0.235741541982E+03  0.231380581611E+03  0.227038839288E+03  0.222712821178E+03
  0.218399122629E+03  0.214094429457E+03  0.209795516318E+03  0.205499245419E+03  0.201202566639E+03
  0.196902517420E+03  0.192596222704E+03  0.188280895632E+03  0.183953837953E+03  0.179612442157E+03
  0.175254190167E+03  0.170876659227E+03  0.166477521089E+03  0.162054543517E+03  0.157605597044E+03
  0.153128652582E+03  0.148621791204E+03  0.144083202933E+03  0.139511193016E+03  0.134904188082E+03
  0.130260738909E+03  0.125579528859E+03  0.120859378726E+03  0.116099254584E+03  0.111298275755E+03
  0.106455723806E+03  0.101571050975E+03  0.966438925929E+02  0.916740777235E+02  0.866616418949E+02
  0.816068427333E+02  0.765101746848E+02  0.713723870115E+02  0.661945031817E+02  0.609778428086E+02
  0.557240437587E+02  0.504350894439E+02  0.451133354521E+02  0.397615399556E+02  0.343828954099E+02
  0.289810612805E+02  0.235601976892E+02  0.181249981232E+02  0.126807196999E+02  0.723320838696E+01
  0.178891640067E+01 -0.364509275281E+01 -0.906115682887E+01 -0.144510509766E+02 -0.198060542947E+02
 -0.251170555621E+02 -0.303747042759E+02 -0.355696141374E+02 -0.406926207473E+02 -0.457350903532E+02
 -0.506892638549E+02 -0.555486062455E+02 -0.603081059014E+02 -0.649644410340E+02 -0.695158932926E+02
 -0.739618589860E+02 -0.783017930505E+02 -0.825334496336E+02 -0.866503981192E+02 -0.906389847115E+02
 -0.944752897910E+02 -0.981229459223E+02 -0.101532984861E+03 -0.104646769588E+03 -0.107402462505E+03
 -0.109744418460E+03 -0.111633759556E+03 -0.113057694423E+03 -0.114035178216E+03 -0.114617153344E+03
 -0.114880661231E+03 -0.114917628325E+03 -0.114820952083E+03 -0.114671945371E+03 -0.114532747521E+03
 -0.114445016340E+03 -0.114433415750E+03 -0.114511045840E+03 -0.114684376556E+03 -0.114956540714E+03
 -0.115329001683E+03 -0.115802148755E+03 -0.116375403445E+03 -0.117047233205E+03 -0.117815247850E+03
 -0.118676380191E+03 -0.119627123112E+03 -0.120663753693E+03 -0.121782514256E+03 -0.122979723630E+03
 -0.124251824306E+03 -0.125595359998E+03 -0.127006906235E+03 -0.128482939252E+03 -0.130019666926E+03
 -0.131612807165E+03 -0.133257320722E+03 -0.134947095168E+03 -0.136674590645E+03 -0.138430463914E+03
 -0.140203217701E+03 -0.141978946806E+03 -0.143741304044E+03 -0.145471845422E+03 -0.147150957195E+03
 -0.148759565689E+03 -0.150281783963E+03 -0.151708506815E+03 -0.153041665678E+03 -0.154298156429E+03
 -0.155510940964E+03 -0.156721976717E+03 -0.157958614640E+03 -0.159188255374E+03 -0.160267013333E+03
 -0.160935435249E+03 -0.160922110804E+03 -0.160134226107E+03 -0.158775779922E+03 -0.157223405156E+03
 -0.155757568645E+03 -0.154445092360E+03 -0.153224126279E+03 -0.152014521716E+03 -0.150763086336E+03
 -0.149445130741E+03 -0.148054221860E+03 -0.146592655848E+03 -0.145065087653E+03 -0.143475185864E+03
 -0.141824580488E+03 -0.140113183528E+03 -0.138340058914E+03 -0.136504302569E+03 -0.134605692154E+03
 -0.132645055764E+03 -0.130624408807E+03 -0.128546926462E+03 -0.126416816636E+03 -0.124239135769E+03
 -0.122019572422E+03 -0.119764223213E+03 -0.117479356477E+03 -0.115171181474E+03 -0.112845622313E+03
 -0.110508106036E+03 -0.108163384035E+03 -0.105815406248E+03 -0.103467277260E+03 -0.101121318224E+03
 -0.987792503621E+02 -0.964424892638E+02 -0.941125117716E+02 -0.917912298463E+02 -0.894812944941E+02
 -0.871862671079E+02 -0.849106358330E+02 -0.826597116315E+02 -0.804394898521E+02 -0.782565713323E+02
 -0.761181491731E+02 -0.740318264953E+02 -0.720046461283E+02 -0.700404450211E+02 -0.681352253138E+02
 -0.662725942481E+02 -0.644248806000E+02 -0.625653809704E+02 -0.606866809281E+02 -0.588070625305E+02
 -0.569564290000E+02 -0.551579211351E+02 -0.534217763003E+02 -0.517493450458E+02 -0.501386094709E+02
 -0.485873847789E+02 -0.470943474777E+02 -0.456588670233E+02 -0.442803907773E+02 -0.429575705940E+02
 -0.416878149673E+02 -0.404671079437E+02 -0.392904416327E+02 -0.381525445081E+02 -0.370484861000E+02
 -0.359742095562E+02 -0.349266673779E+02 -0.339038181721E+02 -0.329044821655E+02 -0.319281648974E+02
 -0.309748833051E+02 -0.300450110028E+02 -0.291391433500E+02 -0.282579768769E+02 -0.274021977289E+02
 -0.265723775915E+02 -0.257688809445E+02 -0.249917921538E+02 -0.242408725067E+02 -0.235155544935E+02
 -0.228149740812E+02 -0.221380339496E+02 -0.214834848583E+02
 core charge-density
  0.190856555150E-03  0.203325585532E-03  0.216608587032E-03  0.230758628528E-03  0.245832232290E-03
  0.261889598060E-03  0.278994841616E-03  0.297216248729E-03  0.316626545523E-03  0.337303186271E-03
  0.359328659755E-03  0.382790815373E-03  0.407783210250E-03  0.434405478707E-03  0.462763725501E-03
  0.492970944366E-03  0.525147463449E-03  0.559421419377E-03  0.595929261741E-03  0.634816289988E-03
  0.676237224679E-03  0.720356815415E-03  0.767350487665E-03  0.817405030961E-03  0.870719331146E-03
  0.927505149341E-03  0.987987950720E-03  0.105240778605E-02  0.112102022953E-02  0.119409737622E-02
  0.127192890301E-02  0.135482319703E-02  0.144310855559E-02  0.153713446239E-02  0.163727294444E-02
  0.174392001499E-02  0.185749720759E-02  0.197845320708E-02  0.210726558339E-02  0.224444263461E-02
  0.239052534598E-02  0.254608947195E-02  0.271174774884E-02  0.288815224618E-02  0.307599686504E-02
  0.327601999250E-02  0.348900732150E-02  0.371579484635E-02  0.395727204434E-02  0.421438525465E-02
  0.448814126657E-02  0.477961112938E-02  0.508993419717E-02  0.542032242266E-02  0.577206491465E-02
  0.614653277469E-02  0.654518422944E-02  0.696957007602E-02  0.742133945850E-02  0.790224599492E-02
  0.841415427495E-02  0.895904674951E-02  0.953903103506E-02  0.101563476555E-01  0.108133782474E-01
  0.115126542535E-01  0.122568661327E-01  0.130488731154E-01  0.138917135326E-01  0.147886157526E-01
  0.157430097562E-01  0.167585393868E-01  0.178390753098E-01  0.189887287195E-01  0.202118658342E-01
  0.215131232174E-01  0.228974239716E-01  0.243699948456E-01  0.259363843039E-01  0.276024816043E-01
  0.293745369347E-01  0.312591826591E-01  0.332634557267E-01  0.353948212984E-01  0.376611976467E-01
  0.400709823868E-01  0.426330800988E-01  0.453569313999E-01  0.482525435303E-01  0.513305225133E-01
  0.546021069554E-01  0.580792035486E-01  0.617744243401E-01  0.657011258344E-01  0.698734499908E-01
  0.743063671807E-01  0.790157211666E-01  0.840182761630E-01  0.893317660373E-01  0.949749457080E-01
  0.100967644788E+00  0.107330823522E+00  0.114086631067E+00  0.121258466128E+00  0.128871040014E+00
  0.136950442092E+00  0.145524207682E+00  0.154621388365E+00  0.164272624705E+00  0.174510221346E+00
  0.185368224431E+00  0.196882501287E+00  0.209090822274E+00  0.222032944692E+00  0.235750698608E+00
  0.250288074419E+00  0.265691311963E+00  0.282008990930E+00  0.299292122290E+00  0.317594240426E+00
  0.336971495579E+00  0.357482746200E+00  0.379189650710E+00  0.402156758135E+00  0.426451596987E+00
  0.452144761719E+00  0.479309995979E+00  0.508024271812E+00  0.538367863871E+00  0.570424417593E+00
  0.604281010196E+00  0.640028203242E+00  0.677760085404E+00  0.717574303909E+00  0.759572083077E+00
  0.803858228153E+00  0.850541112537E+00  0.899732646390E+00  0.951548224348E+00  0.100610665005E+01
  0.106353003491E+01  0.112394366848E+01  0.118747585753E+01  0.125425773086E+01  0.132442300674E+01
  0.139810771949E+01  0.147544990195E+01  0.155658922018E+01  0.164166655653E+01  0.173082353761E+01
  0.182420200289E+01  0.192194341037E+01  0.202418817508E+01  0.213107493675E+01  0.224273975257E+01
  0.235931521160E+01  0.248092946702E+01  0.260770518322E+01  0.273975839459E+01  0.287719727361E+01
  0.302012080627E+01  0.316861737340E+01  0.332276323728E+01  0.348262093396E+01  0.364823757235E+01
  0.381964304265E+01  0.399684813792E+01  0.417984259396E+01  0.436859305446E+01  0.456304097021E+01
  0.476310044323E+01  0.496865602876E+01  0.517956051062E+01  0.539563266802E+01  0.561665505458E+01
  0.584237181339E+01  0.607248655486E+01  0.630666032745E+01  0.654450971457E+01  0.678560509429E+01
  0.702946910174E+01  0.727557533758E+01  0.752334736860E+01  0.777215807000E+01  0.802132936113E+01
  0.827013238858E+01  0.851778821293E+01  0.876346905558E+01  0.900630016337E+01  0.924536234735E+01
  0.947969525113E+01  0.970830140092E+01  0.993015108564E+01  0.101441881097E+02  0.103493364534E+02
  0.105445078682E+02  0.107286104217E+02  0.109005579941E+02  0.110592807161E+02  0.112037363167E+02
  0.113329223339E+02  0.114458891185E+02  0.115417535395E+02  0.116197132737E+02  0.116790615386E+02
  0.117192020982E+02  0.117396643464E+02  0.117401182442E+02  0.117203888603E+02  0.116804702414E+02
  0.116205383121E+02  0.115409624896E+02  0.114423156785E+02  0.113253823029E+02  0.111911640302E+02
  0.110408828420E+02  0.108759811204E+02  0.106981184405E+02  0.105091647881E+02  0.103111899646E+02
  0.101064489957E+02  0.989736341845E+01  0.968649840061E+01  0.947653572543E+01  0.927024276752E+01
  0.907043768193E+01  0.887995112855E+01  0.870158495409E+01  0.853806834401E+01  0.839201207967E+01
  0.826586154276E+01  0.816184926295E+01  0.808194782951E+01  0.802782404991E+01  0.800079531119E+01
  0.800178916370E+01  0.803130720674E+01  0.808939439996E+01  0.817561493432E+01  0.828903575915E+01
  0.842821875974E+01  0.859122238970E+01  0.877561329524E+01  0.897848812618E+01  0.919650541847E+01
  0.942592717170E+01  0.966266959096E+01  0.990236234414E+01  0.101404155546E+02  0.103720935725E+02
  0.105925943417E+02  0.107971329521E+02  0.109810277588E+02  0.111397872854E+02  0.112691960181E+02
  0.113653971619E+02  0.114249704224E+02  0.114450029442E+02  0.114231516372E+02  0.113576952745E+02
  0.112475749315E+02  0.110924215717E+02  0.108925698376E+02  0.106490574187E+02  0.103636096639E+02
  0.100386094700E+02  0.967705281640E+01  0.928249068730E+01  0.885895847663E+01  0.841089434280E+01
  0.794304831471E+01  0.746038429558E+01  0.696797741118E+01  0.647090944146E+01  0.597416529906E+01
  0.548253369286E+01  0.500051516273E+01  0.453224060853E+01  0.408140306476E+01  0.365120492155E+01
  0.324432186923E+01  0.286288347848E+01  0.250846836788E+01  0.218210965340E+01  0.188430571540E+01
  0.161503373125E+01  0.137377164120E+01  0.115954242754E+01  0.970991831505E+00  0.806491939357E+00
  0.664243428944E+00  0.542352892740E+00  0.438884899979E+00  0.351901958376E+00  0.279501144947E+00
  0.219848398018E+00  0.171208440472E+00  0.131968555959E+00  0.100655451369E+00  0.759452701314E-01
  0.566673455979E-01  0.418025673873E-01  0.304773574491E-01  0.219542790830E-01  0.156202692221E-01
  0.109734108588E-01  0.760905848098E-02  0.520600271070E-02  0.351322005688E-02  0.233760981090E-02
  0.153298227005E-02  0.990438710427E-03  0.630179437644E-03  0.394694766767E-03  0.243235378336E-03
  0.147421636176E-03  0.878331992366E-04  0.514169052482E-04  0.295585041662E-04  0.166786312533E-04
  0.923218162795E-05  0.501038221851E-05  0.266445355104E-05  0.138757152879E-05  0.707199377723E-06
  0.352522018954E-06  0.171749496644E-06  0.817266747931E-07  0.379552554101E-07  0.171903866667E-07
  0.758674189167E-08  0.325998099523E-08  0.136264709254E-08  0.553560893999E-09  0.218352273252E-09
  0.835516509840E-10  0.309852356978E-10  0.111264011115E-10  0.386492444613E-11  0.129739970966E-11
  0.420415993866E-12  0.131356505821E-12  0.395238997466E-13  0.114380627181E-13  0.317950810670E-14
  0.847800878342E-15  0.216544005202E-15  0.529039204657E-16  0.123443559187E-16  0.274673019337E-17
  0.581886126364E-18  0.117171569265E-18  0.223891538081E-19  0.405260790243E-20  0.693655814069E-21
  0.112066724448E-21  0.170577289611E-22  0.244142021328E-23  0.327929117398E-24  0.412520463545E-25
  0.484977928468E-26  0.531693828753E-27  0.542355995868E-28  0.513543051886E-29  0.450287992487E-30
  0.364703932440E-31  0.272148258817E-32  0.186606318563E-33  0.117247865449E-34  0.673138514203E-36
  0.352085636510E-37  0.167270691776E-38  0.719550918115E-40
 kinetic energy-density
  0.577301025750E+02  0.581848632919E+02  0.586571192820E+02  0.591474687821E+02  0.596565301306E+02
  0.601849776072E+02  0.607335191186E+02  0.613028771420E+02  0.618938441305E+02  0.625072318300E+02
  0.631439075484E+02  0.638047769898E+02  0.644908077723E+02  0.652030088693E+02  0.659424456174E+02
  0.667102441065E+02  0.675075897534E+02  0.683357358608E+02  0.691959733538E+02  0.700897238664E+02
  0.710184278791E+02  0.719836113243E+02  0.729868974573E+02  0.740299858614E+02  0.751146649467E+02
  0.762428016335E+02  0.774163864902E+02  0.786374864119E+02  0.799082976889E+02  0.812311081116E+02
  0.826083369760E+02  0.840425243863E+02  0.855363419144E+02  0.870925972717E+02  0.887142456495E+02
  0.904043945881E+02  0.921663139399E+02  0.940034438234E+02  0.959194050842E+02  0.979180088481E+02
  0.100003267575E+03  0.102179406259E+03  0.104450874837E+03  0.106822360988E+03  0.109298803133E+03
  0.111885406876E+03  0.114587657490E+03  0.117411339241E+03  0.120362549236E+03  0.123447719858E+03
  0.126673634382E+03  0.130047449355E+03  0.133576716945E+03  0.137269406418E+03  0.141133926477E+03
  0.145179157037E+03  0.149414481825E+03  0.153849786905E+03  0.158495528698E+03  0.163362756596E+03
  0.168463122916E+03  0.173808954536E+03  0.179413268791E+03  0.185289816324E+03  0.191453130941E+03
  0.197918583365E+03  0.204702398132E+03  0.211821733166E+03  0.219294729607E+03  0.227140562039E+03
  0.235379494101E+03  0.244032957103E+03  0.253123606108E+03  0.262675387778E+03  0.272713628380E+03
  0.283265097539E+03  0.294358113968E+03  0.306022601371E+03  0.318290209252E+03  0.331194399227E+03
  0.344770552337E+03  0.359056067614E+03  0.374090495518E+03  0.389915638602E+03  0.406575696116E+03
  0.424117386027E+03  0.442590090025E+03  0.462046004611E+03  0.482540291889E+03  0.504131249739E+03
  0.526880474062E+03  0.550853050230E+03  0.576117746116E+03  0.602747167677E+03  0.630818046095E+03
  0.660411379298E+03  0.691612710865E+03  0.724512336593E+03  0.759205562286E+03  0.795792986243E+03
  0.834380736548E+03  0.875080772104E+03  0.918011177888E+03  0.963296463837E+03  0.101106788755E+04
  0.106146378140E+04  0.111462990117E+04  0.117071977964E+04  0.122989507627E+04  0.129232597951E+04
  0.135819159119E+04  0.142768030789E+04  0.150099025594E+04  0.157832969983E+04  0.165991748944E+04
  0.174598347554E+04  0.183676897395E+04  0.193252722151E+04  0.203352382632E+04  0.214003723039E+04
  0.225235918330E+04  0.237079518897E+04  0.249566497858E+04  0.262730295856E+04  0.276605866011E+04
  0.291229715759E+04  0.306639950659E+04  0.322876311773E+04  0.339980213897E+04  0.357994778501E+04
  0.376964865694E+04  0.396937099542E+04  0.417959883717E+04  0.440083430321E+04  0.463359751342E+04
  0.487842674539E+04  0.513587827837E+04  0.540652624478E+04  0.569096240169E+04  0.598979567007E+04
  0.630365169245E+04  0.663317208844E+04  0.697901373421E+04  0.734184766344E+04  0.772235796764E+04
  0.812124035207E+04  0.853920056938E+04  0.897695251042E+04  0.943521614028E+04  0.991471507523E+04
  0.104161738772E+05  0.109403150662E+05  0.114878557515E+05  0.120595038978E+05  0.126559542666E+05
  0.132778838732E+05  0.139259471243E+05  0.146007704221E+05  0.153029463994E+05  0.160330276439E+05
  0.167915199568E+05  0.175788751378E+05  0.183954832767E+05  0.192416645467E+05  0.201176605377E+05
  0.210236250771E+05  0.219596146422E+05  0.229255782879E+05  0.239213472088E+05  0.249466239163E+05
  0.260009711011E+05  0.270838002619E+05  0.281943601186E+05  0.293317249569E+05  0.304947829244E+05
  0.316822245562E+05  0.328925312212E+05  0.341239644603E+05  0.353745552399E+05  0.366420943994E+05
  0.379241236413E+05  0.392179277735E+05  0.405205281622E+05  0.418286777210E+05  0.431388576049E+05
  0.444472759199E+05  0.457498686847E+05  0.470423032778E+05  0.483199846052E+05  0.495780643023E+05
  0.508114532305E+05  0.520148373522E+05  0.531826973806E+05  0.543093323135E+05  0.553888869369E+05
  0.564153835597E+05  0.573827579369E+05  0.582848994306E+05  0.591156953488E+05  0.598690794206E+05
  0.605390840781E+05  0.611198963695E+05  0.616059171475E+05  0.619918229413E+05  0.622726301149E+05
  0.624437605338E+05  0.625011079873E+05  0.624411045421E+05  0.622607858597E+05  0.619578543345E+05
  0.615307390658E+05  0.609786513452E+05  0.603016345026E+05  0.595006067507E+05  0.585773958436E+05
  0.575347642384E+05  0.563764236112E+05  0.551070375747E+05  0.537322117382E+05  0.522584702348E+05
  0.506932182567E+05  0.490446902557E+05  0.473218839236E+05  0.455344803414E+05  0.436927510443E+05
  0.418074532743E+05  0.398897149028E+05  0.379509108078E+05  0.360025337093E+05  0.340560567879E+05
  0.321228007254E+05  0.302137929360E+05  0.283396305304E+05  0.265103444562E+05  0.247352674994E+05
  0.230229091851E+05  0.213808417882E+05  0.198156024317E+05  0.183326161356E+05  0.169361435770E+05
  0.156292554838E+05  0.144138335898E+05  0.132905961898E+05  0.122591450877E+05  0.113180301878E+05
  0.104648283216E+05  0.969623374394E+04  0.900815844042E+04  0.839584081425E+04  0.785396109602E+04
  0.737676158386E+04  0.695816944080E+04  0.659191937723E+04  0.627167384534E+04  0.599113786299E+04
  0.574416637407E+04  0.552486183329E+04  0.532766042300E+04  0.514740552360E+04  0.497940760905E+04
  0.481949005024E+04  0.466402096369E+04  0.450993124059E+04  0.435471957618E+04  0.419644543097E+04
  0.403371092298E+04  0.386563317337E+04  0.369180817794E+04  0.351226786670E+04  0.332743155828E+04
  0.313805316101E+04  0.294516532437E+04  0.275002161265E+04  0.255403763350E+04  0.235873201714E+04
  0.216566807606E+04  0.197639724821E+04  0.179240518253E+04  0.161506298728E+04  0.144558469557E+04
  0.128499486524E+04  0.113410866898E+04  0.993532129835E+03  0.863681286341E+03  0.744818019138E+03
  0.637079874155E+03  0.540473622083E+03  0.454823141849E+03  0.379711410290E+03  0.314483702277E+03
  0.258331599329E+03  0.210397144993E+03  0.169834526355E+03  0.135828658352E+03  0.107598579004E+03
  0.844014955061E+02  0.655395193012E+02  0.503669021892E+02  0.382958756543E+02  0.288002042461E+02
  0.214163014146E+02  0.157421626494E+02  0.114345397965E+02  0.820481208132E+01  0.581397893579E+01
  0.406714870727E+01  0.280784195936E+01  0.191237176962E+01  0.128450665593E+01  0.850565510707E+00
  0.555040487084E+00  0.356795765553E+00  0.225849688002E+00  0.140716237313E+00  0.862595225715E-01
  0.520012654904E-01  0.308150700871E-01  0.179409505656E-01  0.102575512046E-01  0.575616308188E-02
  0.316870040960E-02  0.171020376938E-02  0.904451420356E-03  0.468422051444E-03  0.237432071581E-03
  0.117711003824E-03  0.570407717347E-04  0.269989930958E-04  0.124736558466E-04  0.562082182581E-05
  0.246845825518E-05  0.105563533988E-05  0.439224275638E-06  0.177640978388E-06  0.697691884132E-07
  0.265836078084E-07  0.981661054936E-08  0.350986542563E-08  0.121394781506E-08  0.405772643812E-09
  0.130947410986E-09  0.407526090344E-10  0.122161029956E-10  0.352270180482E-11  0.975915001452E-12
  0.259388026743E-12  0.660510519212E-13  0.160905507613E-13  0.374430135789E-14  0.831005450365E-15
  0.175619250589E-15  0.352822486806E-16  0.672693591352E-17  0.121505985402E-17  0.207549409318E-18
  0.334652312053E-19  0.508392535567E-20  0.726272500576E-21  0.973717036351E-22  0.122267159550E-22
  0.143487312509E-23  0.157034943674E-24  0.159911162797E-25  0.151163853473E-26  0.132329249604E-27
  0.107008481745E-28  0.797284525091E-30  0.545859954012E-31  0.342470223470E-32  0.196335730879E-33
  0.102549114495E-34  0.486520306186E-36  0.208999724588E-37
 mkinetic energy-density pseudized
  0.902936131145E-09  0.962613345711E-09  0.102623477050E-08  0.109406108783E-08  0.116637020912E-08
  0.124345841363E-08  0.132564156244E-08  0.141325639261E-08  0.150666189701E-08  0.160624079515E-08
  0.171240110143E-08  0.182557779690E-08  0.194623461152E-08  0.207486592429E-08  0.221199878891E-08
  0.235819509330E-08  0.251405386193E-08  0.268021371018E-08  0.285735546110E-08  0.304620493494E-08
  0.324753592313E-08  0.346217335886E-08  0.369099669711E-08  0.393494351813E-08  0.419501336910E-08
  0.447227185967E-08  0.476785502816E-08  0.508297399639E-08  0.541891993210E-08  0.577706933938E-08
  0.615888969877E-08  0.656594548011E-08  0.699990455274E-08  0.746254501950E-08  0.795576250226E-08
  0.848157790904E-08  0.904214571450E-08  0.963976278764E-08  0.102768778030E-07  0.109561012738E-07
  0.116802162483E-07  0.124521897130E-07  0.132751847496E-07  0.141525734953E-07  0.150879509599E-07
  0.160851497558E-07  0.171482558019E-07  0.182816250650E-07  0.194899014081E-07  0.207780356180E-07
  0.221513056905E-07  0.236153384567E-07  0.251761326381E-07  0.268400834258E-07  0.286140086837E-07
  0.305051768845E-07  0.325213368912E-07  0.346707497069E-07  0.369622223237E-07  0.394051438080E-07
  0.420095237715E-07  0.447860333837E-07  0.477460490966E-07  0.509016992576E-07  0.542659138042E-07
  0.578524772430E-07  0.616760851295E-07  0.657524042818E-07  0.700981369729E-07  0.747310893664E-07
  0.796702444746E-07  0.849358399392E-07  0.905494509517E-07  0.965340786555E-07  0.102914244389E-06
  0.109716090159E-06  0.116967485752E-06  0.124698142931E-06  0.132939737167E-06  0.141726037432E-06
  0.151093044559E-06  0.161079138748E-06  0.171725236823E-06  0.183074959883E-06  0.195174812032E-06
  0.208074370917E-06  0.221826490870E-06  0.236487519459E-06  0.252117528371E-06  0.268780559534E-06
  0.286544887522E-06  0.305483299291E-06  0.325673392408E-06  0.347197892989E-06  0.370144994648E-06
  0.394608719847E-06  0.420689305129E-06  0.448493611810E-06  0.478135563810E-06  0.509736614421E-06
  0.543426243930E-06  0.579342490112E-06  0.617632513800E-06  0.658453201820E-06  0.701971809773E-06
  0.748366647304E-06  0.797827808647E-06  0.850557951454E-06  0.906773127092E-06  0.966703665808E-06
  0.103059512039E-05  0.109870927220E-05  0.117132520363E-05  0.124874044156E-05  0.133127217620E-05
  0.141925856062E-05  0.151306009607E-05  0.161306110888E-05  0.171967132495E-05  0.183332754823E-05
  0.195449545016E-05  0.208367147734E-05  0.222138488521E-05  0.236819990615E-05  0.252471806077E-05
  0.269158062198E-05  0.286947124178E-05  0.305911875163E-05  0.326130014786E-05  0.347684377421E-05
  0.370663271473E-05  0.395160841069E-05  0.421277451652E-05  0.449120101038E-05  0.478802857626E-05
  0.510447327552E-05  0.544183152697E-05  0.580148541581E-05  0.618490835327E-05  0.659367110984E-05
  0.702944824707E-05  0.749402497387E-05  0.798930445563E-05  0.851731560585E-05  0.908022139212E-05
  0.968032769033E-05  0.103200927235E-04  0.110021371231E-04  0.117292546552E-04  0.125044236532E-04
  0.133308192061E-04  0.142118261501E-04  0.151510529169E-04  0.161523462967E-04  0.172198071732E-04
  0.183578072969E-04  0.195710071643E-04  0.208643750752E-04  0.222432074461E-04  0.237131504623E-04
  0.252802231558E-04  0.269508420038E-04  0.287318471464E-04  0.306305303311E-04  0.326546646951E-04
  0.348125365085E-04  0.371129790046E-04  0.395654084350E-04  0.421798624946E-04  0.449670412716E-04
  0.479383508873E-04  0.511059500005E-04  0.544827993645E-04  0.580827146351E-04  0.619204226396E-04
  0.660116213342E-04  0.703730436877E-04  0.750225257463E-04  0.799790791499E-04  0.852629683894E-04
  0.908957931083E-04  0.969005757772E-04  0.103301855083E-03  0.110125785406E-03  0.117400242763E-03
  0.125154937650E-03  0.133421535206E-03  0.142233783168E-03  0.151627648126E-03  0.161641460583E-03
  0.172316069393E-03  0.183695006158E-03  0.195824660210E-03  0.208754464844E-03  0.222537095498E-03
  0.237228680619E-03  0.252889026010E-03  0.269581853462E-03  0.287375054571E-03  0.306340960645E-03
  0.326556629668E-03  0.348104151361E-03  0.371070971399E-03  0.395550235927E-03  0.421641157550E-03
  0.449449404054E-03  0.479087511148E-03  0.510675320611E-03  0.544340445235E-03  0.580218762073E-03
  0.618454935520E-03  0.659202971824E-03  0.702626806679E-03  0.748900927617E-03  0.798211032929E-03
  0.850754728927E-03  0.906742267374E-03  0.966397324933E-03  0.102995782651E-02  0.109767681437E-02
  0.116982336489E-02  0.124668355473E-02  0.132856147832E-02  0.141578031821E-02  0.150868346996E-02
  0.160763572295E-02  0.171302449841E-02  0.182526114563E-02  0.194478229697E-02  0.207205128222E-02
  0.220755960195E-02  0.235182845937E-02  0.250541034933E-02  0.266889070253E-02  0.284288958194E-02
  0.302806342750E-02  0.322510684403E-02  0.343475442569E-02  0.365778260889E-02  0.389501154354E-02
  0.414730697057E-02  0.441558209078E-02  0.470079940791E-02  0.500397252471E-02  0.532616786809E-02
  0.566850631432E-02  0.603216468129E-02  0.641837704902E-02  0.682843586368E-02  0.726369277384E-02
  0.772555913973E-02  0.821550614813E-02  0.873506445581E-02  0.928582327413E-02  0.986942879559E-02
  0.104875818506E-01  0.111420346681E-01  0.118345865992E-01  0.125670786451E-01  0.133413866128E-01
  0.141594127041E-01  0.150230753190E-01  0.159342968376E-01  0.168949891158E-01  0.179070364115E-01
  0.189722754313E-01  0.200924721618E-01  0.212692951305E-01  0.225042847160E-01  0.237988181078E-01
  0.251540695040E-01  0.265709651220E-01  0.280501325970E-01  0.295918443525E-01  0.311959545456E-01
  0.328618292333E-01  0.345882694598E-01  0.363734270579E-01  0.382147130684E-01  0.401086988457E-01
  0.420510101158E-01  0.440362145147E-01  0.460577034570E-01  0.481075695835E-01  0.501764815163E-01
  0.522535582333E-01  0.543262460548E-01  0.563802020383E-01  0.583991885030E-01  0.603649844517E-01
  0.622573208399E-01  0.640538479281E-01  0.657301443446E-01  0.672597789339E-01  0.686144379227E-01
  0.697641313273E-01  0.706774937374E-01  0.713221955083E-01  0.716654807790E-01  0.716748483753E-01
  0.713188902482E-01  0.705682992859E-01  0.693970536837E-01  0.677837780727E-01  0.657132717481E-01
  0.631781810213E-01  0.601807753737E-01  0.567347652103E-01  0.528670722369E-01  0.486194317404E-01
  0.440496696906E-01  0.392324576154E-01  0.342593065476E-01  0.292375211551E-01  0.242878011670E-01
  0.195401560640E-01  0.151277996431E-01  0.111787249112E-01  0.780474071921E-02  0.508789563106E-02
  0.306443892197E-02  0.170678985510E-02  0.904451420356E-03  0.468422051444E-03  0.237432071581E-03
  0.117711003824E-03  0.570407717347E-04  0.269989930958E-04  0.124736558466E-04  0.562082182581E-05
  0.246845825518E-05  0.105563533988E-05  0.439224275638E-06  0.177640978388E-06  0.697691884132E-07
  0.265836078084E-07  0.981661054936E-08  0.350986542563E-08  0.121394781506E-08  0.405772643812E-09
  0.130947410986E-09  0.407526090344E-10  0.122161029956E-10  0.352270180482E-11  0.975915001452E-12
  0.259388026743E-12  0.660510519212E-13  0.160905507613E-13  0.374430135789E-14  0.831005450365E-15
  0.175619250589E-15  0.352822486806E-16  0.672693591352E-17  0.121505985402E-17  0.207549409318E-18
  0.334652312053E-19  0.508392535567E-20  0.726272500576E-21  0.973717036351E-22  0.122267159550E-22
  0.143487312509E-23  0.157034943674E-24  0.159911162797E-25  0.151163853473E-26  0.132329249604E-27
  0.107008481745E-28  0.797284525091E-30  0.545859954012E-31  0.342470223470E-32  0.196335730879E-33
  0.102549114495E-34  0.486520306186E-36  0.208999724588E-37
 local pseudopotential core
 -0.234562006654E+03 -0.234562623807E+03 -0.234563221523E+03 -0.234563800412E+03 -0.234564361068E+03
 -0.234564904064E+03 -0.234565429958E+03 -0.234565939288E+03 -0.234566432574E+03 -0.234566910322E+03
 -0.234567373022E+03 -0.234567821146E+03 -0.234568255154E+03 -0.234568675490E+03 -0.234569082585E+03
 -0.234569476855E+03 -0.234569858703E+03 -0.234570228521E+03 -0.234570586688E+03 -0.234570933570E+03
 -0.234571269522E+03 -0.234571594887E+03 -0.234571910000E+03 -0.234572215182E+03 -0.234572510746E+03
 -0.234572796993E+03 -0.234573074218E+03 -0.234573342704E+03 -0.234573602724E+03 -0.234573854546E+03
 -0.234574098427E+03 -0.234574334616E+03 -0.234574563355E+03 -0.234574784878E+03 -0.234574999411E+03
 -0.234575207173E+03 -0.234575408377E+03 -0.234575603227E+03 -0.234575791924E+03 -0.234575974660E+03
 -0.234576151621E+03 -0.234576322988E+03 -0.234576488936E+03 -0.234576649633E+03 -0.234576805244E+03
 -0.234576955927E+03 -0.234577101836E+03 -0.234577243119E+03 -0.234577379919E+03 -0.234577512376E+03
 -0.234577640624E+03 -0.234577764793E+03 -0.234577885009E+03 -0.234578001394E+03 -0.234578114065E+03
 -0.234578223137E+03 -0.234578328718E+03 -0.234578430916E+03 -0.234578529833E+03 -0.234578625568E+03
 -0.234578718217E+03 -0.234578807873E+03 -0.234578894624E+03 -0.234578978558E+03 -0.234579059756E+03
 -0.234579138300E+03 -0.234579214266E+03 -0.234579287729E+03 -0.234579358759E+03 -0.234579427427E+03
 -0.234579493798E+03 -0.234579557935E+03 -0.234579619899E+03 -0.234579679748E+03 -0.234579737540E+03
 -0.234579793326E+03 -0.234579847157E+03 -0.234579899083E+03 -0.234579949149E+03 -0.234579997399E+03
 -0.234580043875E+03 -0.234580088615E+03 -0.234580131656E+03 -0.234580173033E+03 -0.234580212777E+03
 -0.234580250918E+03 -0.234580287484E+03 -0.234580322499E+03 -0.234580355986E+03 -0.234580387964E+03
 -0.234580418452E+03 -0.234580447463E+03 -0.234580475012E+03 -0.234580501107E+03 -0.234580525755E+03
 -0.234580548961E+03 -0.234580570726E+03 -0.234580591049E+03 -0.234580609924E+03 -0.234580627345E+03
 -0.234580643300E+03 -0.234580657775E+03 -0.234580670751E+03 -0.234580682207E+03 -0.234580692117E+03
 -0.234580700453E+03 -0.234580707179E+03 -0.234580712258E+03 -0.234580715646E+03 -0.234580717296E+03
 -0.234580717154E+03 -0.234580715163E+03 -0.234580711257E+03 -0.234580705366E+03 -0.234580697414E+03
 -0.234580687317E+03 -0.234580674984E+03 -0.234580660317E+03 -0.234580643209E+03 -0.234580623546E+03
 -0.234580601203E+03 -0.234580576046E+03 -0.234580547933E+03 -0.234580516707E+03 -0.234580482204E+03
 -0.234580444244E+03 -0.234580402637E+03 -0.234580357176E+03 -0.234580307642E+03 -0.234580253800E+03
 -0.234580195398E+03 -0.234580132165E+03 -0.234580063812E+03 -0.234579990032E+03 -0.234579910494E+03
 -0.234579824845E+03 -0.234579732708E+03 -0.234579633680E+03 -0.234579527332E+03 -0.234579413204E+03
 -0.234579290806E+03 -0.234579159613E+03 -0.234579019066E+03 -0.234578868570E+03 -0.234578707487E+03
 -0.234578535137E+03 -0.234578350796E+03 -0.234578153691E+03 -0.234577942995E+03 -0.234577717828E+03
 -0.234577477251E+03 -0.234577220262E+03 -0.234576945794E+03 -0.234576652705E+03 -0.234576339781E+03
 -0.234576005726E+03 -0.234575649156E+03 -0.234575268598E+03 -0.234574862481E+03 -0.234574429126E+03
 -0.234573966748E+03 -0.234573473439E+03 -0.234572947168E+03 -0.234572385768E+03 -0.234571786927E+03
 -0.234571148183E+03 -0.234570466908E+03 -0.234569740302E+03 -0.234568965379E+03 -0.234568138956E+03
 -0.234567257637E+03 -0.234566317805E+03 -0.234565315600E+03 -0.234564246910E+03 -0.234563107349E+03
 -0.234561892242E+03 -0.234560596604E+03 -0.234559215121E+03 -0.234557742128E+03 -0.234556171585E+03
 -0.234554497053E+03 -0.234552711667E+03 -0.234550808109E+03 -0.234548778578E+03 -0.234546614755E+03
 -0.234544307775E+03 -0.234541848184E+03 -0.234539225907E+03 -0.234536430199E+03 -0.234533449610E+03
 -0.234530271930E+03 -0.234526884145E+03 -0.234523272382E+03 -0.234519421850E+03 -0.234515316783E+03
 -0.234510940373E+03 -0.234506274705E+03 -0.234501300679E+03 -0.234495997936E+03 -0.234490344772E+03
 -0.234484318055E+03 -0.234477893122E+03 -0.234471043687E+03 -0.234463741728E+03 -0.234455957377E+03
 -0.234447658797E+03 -0.234438812050E+03 -0.234429380965E+03 -0.234419326984E+03 -0.234408609011E+03
 -0.234397183244E+03 -0.234385002994E+03 -0.234372018501E+03 -0.234358176729E+03 -0.234343421152E+03
 -0.234327691528E+03 -0.234310923652E+03 -0.234293049099E+03 -0.234273994948E+03 -0.234253683491E+03
 -0.234232031913E+03 -0.234208951970E+03 -0.234184349626E+03 -0.234158124681E+03 -0.234130170370E+03
 -0.234100372937E+03 -0.234068611179E+03 -0.234034755968E+03 -0.233998669735E+03 -0.233960205929E+03
 -0.233919208434E+03 -0.233875510954E+03 -0.233828936364E+03 -0.233779296010E+03 -0.233726388974E+03
 -0.233670001293E+03 -0.233609905124E+03 -0.233545857869E+03 -0.233477601232E+03 -0.233404860239E+03
 -0.233327342178E+03 -0.233244735492E+03 -0.233156708602E+03 -0.233062908657E+03 -0.232962960221E+03
 -0.232856463875E+03 -0.232742994750E+03 -0.232622100970E+03 -0.232493302012E+03 -0.232356086986E+03
 -0.232209912806E+03 -0.232054202285E+03 -0.231888342117E+03 -0.231711680772E+03 -0.231523526278E+03
 -0.231323143906E+03 -0.231109753747E+03 -0.230882528185E+03 -0.230640589263E+03 -0.230383005950E+03
 -0.230108791299E+03 -0.229816899515E+03 -0.229506222933E+03 -0.229175588906E+03 -0.228823756625E+03
 -0.228449413882E+03 -0.228051173785E+03 -0.227627571451E+03 -0.227177060706E+03 -0.226698010815E+03
 -0.226188703281E+03 -0.225647328755E+03 -0.225071984115E+03 -0.224460669772E+03 -0.223811287267E+03
 -0.223121637264E+03 -0.222389418018E+03 -0.221612224453E+03 -0.220787547972E+03 -0.219912777175E+03
 -0.218985199650E+03 -0.218002005071E+03 -0.216960289827E+03 -0.215857063487E+03 -0.214689257402E+03
 -0.213453735820E+03 -0.212147309922E+03 -0.210766755231E+03 -0.209308832900E+03 -0.207770315431E+03
 -0.206148017388E+03 -0.204438831724E+03 -0.202639772298E+03 -0.200748023164E+03 -0.198760995084E+03
 -0.196676389610E+03 -0.194492270810E+03 -0.192207144399E+03 -0.189820043519E+03 -0.187330619803E+03
 -0.184739237449E+03 -0.182047066961E+03 -0.179256173687E+03 -0.176369594369E+03 -0.173391392210E+03
 -0.170326677161E+03 -0.167181572587E+03 -0.163963101504E+03 -0.160678954698E+03 -0.157337090407E+03
 -0.153945106764E+03 -0.150509339479E+03 -0.147033698966E+03 -0.143518412291E+03 -0.139959084947E+03
 -0.136346743081E+03 -0.132669485911E+03 -0.128915779963E+03 -0.125078491663E+03 -0.121164289024E+03
 -0.117308209112E+03 -0.113632712886E+03 -0.110059440359E+03 -0.106591248010E+03 -0.103234325966E+03
 -0.999831390122E+02 -0.968343395442E+02 -0.937847050441E+02 -0.908311124612E+02 -0.879705370968E+02
 -0.852000495051E+02 -0.825168125408E+02 -0.799180785939E+02 -0.774011869710E+02 -0.749635612467E+02
 -0.726027063682E+02 -0.703162049568E+02 -0.681017145685E+02 -0.659569659931E+02 -0.638797596183E+02
 -0.618679718035E+02 -0.599195388437E+02 -0.580324683470E+02 -0.562048278781E+02 -0.544347428452E+02
 -0.527204101192E+02 -0.510600657285E+02 -0.494520064573E+02 -0.478945972568E+02 -0.463862318881E+02
 -0.449253688300E+02 -0.435105207231E+02 -0.421402203676E+02 -0.408130842347E+02 -0.395277400274E+02
 -0.382828768720E+02 -0.370772185817E+02 -0.359095306651E+02 -0.347786172410E+02 -0.336833201257E+02
 -0.326225176261E+02 -0.315951233628E+02 -0.306000852008E+02 -0.296363841266E+02 -0.287030332457E+02
 -0.277990767260E+02 -0.269235888525E+02 -0.260756730560E+02 -0.252544610225E+02 -0.244591117584E+02
 -0.236888107623E+02 -0.229427691856E+02 -0.222202230170E+02
 pspotential valence only
 -0.182340411697E+03 -0.182341028854E+03 -0.182341626573E+03 -0.182342205467E+03 -0.182342766127E+03
 -0.182343309128E+03 -0.182343835027E+03 -0.182344344362E+03 -0.182344837654E+03 -0.182345315408E+03
 -0.182345778115E+03 -0.182346226246E+03 -0.182346660261E+03 -0.182347080605E+03 -0.182347487708E+03
 -0.182347881987E+03 -0.182348263845E+03 -0.182348633673E+03 -0.182348991851E+03 -0.182349338745E+03
 -0.182349674709E+03 -0.182350000087E+03 -0.182350315214E+03 -0.182350620411E+03 -0.182350915991E+03
 -0.182351202255E+03 -0.182351479498E+03 -0.182351748003E+03 -0.182352008044E+03 -0.182352259888E+03
 -0.182352503792E+03 -0.182352740007E+03 -0.182352968772E+03 -0.182353190323E+03 -0.182353404887E+03
 -0.182353612681E+03 -0.182353813919E+03 -0.182354008806E+03 -0.182354197542E+03 -0.182354380320E+03
 -0.182354557325E+03 -0.182354728739E+03 -0.182354894738E+03 -0.182355055489E+03 -0.182355211157E+03
 -0.182355361902E+03 -0.182355507876E+03 -0.182355649228E+03 -0.182355786102E+03 -0.182355918638E+03
 -0.182356046971E+03 -0.182356171230E+03 -0.182356291542E+03 -0.182356408029E+03 -0.182356520808E+03
 -0.182356629996E+03 -0.182356735701E+03 -0.182356838031E+03 -0.182356937088E+03 -0.182357032973E+03
 -0.182357125782E+03 -0.182357215608E+03 -0.182357302541E+03 -0.182357386668E+03 -0.182357468073E+03
 -0.182357546837E+03 -0.182357623037E+03 -0.182357696750E+03 -0.182357768048E+03 -0.182357836999E+03
 -0.182357903673E+03 -0.182357968133E+03 -0.182358030441E+03 -0.182358090658E+03 -0.182358148841E+03
 -0.182358205044E+03 -0.182358259321E+03 -0.182358311721E+03 -0.182358362293E+03 -0.182358411082E+03
 -0.182358458132E+03 -0.182358503485E+03 -0.182358547179E+03 -0.182358589252E+03 -0.182358629739E+03
 -0.182358668671E+03 -0.182358706081E+03 -0.182358741995E+03 -0.182358776440E+03 -0.182358809441E+03
 -0.182358841018E+03 -0.182358871192E+03 -0.182358899979E+03 -0.182358927395E+03 -0.182358953451E+03
 -0.182358978158E+03 -0.182359001523E+03 -0.182359023551E+03 -0.182359044245E+03 -0.182359063605E+03
 -0.182359081626E+03 -0.182359098304E+03 -0.182359113630E+03 -0.182359127590E+03 -0.182359140171E+03
 -0.182359151352E+03 -0.182359161113E+03 -0.182359169427E+03 -0.182359176264E+03 -0.182359181590E+03
 -0.182359185368E+03 -0.182359187556E+03 -0.182359188105E+03 -0.182359186964E+03 -0.182359184075E+03
 -0.182359179376E+03 -0.182359172797E+03 -0.182359164265E+03 -0.182359153698E+03 -0.182359141007E+03
 -0.182359126098E+03 -0.182359108867E+03 -0.182359089202E+03 -0.182359066984E+03 -0.182359042083E+03
 -0.182359014360E+03 -0.182358983666E+03 -0.182358949841E+03 -0.182358912711E+03 -0.182358872093E+03
 -0.182358827788E+03 -0.182358779584E+03 -0.182358727255E+03 -0.182358670557E+03 -0.182358609229E+03
 -0.182358542995E+03 -0.182358471555E+03 -0.182358394593E+03 -0.182358311769E+03 -0.182358222720E+03
 -0.182358127057E+03 -0.182358024368E+03 -0.182357914208E+03 -0.182357796107E+03 -0.182357669561E+03
 -0.182357534030E+03 -0.182357388942E+03 -0.182357233683E+03 -0.182357067599E+03 -0.182356889993E+03
 -0.182356700121E+03 -0.182356497188E+03 -0.182356280348E+03 -0.182356048696E+03 -0.182355801269E+03
 -0.182355537040E+03 -0.182355254912E+03 -0.182354953715E+03 -0.182354632203E+03 -0.182354289047E+03
 -0.182353922827E+03 -0.182353532033E+03 -0.182353115052E+03 -0.182352670164E+03 -0.182352195537E+03
 -0.182351689215E+03 -0.182351149115E+03 -0.182350573014E+03 -0.182349958543E+03 -0.182349303175E+03
 -0.182348604218E+03 -0.182347858799E+03 -0.182347063857E+03 -0.182346216127E+03 -0.182345312129E+03
 -0.182344348154E+03 -0.182343320244E+03 -0.182342224184E+03 -0.182341055477E+03 -0.182339809329E+03
 -0.182338480631E+03 -0.182337063935E+03 -0.182335553433E+03 -0.182333942933E+03 -0.182332225835E+03
 -0.182330395102E+03 -0.182328443232E+03 -0.182326362227E+03 -0.182324143564E+03 -0.182321778152E+03
 -0.182319256304E+03 -0.182316567691E+03 -0.182313701303E+03 -0.182310645403E+03 -0.182307387479E+03
 -0.182303914194E+03 -0.182300211329E+03 -0.182296263728E+03 -0.182292055236E+03 -0.182287568630E+03
 -0.182282785554E+03 -0.182277686437E+03 -0.182272250423E+03 -0.182266455276E+03 -0.182260277297E+03
 -0.182253691224E+03 -0.182246670133E+03 -0.182239185321E+03 -0.182231206201E+03 -0.182222700167E+03
 -0.182213632468E+03 -0.182203966067E+03 -0.182193661489E+03 -0.182182676664E+03 -0.182170966752E+03
 -0.182158483972E+03 -0.182145177397E+03 -0.182130992759E+03 -0.182115872227E+03 -0.182099754174E+03
 -0.182082572931E+03 -0.182064258523E+03 -0.182044736393E+03 -0.182023927099E+03 -0.182001746001E+03
 -0.181978102923E+03 -0.181952901797E+03 -0.181926040280E+03 -0.181897409352E+03 -0.181866892885E+03
 -0.181834367186E+03 -0.181799700515E+03 -0.181762752567E+03 -0.181723373927E+03 -0.181681405492E+03
 -0.181636677851E+03 -0.181589010639E+03 -0.181538211838E+03 -0.181484077052E+03 -0.181426388724E+03
 -0.181364915318E+03 -0.181299410448E+03 -0.181229611958E+03 -0.181155240950E+03 -0.181076000758E+03
 -0.180991575862E+03 -0.180901630747E+03 -0.180805808694E+03 -0.180703730516E+03 -0.180594993219E+03
 -0.180479168602E+03 -0.180355801782E+03 -0.180224409653E+03 -0.180084479271E+03 -0.179935466162E+03
 -0.179776792562E+03 -0.179607845584E+03 -0.179427975312E+03 -0.179236492819E+03 -0.179032668132E+03
 -0.178815728121E+03 -0.178584854338E+03 -0.178339180806E+03 -0.178077791766E+03 -0.177799719392E+03
 -0.177503941504E+03 -0.177189379270E+03 -0.176854894943E+03 -0.176499289641E+03 -0.176121301221E+03
 -0.175719602254E+03 -0.175292798176E+03 -0.174839425644E+03 -0.174357951167E+03 -0.173846770082E+03
 -0.173304205953E+03 -0.172728510502E+03 -0.172117864163E+03 -0.171470377415E+03 -0.170784093033E+03
 -0.170056989427E+03 -0.169286985287E+03 -0.168471945762E+03 -0.167609690425E+03 -0.166698003352E+03
 -0.165734645644E+03 -0.164717370773E+03 -0.163643943200E+03 -0.162512160710E+03 -0.161319880995E+03
 -0.160065053005E+03 -0.158745753634E+03 -0.157360230261E+03 -0.155906949663E+03 -0.154384653690E+03
 -0.152792421956E+03 -0.151129741538E+03 -0.149396583334E+03 -0.147593484223E+03 -0.145721633529E+03
 -0.143782961382E+03 -0.141780225473E+03 -0.139717091172E+03 -0.137598198056E+03 -0.135429203123E+03
 -0.133216787219E+03 -0.130968605592E+03 -0.128693155541E+03 -0.126399523200E+03 -0.124096958919E+03
 -0.121794222138E+03 -0.119498648015E+03 -0.117214949729E+03 -0.114943921621E+03 -0.112681457977E+03
 -0.110418547898E+03 -0.108142875913E+03 -0.105842059930E+03 -0.103507623144E+03 -0.101139094196E+03
 -0.987562440796E+02 -0.964391296478E+02 -0.941146509496E+02 -0.917912416440E+02 -0.894812923853E+02
 -0.871862671079E+02 -0.849106358330E+02 -0.826597116315E+02 -0.804394898521E+02 -0.782565713324E+02
 -0.761181491731E+02 -0.740318264953E+02 -0.720046461283E+02 -0.700404450211E+02 -0.681352253138E+02
 -0.662725942481E+02 -0.644248806000E+02 -0.625653809704E+02 -0.606866809281E+02 -0.588070625305E+02
 -0.569564290000E+02 -0.551579211351E+02 -0.534217763003E+02 -0.517493450458E+02 -0.501386094709E+02
 -0.485873847789E+02 -0.470943474777E+02 -0.456588670234E+02 -0.442803907773E+02 -0.429575705941E+02
 -0.416878149673E+02 -0.404671079437E+02 -0.392904416327E+02 -0.381525445081E+02 -0.370484861000E+02
 -0.359742095562E+02 -0.349266673779E+02 -0.339038181721E+02 -0.329044821655E+02 -0.319281648974E+02
 -0.309748833051E+02 -0.300450110028E+02 -0.291391433500E+02 -0.282579768769E+02 -0.274021977289E+02
 -0.265723775915E+02 -0.257688809445E+02 -0.249917921538E+02 -0.242408725067E+02 -0.235155544935E+02
 -0.228149740812E+02 -0.221380339496E+02 -0.214834848583E+02
 core charge-density (pseudized)
  0.259531317480E-11  0.276684364728E-11  0.294971098004E-11  0.314466445337E-11  0.335250286925E-11
  0.357407782444E-11  0.381029719975E-11  0.406212888000E-11  0.433060471986E-11  0.461682477172E-11
  0.492196179309E-11  0.524726605182E-11  0.559407044895E-11  0.596379598016E-11  0.635795755812E-11
  0.677817021971E-11  0.722615574345E-11  0.770374970434E-11  0.821290899493E-11  0.875571984345E-11
  0.933440636195E-11  0.995133965940E-11  0.106090475570E-10  0.113102249456E-10  0.120577448281E-10
  0.128546700907E-10  0.137042660532E-10  0.146100138483E-10  0.155756246849E-10  0.166050550546E-10
  0.177025229430E-10  0.188725251124E-10  0.201198555267E-10  0.214496249946E-10  0.228672821100E-10
  0.243786355776E-10  0.259898780130E-10  0.277076113166E-10  0.295388737241E-10  0.314911686448E-10
  0.335724954061E-10  0.357913820301E-10  0.381569201759E-10  0.406788023921E-10  0.433673618303E-10
  0.462336145851E-10  0.492893048303E-10  0.525469529400E-10  0.560199067895E-10  0.597223964462E-10
  0.636695924764E-10  0.678776681045E-10  0.723638654813E-10  0.771465663316E-10  0.822453672713E-10
  0.876811601023E-10  0.934762174144E-10  0.996542838442E-10  0.106240673367E-09  0.113262373016E-09
  0.120748153461E-09  0.128728686890E-09  0.137236672688E-09  0.146306971415E-09  0.155976747646E-09
  0.166285622247E-09  0.177275834717E-09  0.188992416257E-09  0.201483374282E-09  0.214799889124E-09
  0.228996523737E-09  0.244131447260E-09  0.260266673359E-09  0.277468314318E-09  0.295806851926E-09
  0.315357426264E-09  0.336200143581E-09  0.358420404518E-09  0.382109254024E-09  0.407363754398E-09
  0.434287382985E-09  0.462990456159E-09  0.493590581325E-09  0.526213138795E-09  0.560991795511E-09
  0.598069052721E-09  0.637596829851E-09  0.679737086964E-09  0.724662488361E-09  0.772557110037E-09
  0.823617193889E-09  0.878051951779E-09  0.936084422727E-09  0.997952386762E-09  0.106390933917E-08
  0.113422552911E-08  0.120918906692E-08  0.128910710454E-08  0.137430709397E-08  0.146513812895E-08
  0.156197237521E-08  0.166520659533E-08  0.177526377433E-08  0.189259485269E-08  0.201768057391E-08
  0.215103345416E-08  0.229319988214E-08  0.244476235761E-08  0.260634187795E-08  0.277860048240E-08
  0.296224396440E-08  0.315802476324E-08  0.336674504672E-08  0.358925999757E-08  0.382648131705E-08
  0.407938095999E-08  0.434899511673E-08  0.463642845815E-08  0.494285866116E-08  0.526954123331E-08
  0.561781465610E-08  0.598910586818E-08  0.638493611082E-08  0.680692715965E-08  0.725680796809E-08
  0.773642174971E-08  0.824773352853E-08  0.879283818815E-08  0.937396905261E-08  0.999350703412E-08
  0.106539903852E-07  0.113581250948E-07  0.121087959715E-07  0.129090784584E-07  0.137622512290E-07
  0.146718096140E-07  0.156414799162E-07  0.166752346696E-07  0.177773089071E-07  0.189522175020E-07
  0.202047736546E-07  0.215401085996E-07  0.229636926146E-07  0.244813574160E-07  0.260993200321E-07
  0.278242082538E-07  0.296630877640E-07  0.316234910577E-07  0.337134482708E-07  0.359415200433E-07
  0.383168325502E-07  0.408491148444E-07  0.435487386618E-07  0.464267608525E-07  0.494949686099E-07
  0.527659276819E-07  0.562530337610E-07  0.599705672610E-07  0.639337517044E-07  0.681588159565E-07
  0.726630605594E-07  0.774649284352E-07  0.825840802443E-07  0.880414747057E-07  0.938594542023E-07
  0.100061836019E-06  0.106674009584E-06  0.113723040099E-06  0.121237778989E-06  0.129248981604E-06
  0.137789432651E-06  0.146894079867E-06  0.156600176459E-06  0.166947432892E-06  0.177978178623E-06
  0.189737534442E-06  0.202273596090E-06  0.215637629901E-06  0.229884281240E-06  0.245071796561E-06
  0.261262259976E-06  0.278521845254E-06  0.296921084261E-06  0.316535152877E-06  0.337444175534E-06
  0.359733549546E-06  0.383494290502E-06  0.408823400070E-06  0.435824257625E-06  0.464607037210E-06
  0.495289151448E-06  0.527995724070E-06  0.562860092889E-06  0.600024345095E-06  0.639639886897E-06
  0.681868049643E-06  0.726880734663E-06  0.774861099210E-06  0.826004286015E-06  0.880518199110E-06
  0.938624328691E-06  0.100055862798E-05  0.106657244517E-05  0.113693351371E-05  0.121192700430E-05
  0.129185664229E-05  0.137704589409E-05  0.146783922656E-05  0.156460344353E-05  0.166772910362E-05
  0.177763202385E-05  0.189475487359E-05  0.201956886364E-05  0.215257553529E-05  0.229430865447E-05
  0.244533621610E-05  0.260626256390E-05  0.277773063103E-05  0.296042430695E-05  0.315507093583E-05
  0.336244395192E-05  0.358336565723E-05  0.381871014636E-05  0.406940638370E-05  0.433644143730E-05
  0.462086387367E-05  0.492378731697E-05  0.524639417563E-05  0.558993953824E-05  0.595575523991E-05
  0.634525409848E-05  0.675993431911E-05  0.720138406327E-05  0.767128617665E-05  0.817142306732E-05
  0.870368172314E-05  0.927005885350E-05  0.987266613655E-05  0.105137355486E-04  0.111956247470E-04
  0.119208224708E-04  0.126919539180E-04  0.135117860488E-04  0.143832327547E-04  0.153093598242E-04
  0.162933896232E-04  0.173387053927E-04  0.184488550558E-04  0.196275544023E-04  0.208786895059E-04
  0.222063182028E-04  0.236146704392E-04  0.251081472643E-04  0.266913182212E-04  0.283689168469E-04
  0.301458339639E-04  0.320271083981E-04  0.340179147196E-04  0.361235475497E-04  0.383494019296E-04
  0.407009491865E-04  0.431837076760E-04  0.458032077145E-04  0.485649499499E-04  0.514743563497E-04
  0.545367129167E-04  0.577571031730E-04  0.611403313834E-04  0.646908344297E-04  0.684125811897E-04
  0.723089582294E-04  0.763826405936E-04  0.806354464692E-04  0.850681745224E-04  0.896804227722E-04
  0.944703879734E-04  0.994346446523E-04  0.104567903186E-03  0.109862746657E-03  0.115309346658E-03
  0.120895158822E-03  0.126604599566E-03  0.132418706503E-03  0.138314786075E-03  0.144266053381E-03
  0.150241270811E-03  0.156204394082E-03  0.162114236551E-03  0.167924165356E-03  0.173581845944E-03
  0.179029054908E-03  0.184201584799E-03  0.189029268531E-03  0.193436155196E-03  0.197340873268E-03
  0.200657221200E-03  0.203295028898E-03  0.205161336153E-03  0.206161935247E-03  0.206203323923E-03
  0.205195110927E-03  0.203052908274E-03  0.199701731080E-03  0.195079905797E-03  0.189143459453E-03
  0.181870924286E-03  0.173268442471E-03  0.163374992814E-03  0.152267484498E-03  0.140065371813E-03
  0.126934339394E-03  0.113088492634E-03  0.987903682117E-04  0.843479639663E-04  0.701078893468E-04
  0.564436763124E-04  0.437382915864E-04  0.323599872600E-04  0.226308578356E-04  0.147878839188E-04
  0.893688527613E-05  0.500072654952E-05  0.266445355104E-05  0.138757152879E-05  0.707199377723E-06
  0.352522018954E-06  0.171749496644E-06  0.817266747931E-07  0.379552554101E-07  0.171903866667E-07
  0.758674189167E-08  0.325998099523E-08  0.136264709254E-08  0.553560893999E-09  0.218352273252E-09
  0.835516509840E-10  0.309852356978E-10  0.111264011115E-10  0.386492444613E-11  0.129739970966E-11
  0.420415993866E-12  0.131356505821E-12  0.395238997466E-13  0.114380627181E-13  0.317950810670E-14
  0.847800878342E-15  0.216544005202E-15  0.529039204657E-16  0.123443559187E-16  0.274673019337E-17
  0.581886126364E-18  0.117171569265E-18  0.223891538081E-19  0.405260790243E-20  0.693655814069E-21
  0.112066724448E-21  0.170577289611E-22  0.244142021328E-23  0.327929117398E-24  0.412520463545E-25
  0.484977928468E-26  0.531693828753E-27  0.542355995868E-28  0.513543051886E-29  0.450287992487E-30
  0.364703932440E-31  0.272148258817E-32  0.186606318563E-33  0.117247865449E-34  0.673138514203E-36
  0.352085636510E-37  0.167270691776E-38  0.719550918115E-40
 pseudo wavefunction
  0.144396080445E-03  0.149091480732E-03  0.153939563721E-03  0.158945294272E-03  0.164113798689E-03
  0.169450369973E-03  0.174960473239E-03  0.180649751312E-03  0.186524030511E-03  0.192589326611E-03
  0.198851851003E-03  0.205318017060E-03  0.211994446699E-03  0.218887977167E-03  0.226005668042E-03
  0.233354808458E-03  0.240942924578E-03  0.248777787293E-03  0.256867420187E-03  0.265220107749E-03
  0.273844403860E-03  0.282749140550E-03  0.291943437046E-03  0.301436709108E-03  0.311238678675E-03
  0.321359383817E-03  0.331809189018E-03  0.342598795788E-03  0.353739253623E-03  0.365241971323E-03
  0.377118728671E-03  0.389381688499E-03  0.402043409145E-03  0.415116857311E-03  0.428615421345E-03
  0.442552924948E-03  0.456943641334E-03  0.471802307847E-03  0.487144141049E-03  0.502984852309E-03
  0.519340663887E-03  0.536228325552E-03  0.553665131731E-03  0.571668939222E-03  0.590258185481E-03
  0.609451907502E-03  0.629269761314E-03  0.649732042108E-03  0.670859705025E-03  0.692674386610E-03
  0.715198426974E-03  0.738454892670E-03  0.762467600316E-03  0.787261140984E-03  0.812860905382E-03
  0.839293109858E-03  0.866584823248E-03  0.894763994593E-03  0.923859481763E-03  0.953901081010E-03
  0.984919557481E-03  0.101694667672E-02  0.105001523720E-02  0.108415910392E-02  0.111941324307E-02
  0.115581375784E-02  0.119339792541E-02  0.123220423508E-02  0.127227242776E-02  0.131364353659E-02
  0.135635992900E-02  0.140046535009E-02  0.144600496741E-02  0.149302541726E-02  0.154157485237E-02
  0.159170299130E-02  0.164346116928E-02  0.169690239081E-02  0.175208138394E-02  0.180905465631E-02
  0.186788055301E-02  0.192861931630E-02  0.199133314736E-02  0.205608626993E-02  0.212294499610E-02
  0.219197779420E-02  0.226325535891E-02  0.233685068366E-02  0.241283913536E-02  0.249129853159E-02
  0.257230922025E-02  0.265595416185E-02  0.274231901447E-02  0.283149222144E-02  0.292356510190E-02
  0.301863194432E-02  0.311679010300E-02  0.321814009780E-02  0.332278571702E-02  0.343083412367E-02
  0.354239596517E-02  0.365758548667E-02  0.377652064797E-02  0.389932324429E-02  0.402611903096E-02
  0.415703785218E-02  0.429221377389E-02  0.443178522105E-02  0.457589511929E-02  0.472469104126E-02
  0.487832535764E-02  0.503695539312E-02  0.520074358738E-02  0.536985766139E-02  0.554447078903E-02
  0.572476177428E-02  0.591091523426E-02  0.610312178808E-02  0.630157825189E-02  0.650648784031E-02
  0.671806037424E-02  0.693651249559E-02  0.716206788884E-02  0.739495750990E-02  0.763541982224E-02
  0.788370104086E-02  0.814005538401E-02  0.840474533315E-02  0.867804190132E-02  0.896022491019E-02
  0.925158327608E-02  0.955241530527E-02  0.986302899882E-02  0.101837423673E-01  0.105148837556E-01
  0.108567921786E-01  0.112098176668E-01  0.115743216245E-01  0.119506771983E-01  0.123392696578E-01
  0.127404967892E-01  0.131547693011E-01  0.135825112430E-01  0.140241604379E-01  0.144801689290E-01
  0.149510034397E-01  0.154371458497E-01  0.159390936853E-01  0.164573606262E-01  0.169924770282E-01
  0.175449904625E-01  0.181154662727E-01  0.187044881491E-01  0.193126587218E-01  0.199406001725E-01
  0.205889548656E-01  0.212583859997E-01  0.219495782797E-01  0.226632386099E-01  0.234000968094E-01
  0.241609063505E-01  0.249464451187E-01  0.257575161992E-01  0.265949486853E-01  0.274595985147E-01
  0.283523493297E-01  0.292741133660E-01  0.302258323677E-01  0.312084785315E-01  0.322230554799E-01
  0.332705992639E-01  0.343521793967E-01  0.354688999191E-01  0.366219004969E-01  0.378123575515E-01
  0.390414854247E-01  0.403105375780E-01  0.416208078277E-01  0.429736316166E-01  0.443703873223E-01
  0.458124976045E-01  0.473014307900E-01  0.488387022984E-01  0.504258761075E-01  0.520645662598E-01
  0.537564384105E-01  0.555032114187E-01  0.573066589800E-01  0.591686113044E-01  0.610909568360E-01
  0.630756440186E-01  0.651246831048E-01  0.672401480098E-01  0.694241782102E-01  0.716789806869E-01
  0.740068319122E-01  0.764100798811E-01  0.788911461850E-01  0.814525281281E-01  0.840968008845E-01
  0.868266196951E-01  0.896447221018E-01  0.925539302181E-01  0.955571530321E-01  0.986573887396E-01
  0.101857727105E+00  0.105161351841E+00  0.108571543014E+00  0.112091679452E+00  0.115725241165E+00
  0.119475811766E+00  0.123347080877E+00  0.127342846526E+00  0.131467017506E+00  0.135723615710E+00
  0.140116778395E+00  0.144650760397E+00  0.149329936258E+00  0.154158802247E+00  0.159141978272E+00
  0.164284209643E+00  0.169590368670E+00  0.175065456067E+00  0.180714602132E+00  0.186543067668E+00
  0.192556244610E+00  0.198759656312E+00  0.205158957452E+00  0.211759933507E+00  0.218568499734E+00
  0.225590699606E+00  0.232832702621E+00  0.240300801432E+00  0.248001408188E+00  0.255941050017E+00
  0.264126363548E+00  0.272564088357E+00  0.281261059219E+00  0.290224197045E+00  0.299460498356E+00
  0.308977023127E+00  0.318780880853E+00  0.328879214636E+00  0.339279183095E+00  0.349987939875E+00
  0.361012610532E+00  0.372360266506E+00  0.384037895936E+00  0.396052370980E+00  0.408410411330E+00
  0.421118543573E+00  0.434183055992E+00  0.447609948421E+00  0.461404876709E+00  0.475573091316E+00
  0.490119369553E+00  0.505047940925E+00  0.520362405029E+00  0.536065641402E+00  0.552159710712E+00
  0.568645746636E+00  0.585523837767E+00  0.602792898856E+00  0.620450530682E+00  0.638492867865E+00
  0.656914413904E+00  0.675707862755E+00  0.694863906313E+00  0.714371027177E+00  0.734215276179E+00
  0.754380034243E+00  0.774845758267E+00  0.795589710901E+00  0.816585674301E+00  0.837803648191E+00
  0.859209532916E+00  0.880764798526E+00  0.902426141448E+00  0.924145130815E+00  0.945867847242E+00
  0.967534517571E+00  0.989079150053E+00  0.101042917546E+01  0.103150510084E+01  0.105222018401E+01
  0.107248013839E+01  0.109218287954E+01  0.111121832670E+01  0.112946827463E+01  0.114680635350E+01
  0.116309809674E+01  0.117820113950E+01  0.119196557285E+01  0.120423448139E+01  0.121484469419E+01
  0.122362778155E+01  0.123041133108E+01  0.123502053797E+01  0.123728014417E+01  0.123701675946E+01
  0.123406159452E+01  0.122825363015E+01  0.121944323848E+01  0.120749625976E+01  0.119229852184E+01
  0.117376076787E+01  0.115182393002E+01  0.112646465263E+01  0.109770092653E+01  0.106559764631E+01
  0.103027184464E+01  0.991897292445E+00  0.950708081988E+00  0.907000733939E+00  0.861134293466E+00
  0.813527809035E+00  0.764654529313E+00  0.715032118358E+00  0.665208190693E+00  0.615740522665E+00
  0.567171424630E+00  0.519995983030E+00  0.474624227306E+00  0.431337768885E+00  0.390257390349E+00
  0.351464900064E+00  0.315043853603E+00  0.281044941607E+00  0.249487696343E+00  0.220363344372E+00
  0.193637934946E+00  0.169255639008E+00  0.147142100556E+00  0.127207659460E+00  0.109350167220E+00
  0.934570852967E-01  0.794067700932E-01  0.670693968146E-01  0.563085183085E-01  0.469840371850E-01
  0.389562030644E-01  0.320893281520E-01  0.262542914793E-01  0.213298601665E-01  0.172033056938E-01
  0.137706942523E-01  0.109370140544E-01  0.861617691158E-02  0.673089193063E-02  0.521241002025E-02
  0.400015018386E-02  0.304122986980E-02  0.228992679965E-02  0.170709881227E-02  0.125958220242E-02
  0.919583431241E-03  0.664075055010E-03  0.474205505607E-03  0.334732176156E-03  0.233486994911E-03
  0.160882584843E-03  0.109465212546E-03  0.735183506295E-04  0.487182049447E-04  0.318403044654E-04
  0.205144117092E-04  0.130236704066E-04  0.814306797069E-05  0.501190298475E-05  0.303493266666E-05
  0.180714074291E-05  0.105752203543E-05  0.607845335301E-06
 ae wavefunction
  0.174923757929E-02  0.180547364915E-02  0.186351475553E-02  0.192341864714E-02  0.198524490841E-02
  0.204905501705E-02  0.211491240337E-02  0.218288251143E-02  0.225303286203E-02  0.232543311754E-02
  0.240015514881E-02  0.247727310397E-02  0.255686347934E-02  0.263900519248E-02  0.272377965739E-02
  0.281127086196E-02  0.290156544767E-02  0.299475279176E-02  0.309092509169E-02  0.319017745220E-02
  0.329260797480E-02  0.339831784997E-02  0.350741145212E-02  0.361999643695E-02  0.373618384219E-02
  0.385608819062E-02  0.397982759665E-02  0.410752387536E-02  0.423930265514E-02  0.437529349319E-02
  0.451562999443E-02  0.466044993371E-02  0.480989538135E-02  0.496411283232E-02  0.512325333881E-02
  0.528747264657E-02  0.545693133484E-02  0.563179496017E-02  0.581223420400E-02  0.599842502429E-02
  0.619054881105E-02  0.638879254597E-02  0.659334896628E-02  0.680441673272E-02  0.702220060187E-02
  0.724691160281E-02  0.747876721817E-02  0.771799156972E-02  0.796481560839E-02  0.821947730899E-02
  0.848222186949E-02  0.875330191498E-02  0.903297770633E-02  0.932151735370E-02  0.961919703465E-02
  0.992630121728E-02  0.102431228878E-01  0.105699637832E-01  0.109071346292E-01  0.112549553812E-01
  0.116137554726E-01  0.119838740655E-01  0.123656603073E-01  0.127594735916E-01  0.131656838234E-01
  0.135846716893E-01  0.140168289309E-01  0.144625586235E-01  0.149222754577E-01  0.153964060260E-01
  0.158853891115E-01  0.163896759812E-01  0.169097306816E-01  0.174460303373E-01  0.179990654519E-01
  0.185693402112E-01  0.191573727876E-01  0.197636956458E-01  0.203888558494E-01  0.210334153676E-01
  0.216979513807E-01  0.223830565852E-01  0.230893394970E-01  0.238174247512E-01  0.245679533994E-01
  0.253415832016E-01  0.261389889133E-01  0.269608625658E-01  0.278079137388E-01  0.286808698238E-01
  0.295804762780E-01  0.305074968649E-01  0.314627138832E-01  0.324469283790E-01  0.334609603422E-01
  0.345056488832E-01  0.355818523892E-01  0.366904486564E-01  0.378323349973E-01  0.390084283188E-01
  0.402196651701E-01  0.414670017554E-01  0.427514139103E-01  0.440738970373E-01  0.454354659962E-01
  0.468371549479E-01  0.482800171443E-01  0.497651246630E-01  0.512935680803E-01  0.528664560775E-01
  0.544849149768E-01  0.561500881997E-01  0.578631356427E-01  0.596252329644E-01  0.614375707761E-01
  0.633013537307E-01  0.652177995015E-01  0.671881376427E-01  0.692136083247E-01  0.712954609342E-01
  0.734349525309E-01  0.756333461508E-01  0.778919089458E-01  0.802119101498E-01  0.825946188590E-01
  0.850413016159E-01  0.875532197835E-01  0.901316266984E-01  0.927777645882E-01  0.954928612395E-01
  0.982781264028E-01  0.101134747918E+00  0.104063887544E+00  0.107066676483E+00  0.110144210568E+00
  0.113297545110E+00  0.116527689386E+00  0.119835600736E+00  0.123222178265E+00  0.126688256123E+00
  0.130234596343E+00  0.133861881222E+00  0.137570705211E+00  0.141361566314E+00  0.145234856954E+00
  0.149190854295E+00  0.153229710002E+00  0.157351439404E+00  0.161555910059E+00  0.165842829676E+00
  0.170211733404E+00  0.174661970434E+00  0.179192689928E+00  0.183802826238E+00  0.188491083404E+00
  0.193255918924E+00  0.198095526772E+00  0.203007819668E+00  0.207990410582E+00  0.213040593479E+00
  0.218155323295E+00  0.223331195160E+00  0.228564422866E+00  0.233850816605E+00  0.239185759988E+00
  0.244564186379E+00  0.249980554577E+00  0.255428823887E+00  0.260902428625E+00  0.266394252136E+00
  0.271896600374E+00  0.277401175141E+00  0.282899047077E+00  0.288380628508E+00  0.293835646271E+00
  0.299253114672E+00  0.304621308709E+00  0.309927737746E+00  0.315159119838E+00  0.320301356898E+00
  0.325339510967E+00  0.330257781821E+00  0.335039486204E+00  0.339667039002E+00  0.344121936671E+00
  0.348384743292E+00  0.352435079631E+00  0.356251615622E+00  0.359812066715E+00  0.363093194556E+00
  0.366070812516E+00  0.368719796578E+00  0.371014102169E+00  0.372926787496E+00  0.374430044029E+00
  0.375495234749E+00  0.376092940844E+00  0.376193017517E+00  0.375764659626E+00  0.374776477854E+00
  0.373196586142E+00  0.370992701096E+00  0.368132254101E+00  0.364582516829E+00  0.360310740844E+00
  0.355284311937E+00  0.349470919822E+00  0.342838743720E+00  0.335356654342E+00  0.326994432657E+00
  0.317723005754E+00  0.307514699981E+00  0.296343511412E+00  0.284185393551E+00  0.271018561990E+00
  0.256823815562E+00  0.241584873321E+00  0.225288726422E+00  0.207926003761E+00  0.189491349912E+00
  0.169983813615E+00  0.149407244729E+00  0.127770697174E+00  0.105088835007E+00  0.813823382931E-01
  0.566783049667E-01  0.310106444062E-01  0.442045796816E-02 -0.230435985835E-01 -0.513249759383E-01
 -0.803589203457E-01 -0.110072195290E+00 -0.140382839068E+00 -0.171199960543E+00 -0.202423574659E+00
 -0.233944479718E+00 -0.265644180194E+00 -0.297394862345E+00 -0.329059434108E+00 -0.360491645031E+00
 -0.391536304552E+00 -0.422029616463E+00 -0.451799643392E+00 -0.480666907737E+00 -0.508445128362E+00
 -0.534942087070E+00 -0.559960618187E+00 -0.583299716465E+00 -0.604755760928E+00 -0.624123853312E+00
 -0.641199268628E+00 -0.655779013205E+00 -0.667663482894E+00 -0.676658211576E+00 -0.682575698177E+00
 -0.685237299260E+00 -0.684475172743E+00 -0.680134257590E+00 -0.672074273061E+00 -0.660171720185E+00
 -0.644321866436E+00 -0.624440693594E+00 -0.600466786513E+00 -0.572363139418E+00 -0.540118853527E+00
 -0.503750698398E+00 -0.463304506804E+00 -0.418856371235E+00 -0.370513608344E+00 -0.318415457289E+00
 -0.262733478237E+00 -0.203671620161E+00 -0.141465931752E+00 -0.763838970081E-01 -0.872338605567E-02
  0.611887791210E-01  0.132998639753E+00  0.206327297424E+00  0.280773517769E+00  0.355916812324E+00
  0.431321138234E+00  0.506539413658E+00  0.581118995081E+00  0.654607898987E+00  0.726560665889E+00
  0.796541606416E+00  0.864123052439E+00  0.928878991824E+00  0.990379612446E+00  0.104819455275E+01
  0.110190654974E+01  0.115112793318E+01  0.119551190977E+01  0.123475756108E+01  0.126861169680E+01
  0.129687012707E+01  0.131937924051E+01  0.133603784440E+01  0.134679890832E+01  0.135167080174E+01
  0.135071769187E+01  0.134405890209E+01  0.133186717591E+01  0.131436590245E+01  0.129182542705E+01
  0.126455860329E+01  0.123291574805E+01  0.119727915832E+01  0.115805733491E+01  0.111567904633E+01
  0.107058735147E+01  0.102323368079E+01  0.974072064726E+00  0.923553580820E+00  0.872121065079E+00
  0.820204142778E+00  0.768214601560E+00  0.716542138981E+00  0.665550515194E+00  0.615574151635E+00
  0.566915230576E+00  0.519841364707E+00  0.474583913392E+00  0.431337016143E+00  0.390257390349E+00
  0.351464900064E+00  0.315043853603E+00  0.281044941607E+00  0.249487696343E+00  0.220363344372E+00
  0.193637934946E+00  0.169255639008E+00  0.147142100556E+00  0.127207659460E+00  0.109350167220E+00
  0.934570852967E-01  0.794067700932E-01  0.670693968146E-01  0.563085183085E-01  0.469840371850E-01
  0.389562030644E-01  0.320893281520E-01  0.262542914793E-01  0.213298601665E-01  0.172033056938E-01
  0.137706942523E-01  0.109370140544E-01  0.861617691158E-02  0.673089193063E-02  0.521241002025E-02
  0.400015018386E-02  0.304122986980E-02  0.228992679965E-02  0.170709881227E-02  0.125958220242E-02
  0.919583431241E-03  0.664075055010E-03  0.474205505607E-03  0.334732176156E-03  0.233486994911E-03
  0.160882584843E-03  0.109465212546E-03  0.735183506295E-04  0.487182049447E-04  0.318403044654E-04
  0.205144117092E-04  0.130236704066E-04  0.814306797069E-05  0.501190298475E-05  0.303493266666E-05
  0.180714074291E-05  0.105752203543E-05  0.607845335301E-06
 pseudo wavefunction
 -0.105806013005E-03 -0.109246560558E-03 -0.112798986132E-03 -0.116466927718E-03 -0.120254141611E-03
 -0.124164506246E-03 -0.128202026179E-03 -0.132370836182E-03 -0.136675205480E-03 -0.141119542122E-03
 -0.145708397497E-03 -0.150446470993E-03 -0.155338614809E-03 -0.160389838927E-03 -0.165605316241E-03
 -0.170990387854E-03 -0.176550568547E-03 -0.182291552431E-03 -0.188219218772E-03 -0.194339638016E-03
 -0.200659078005E-03 -0.207184010396E-03 -0.213921117285E-03 -0.220877298056E-03 -0.228059676443E-03
 -0.235475607824E-03 -0.243132686758E-03 -0.251038754757E-03 -0.259201908320E-03 -0.267630507224E-03
 -0.276333183085E-03 -0.285318848197E-03 -0.294596704657E-03 -0.304176253794E-03 -0.314067305893E-03
 -0.324279990246E-03 -0.334824765522E-03 -0.345712430481E-03 -0.356954135029E-03 -0.368561391638E-03
 -0.380546087139E-03 -0.392920494886E-03 -0.405697287337E-03 -0.418889549019E-03 -0.432510789938E-03
 -0.446574959408E-03 -0.461096460338E-03 -0.476090163981E-03 -0.491571425164E-03 -0.507556098013E-03
 -0.524060552185E-03 -0.541101689636E-03 -0.558696961929E-03 -0.576864388101E-03 -0.595622573120E-03
 -0.614990726938E-03 -0.634988684159E-03 -0.655636924355E-03 -0.676956593034E-03 -0.698969523297E-03
 -0.721698258195E-03 -0.745166073815E-03 -0.769397003113E-03 -0.794415860528E-03 -0.820248267389E-03
 -0.846920678157E-03 -0.874460407508E-03 -0.902895658311E-03 -0.932255550505E-03 -0.962570150915E-03
 -0.993870504046E-03 -0.102618866387E-02 -0.105955772665E-02 -0.109401186483E-02 -0.112958636201E-02
 -0.116631764913E-02 -0.120424334169E-02 -0.124340227835E-02 -0.128383456065E-02 -0.132558159406E-02
 -0.136868613043E-02 -0.141319231173E-02 -0.145914571523E-02 -0.150659340021E-02 -0.155558395612E-02
 -0.160616755230E-02 -0.165839598943E-02 -0.171232275246E-02 -0.176800306546E-02 -0.182549394809E-02
 -0.188485427404E-02 -0.194614483124E-02 -0.200942838414E-02 -0.207476973795E-02 -0.214223580495E-02
 -0.221189567305E-02 -0.228382067645E-02 -0.235808446869E-02 -0.243476309804E-02 -0.251393508534E-02
 -0.259568150437E-02 -0.268008606480E-02 -0.276723519791E-02 -0.285721814501E-02 -0.295012704877E-02
 -0.304605704752E-02 -0.314510637261E-02 -0.324737644889E-02 -0.335297199853E-02 -0.346200114810E-02
 -0.357457553924E-02 -0.369081044284E-02 -0.381082487695E-02 -0.393474172849E-02 -0.406268787900E-02
 -0.419479433428E-02 -0.433119635845E-02 -0.447203361220E-02 -0.461745029556E-02 -0.476759529531E-02
 -0.492262233717E-02 -0.508269014286E-02 -0.524796259232E-02 -0.541860889111E-02 -0.559480374327E-02
 -0.577672752970E-02 -0.596456649244E-02 -0.615851292470E-02 -0.635876536723E-02 -0.656552881088E-02
 -0.677901490573E-02 -0.699944217705E-02 -0.722703624803E-02 -0.746203006989E-02 -0.770466415921E-02
 -0.795518684303E-02 -0.821385451174E-02 -0.848093188009E-02 -0.875669225661E-02 -0.904141782164E-02
 -0.933539991425E-02 -0.963893932833E-02 -0.995234661816E-02 -0.102759424137E-01 -0.106100577460E-01
 -0.109550343826E-01 -0.113112251745E-01 -0.116789944127E-01 -0.120587181974E-01 -0.124507848184E-01
 -0.128555951466E-01 -0.132735630397E-01 -0.137051157587E-01 -0.141506943986E-01 -0.146107543323E-01
 -0.150857656685E-01 -0.155762137230E-01 -0.160825995058E-01 -0.166054402224E-01 -0.171452697907E-01
 -0.177026393741E-01 -0.182781179300E-01 -0.188722927761E-01 -0.194857701729E-01 -0.201191759241E-01
 -0.207731559950E-01 -0.214483771489E-01 -0.221455276028E-01 -0.228653177021E-01 -0.236084806147E-01
 -0.243757730452E-01 -0.251679759703E-01 -0.259858953936E-01 -0.268303631230E-01 -0.277022375686E-01
 -0.286024045629E-01 -0.295317782031E-01 -0.304913017161E-01 -0.314819483453E-01 -0.325047222612E-01
 -0.335606594945E-01 -0.346508288923E-01 -0.357763330971E-01 -0.369383095495E-01 -0.381379315133E-01
 -0.393764091229E-01 -0.406549904541E-01 -0.419749626156E-01 -0.433376528621E-01 -0.447444297289E-01
 -0.461967041842E-01 -0.476959308021E-01 -0.492436089510E-01 -0.508412839990E-01 -0.524905485326E-01
 -0.541930435874E-01 -0.559504598884E-01 -0.577645390968E-01 -0.596370750607E-01 -0.615699150656E-01
 -0.635649610809E-01 -0.656241709980E-01 -0.677495598543E-01 -0.699432010383E-01 -0.722072274673E-01
 -0.745438327333E-01 -0.769552722059E-01 -0.794438640849E-01 -0.820119903921E-01 -0.846620978902E-01
 -0.873966989167E-01 -0.902183721188E-01 -0.931297630731E-01 -0.961335847734E-01 -0.992326179661E-01
 -0.102429711314E+00 -0.105727781364E+00 -0.109129812290E+00 -0.112638855385E+00 -0.116258028277E+00
 -0.119990513815E+00 -0.123839558608E+00 -0.127808471164E+00 -0.131900619579E+00 -0.136119428734E+00
 -0.140468376934E+00 -0.144950991944E+00 -0.149570846322E+00 -0.154331552021E+00 -0.159236754128E+00
 -0.164290123699E+00 -0.169495349555E+00 -0.174856128958E+00 -0.180376157036E+00 -0.186059114848E+00
 -0.191908655932E+00 -0.197928391206E+00 -0.204121872054E+00 -0.210492571415E+00 -0.217043862703E+00
 -0.223778996344E+00 -0.230701073707E+00 -0.237813018205E+00 -0.245117543305E+00 -0.252617117175E+00
 -0.260313923688E+00 -0.268209819464E+00 -0.276306286626E+00 -0.284604380937E+00 -0.293104674931E+00
 -0.301807195687E+00 -0.310711356820E+00 -0.319815884304E+00 -0.329118735690E+00 -0.338617012301E+00
 -0.348306863966E+00 -0.358183385878E+00 -0.368240507140E+00 -0.378470870637E+00 -0.388865703830E+00
 -0.399414680198E+00 -0.410105771030E+00 -0.420925087434E+00 -0.431856712455E+00 -0.442882523388E+00
 -0.453982004509E+00 -0.465132050626E+00 -0.476306762139E+00 -0.487477232543E+00 -0.498611329675E+00
 -0.509673472407E+00 -0.520624404942E+00 -0.531420971443E+00 -0.542015894333E+00 -0.552357560330E+00
 -0.562389819100E+00 -0.572051800313E+00 -0.581277755905E+00 -0.589996935480E+00 -0.598133503971E+00
 -0.605606511999E+00 -0.612329930740E+00 -0.618212764494E+00 -0.623159255609E+00 -0.627069197744E+00
 -0.629838374741E+00 -0.631359143405E+00 -0.631521179264E+00 -0.630212404621E+00 -0.627320117916E+00
 -0.622732342220E+00 -0.616339408490E+00 -0.608035785618E+00 -0.597722164162E+00 -0.585307793460E+00
 -0.570713062390E+00 -0.553872301960E+00 -0.534736772874E+00 -0.513277783062E+00 -0.489489858708E+00
 -0.463393867741E+00 -0.435039967394E+00 -0.404510218099E+00 -0.371920676027E+00 -0.337422747863E+00
 -0.301203566954E+00 -0.263485133310E+00 -0.224521956287E+00 -0.184596953941E+00 -0.144015404511E+00
 -0.103096821277E+00 -0.621647410814E-01 -0.215345874077E-01  0.185000016799E-01  0.576816984919E-01
  0.958038286204E-01  0.132723093937E+00  0.168368807835E+00  0.202746357748E+00  0.235932266778E+00
  0.268058042815E+00  0.299280092017E+00  0.329733470568E+00  0.359468307424E+00  0.388378863797E+00
  0.416325096792E+00  0.443179423440E+00  0.468825692657E+00  0.493153849947E+00  0.516060778968E+00
  0.537451796789E+00  0.557243031911E+00  0.575364858563E+00  0.591766191295E+00  0.606418453336E+00
  0.619316422043E+00  0.630472029447E+00  0.639899109321E+00  0.647593639395E+00  0.653520674851E+00
  0.657616503107E+00  0.659802807986E+00  0.660002444402E+00  0.658150058636E+00  0.654197341949E+00
  0.648115546592E+00  0.639897514995E+00  0.629560278768E+00  0.617148234631E+00  0.602736301904E+00
  0.586431827942E+00  0.568374465852E+00  0.548733270683E+00  0.527701291427E+00  0.505488646818E+00
  0.482314797072E+00  0.458401414976E+00  0.433966150742E+00  0.409217799366E+00  0.384352846774E+00
  0.359553307905E+00  0.334985666784E+00  0.310800692205E+00  0.287133887401E+00  0.264106329086E+00
  0.241825658712E+00  0.220387010695E+00  0.199873704172E+00  0.180357588643E+00  0.161899014624E+00
  0.144546485072E+00  0.128336114490E+00  0.113291064626E+00
 ae wavefunction
 -0.396116204302E-03 -0.408850905230E-03 -0.421994357971E-03 -0.435559639755E-03 -0.449560243515E-03
 -0.464010090916E-03 -0.478923545790E-03 -0.494315427985E-03 -0.510201027625E-03 -0.526596119798E-03
 -0.543516979697E-03 -0.560980398212E-03 -0.579003697976E-03 -0.597604749917E-03 -0.616801990277E-03
 -0.636614438161E-03 -0.657061713579E-03 -0.678164056054E-03 -0.699942343747E-03 -0.722418113173E-03
 -0.745613579470E-03 -0.769551657270E-03 -0.794255982205E-03 -0.819750932960E-03 -0.846061654074E-03
 -0.873214079285E-03 -0.901234955644E-03 -0.930151868227E-03 -0.959993265632E-03 -0.990788486131E-03
 -0.102256778461E-02 -0.105536236022E-02 -0.108920438484E-02 -0.112412703229E-02 -0.116016450839E-02
 -0.119735208179E-02 -0.123572611571E-02 -0.127532410045E-02 -0.131618468686E-02 -0.135834772065E-02
 -0.140185427760E-02 -0.144674669974E-02 -0.149306863244E-02 -0.154086506241E-02 -0.159018235679E-02
 -0.164106830311E-02 -0.169357215030E-02 -0.174774465070E-02 -0.180363810312E-02 -0.186130639692E-02
 -0.192080505712E-02 -0.198219129060E-02 -0.204552403335E-02 -0.211086399882E-02 -0.217827372730E-02
 -0.224781763645E-02 -0.231956207284E-02 -0.239357536466E-02 -0.246992787548E-02 -0.254869205902E-02
 -0.262994251518E-02 -0.271375604692E-02 -0.280021171832E-02 -0.288939091371E-02 -0.298137739766E-02
 -0.307625737614E-02 -0.317411955853E-02 -0.327505522063E-02 -0.337915826853E-02 -0.348652530333E-02
 -0.359725568670E-02 -0.371145160718E-02 -0.382921814713E-02 -0.395066335034E-02 -0.407589829021E-02
 -0.420503713829E-02 -0.433819723332E-02 -0.447549915037E-02 -0.461706677030E-02 -0.476302734914E-02
 -0.491351158729E-02 -0.506865369865E-02 -0.522859147915E-02 -0.539346637473E-02 -0.556342354851E-02
 -0.573861194703E-02 -0.591918436510E-02 -0.610529750932E-02 -0.629711205973E-02 -0.649479272953E-02
 -0.669850832236E-02 -0.690843178696E-02 -0.712474026870E-02 -0.734761515790E-02 -0.757724213396E-02
 -0.781381120553E-02 -0.805751674568E-02 -0.830855752192E-02 -0.856713672028E-02 -0.883346196307E-02
 -0.910774531947E-02 -0.939020330847E-02 -0.968105689334E-02 -0.998053146685E-02 -0.102888568265E-01
 -0.106062671388E-01 -0.109330008918E-01 -0.112693008346E-01 -0.116154139033E-01 -0.119715911315E-01
 -0.123380875451E-01 -0.127151620396E-01 -0.131030772380E-01 -0.135020993296E-01 -0.139124978860E-01
 -0.143345456549E-01 -0.147685183281E-01 -0.152146942832E-01 -0.156733542968E-01 -0.161447812272E-01
 -0.166292596641E-01 -0.171270755440E-01 -0.176385157286E-01 -0.181638675428E-01 -0.187034182723E-01
 -0.192574546149E-01 -0.198262620857E-01 -0.204101243711E-01 -0.210093226298E-01 -0.216241347372E-01
 -0.222548344703E-01 -0.229016906288E-01 -0.235649660898E-01 -0.242449167913E-01 -0.249417906428E-01
 -0.256558263555E-01 -0.263872521918E-01 -0.271362846274E-01 -0.279031269222E-01 -0.286879675961E-01
 -0.294909788048E-01 -0.303123146106E-01 -0.311521091442E-01 -0.320104746520E-01 -0.328874994247E-01
 -0.337832456017E-01 -0.346977468474E-01 -0.356310058929E-01 -0.365829919405E-01 -0.375536379247E-01
 -0.385428376254E-01 -0.395504426296E-01 -0.405762591367E-01 -0.416200446041E-01 -0.426815042288E-01
 -0.437602872629E-01 -0.448559831590E-01 -0.459681175448E-01 -0.470961480240E-01 -0.482394598042E-01
 -0.493973611500E-01 -0.505690786646E-01 -0.517537523995E-01 -0.529504307983E-01 -0.541580654760E-01
 -0.553755058430E-01 -0.566014935799E-01 -0.578346569718E-01 -0.590735051165E-01 -0.603164220168E-01
 -0.615616605762E-01 -0.628073365146E-01 -0.640514222260E-01 -0.652917406039E-01 -0.665259588611E-01
 -0.677515823754E-01 -0.689659485976E-01 -0.701662210602E-01 -0.713493835308E-01 -0.725122343583E-01
 -0.736513810663E-01 -0.747632352500E-01 -0.758440078430E-01 -0.768897048209E-01 -0.778961234198E-01
 -0.788588489486E-01 -0.797732522857E-01 -0.806344881522E-01 -0.814374942643E-01 -0.821769914724E-01
 -0.828474850014E-01 -0.834432669133E-01 -0.839584199215E-01 -0.843868226904E-01 -0.847221567612E-01
 -0.849579152523E-01 -0.850874134846E-01 -0.851038016903E-01 -0.850000799661E-01 -0.847691156352E-01
 -0.844036631837E-01 -0.838963869398E-01 -0.832398866616E-01 -0.824267261962E-01 -0.814494653713E-01
 -0.803006952698E-01 -0.789730770308E-01 -0.774593843092E-01 -0.757525495070E-01 -0.738457138754E-01
 -0.717322815618E-01 -0.694059776493E-01 -0.668609102097E-01 -0.640916363513E-01 -0.610932322097E-01
 -0.578613667819E-01 -0.543923794580E-01 -0.506833610517E-01 -0.467322380725E-01 -0.425378599160E-01
 -0.381000885834E-01 -0.334198904576E-01 -0.284994295818E-01 -0.233421617893E-01 -0.179529289321E-01
 -0.123380523400E-01 -0.650542453517E-02 -0.464598116826E-03  0.577312934312E-02  0.121946355841E-01
  0.187849002620E-01  0.255269388766E-01  0.324017448077E-01  0.393882400055E-01  0.464632347474E-01
  0.536013969629E-01  0.607752320675E-01  0.679550750306E-01  0.751090973951E-01  0.822033329322E-01
  0.892017262111E-01  0.960662082538E-01  0.102756802547E+00  0.109231763002E+00  0.115447743857E+00
  0.121360000320E+00  0.126922618631E+00  0.132088774666E+00  0.136811020761E+00  0.141041600674E+00
  0.144732792387E+00  0.147837277916E+00  0.150308538742E+00  0.152101274866E+00  0.153171845073E+00
  0.153478725731E+00  0.152982985060E+00  0.151648769692E+00  0.149443799960E+00  0.146339870163E+00
  0.142313349600E+00  0.137345679886E+00  0.131423863481E+00  0.124540938039E+00  0.116696430435E+00
  0.107896783917E+00  0.981557511269E-01  0.874947452179E-01  0.759431407948E-01  0.635385161852E-01
  0.503268285328E-01  0.363625137526E-01  0.217085043781E-01  0.643615997539E-02 -0.937489328114E-02
 -0.256370154341E-01 -0.422548988476E-01 -0.591260102528E-01 -0.761411373638E-01 -0.931850600488E-01
 -0.110137381734E+00 -0.126873568736E+00 -0.143266229365E+00 -0.159186573824E+00 -0.174505785665E+00
 -0.189095774322E+00 -0.202828782101E+00 -0.215575997884E+00 -0.227206519608E+00 -0.237588451839E+00
 -0.246592422008E+00 -0.254095688190E+00 -0.259985003787E+00 -0.264158059160E+00 -0.266524254946E+00
 -0.267005388993E+00 -0.265536440533E+00 -0.262066423101E+00 -0.256559210591E+00 -0.248994235261E+00
 -0.239366978970E+00 -0.227689212910E+00 -0.213988974638E+00 -0.198310295655E+00 -0.180712706316E+00
 -0.161270550207E+00 -0.140072139695E+00 -0.117218781815E+00 -0.928236993631E-01 -0.670108678875E-01
 -0.399137849283E-01 -0.116741835274E-01  0.175593006087E-01  0.476325013069E-01  0.783871257170E-01
  0.109662179093E+00  0.141295393352E+00  0.173124632601E+00  0.204989237047E+00  0.236731255898E+00
  0.268196513336E+00  0.299235455459E+00  0.329703743189E+00  0.359462587098E+00  0.388378863797E+00
  0.416325096792E+00  0.443179423440E+00  0.468825692657E+00  0.493153849947E+00  0.516060778968E+00
  0.537451796789E+00  0.557243031911E+00  0.575364858563E+00  0.591766191295E+00  0.606418453336E+00
  0.619316422043E+00  0.630472029447E+00  0.639899109321E+00  0.647593639395E+00  0.653520674851E+00
  0.657616503107E+00  0.659802807986E+00  0.660002444402E+00  0.658150058636E+00  0.654197341949E+00
  0.648115546592E+00  0.639897514995E+00  0.629560278768E+00  0.617148234631E+00  0.602736301904E+00
  0.586431827942E+00  0.568374465852E+00  0.548733270683E+00  0.527701291427E+00  0.505488646818E+00
  0.482314797072E+00  0.458401414976E+00  0.433966150742E+00  0.409217799366E+00  0.384352846774E+00
  0.359553307905E+00  0.334985666784E+00  0.310800692205E+00  0.287133887401E+00  0.264106329086E+00
  0.241825658712E+00  0.220387010695E+00  0.199873704172E+00  0.180357588643E+00  0.161899014624E+00
  0.144546485072E+00  0.128336114490E+00  0.113291064626E+00
 pseudo wavefunction
  0.785973904786E-08  0.837920805363E-08  0.893301001187E-08  0.952341406973E-08  0.101528393477E-07
  0.108238648519E-07  0.115392400409E-07  0.123018960918E-07  0.131149579101E-07  0.139817569337E-07
  0.149058447835E-07  0.158910078153E-07  0.169412826343E-07  0.180609726346E-07  0.192546656318E-07
  0.205272526616E-07  0.218839480195E-07  0.233303106266E-07  0.248722668062E-07  0.265161345667E-07
  0.282686494886E-07  0.301369923232E-07  0.321288184147E-07  0.342522890674E-07  0.365161049858E-07
  0.389295419246E-07  0.415024886954E-07  0.442454876850E-07  0.471697780518E-07  0.502873417770E-07
  0.536109527595E-07  0.571542291558E-07  0.609316891789E-07  0.649588105850E-07  0.692520940924E-07
  0.738291309910E-07  0.787086752211E-07  0.839107202158E-07  0.894565808216E-07  0.953689806342E-07
  0.101672145106E-06  0.108391900806E-06  0.115555781244E-06  0.123193139686E-06  0.131335269421E-06
  0.140015531990E-06  0.149269493876E-06  0.159135072234E-06  0.169652690256E-06  0.180865442796E-06
  0.192819272950E-06  0.205563160302E-06  0.219149321613E-06  0.233633424772E-06  0.249074816889E-06
  0.265536767466E-06  0.283086727634E-06  0.301796606529E-06  0.321743065928E-06  0.343007834366E-06
  0.365678042009E-06  0.389846577655E-06  0.415612469343E-06  0.443081290103E-06  0.472365590532E-06
  0.503585359955E-06  0.536868518072E-06  0.572351439085E-06  0.610179510485E-06  0.650507728752E-06
  0.693501334438E-06  0.739336489219E-06  0.788200997695E-06  0.840295076894E-06  0.895832176640E-06
  0.955039854131E-06  0.101816070633E-05  0.108545336396E-05  0.115719355124E-05  0.123367521558E-05
  0.131521173204E-05  0.140213718729E-05  0.149480774851E-05  0.159360312275E-05  0.169892811267E-05
  0.181121427520E-05  0.193092168977E-05  0.205854084338E-05  0.219459464032E-05  0.233964054467E-05
  0.249427286443E-05  0.265912518654E-05  0.283487297294E-05  0.302223632812E-05  0.322198294960E-05
  0.343493127343E-05  0.366195382755E-05  0.390398080679E-05  0.416200388414E-05  0.443708027386E-05
  0.473033706322E-05  0.504297583040E-05  0.537627756769E-05  0.573160792998E-05  0.611042283015E-05
  0.651427440423E-05  0.694481737083E-05  0.740381581081E-05  0.789315039498E-05  0.841482608954E-05
  0.897098037062E-05  0.956389198185E-05  0.101959902705E-04  0.108698651408E-04  0.115882776648E-04
  0.123541713948E-04  0.131706844227E-04  0.140411622371E-04  0.149691714294E-04  0.159585143061E-04
  0.170132444659E-04  0.181376834076E-04  0.193364382335E-04  0.206144205247E-04  0.219768664617E-04
  0.234293582763E-04  0.249778471196E-04  0.266286774414E-04  0.283886129812E-04  0.302648644753E-04
  0.322651191955E-04  0.343975724388E-04  0.366709610981E-04  0.390945994506E-04  0.416784173105E-04
  0.444330007021E-04  0.473696352208E-04  0.505003522568E-04  0.538379782741E-04  0.573961873435E-04
  0.611895571458E-04  0.652336286743E-04  0.695449698803E-04  0.741412435223E-04  0.790412794959E-04
  0.842651519402E-04  0.898342614362E-04  0.957714226328E-04  0.102100957658E-03  0.108848795699E-03
  0.116042579153E-03  0.123711776790E-03  0.131887804381E-03  0.140604153292E-03  0.149896527561E-03
  0.159802990021E-03  0.170364118071E-03  0.181623169713E-03  0.193626260555E-03  0.206422552478E-03
  0.220064454753E-03  0.234607838418E-03  0.250112264788E-03  0.266641229031E-03  0.284262419800E-03
  0.303047995968E-03  0.323074881602E-03  0.344425080365E-03  0.367186010626E-03  0.391450862630E-03
  0.417318979182E-03  0.444896261386E-03  0.474295601070E-03  0.505637341656E-03  0.539049769329E-03
  0.574669636491E-03  0.612642719602E-03  0.653124413659E-03  0.696280365698E-03  0.742287149867E-03
  0.791332986775E-03  0.843618509986E-03  0.899357582746E-03  0.958778168169E-03  0.102212325638E-02
  0.108965185227E-02  0.116164002781E-02  0.123838204309E-02  0.132019154043E-02  0.140740281643E-02
  0.150037217680E-02  0.159947937932E-02  0.170512917064E-02  0.181775292280E-02  0.193781037587E-02
  0.206579149347E-02  0.220221843819E-02  0.234764767468E-02  0.250267220823E-02  0.266792396745E-02
  0.284407634001E-02  0.303184687099E-02  0.323200013382E-02  0.344535078455E-02  0.367276681060E-02
  0.391517298589E-02  0.417355454486E-02  0.444896108852E-02  0.474251073644E-02  0.505539453921E-02
  0.538888116687E-02  0.574432188909E-02  0.612315586434E-02  0.652691575539E-02  0.695723368973E-02
  0.741584758416E-02  0.790460785347E-02  0.842548452417E-02  0.898057477473E-02  0.957211092462E-02
  0.102024688953E-01  0.108741771663E-01  0.115899262515E-01  0.123525787189E-01  0.131651797798E-01
  0.140309684717E-01  0.149533894617E-01  0.159361054918E-01  0.169830104949E-01  0.180982434008E-01
  0.192862026580E-01  0.205515614895E-01  0.218992839026E-01  0.233346414687E-01  0.248632308849E-01
  0.264909923259E-01  0.282242285907E-01  0.300696250393E-01  0.320342703110E-01  0.341256778041E-01
  0.363518078891E-01  0.387210908133E-01  0.412424502406E-01  0.439253273576E-01  0.467797054517E-01
  0.498161348508E-01  0.530457580857E-01  0.564803351074E-01  0.601322683605E-01  0.640146274720E-01
  0.681411732768E-01  0.725263808469E-01  0.771854611397E-01  0.821343808176E-01  0.873898797182E-01
  0.929694853799E-01  0.988915239352E-01  0.105175126588E+00  0.111840230782E+00  0.118907575043E+00
  0.126398686349E+00  0.134335858734E+00  0.142742121660E+00  0.151641196547E+00  0.161057439613E+00
  0.171015769032E+00  0.181541574143E+00  0.192660604263E+00  0.204398834389E+00  0.216782304827E+00
  0.229836931552E+00  0.243588283846E+00  0.258061325494E+00  0.273280115639E+00  0.289267465152E+00
  0.306044544244E+00  0.323630436928E+00  0.342041637946E+00  0.361291487809E+00  0.381389541877E+00
  0.402340869725E+00  0.424145281696E+00  0.446796480344E+00  0.470281135683E+00  0.494577884660E+00
  0.519656257291E+00  0.545475534388E+00  0.571983544929E+00  0.599115414922E+00  0.626792284164E+00
  0.654920012756E+00  0.683387905542E+00  0.712067489967E+00  0.740811391165E+00  0.769452357321E+00
  0.797802498521E+00  0.825652813107E+00  0.852773086774E+00  0.878912260834E+00  0.903799376537E+00
  0.927145211316E+00  0.948644729067E+00  0.967980468734E+00  0.984826991676E+00  0.998856496335E+00
  0.100974568607E+01  0.101718393963E+01  0.102088278044E+01  0.102058656712E+01  0.101608423040E+01
  0.100722175772E+01  0.993914974675E+00  0.976161992416E+00  0.954054483850E+00  0.927786727265E+00
  0.897661124433E+00  0.864088681660E+00  0.827582764164E+00  0.788744335242E+00  0.748236921966E+00
  0.706749770376E+00  0.664948137448E+00  0.623410492715E+00  0.582553646363E+00  0.542569924698E+00
  0.503595441965E+00  0.465789260348E+00  0.429290424755E+00  0.394217109581E+00  0.360667471434E+00
  0.328720861164E+00  0.298439329929E+00  0.269869322571E+00  0.243043305094E+00  0.217980817892E+00
  0.194688252556E+00  0.173156925523E+00  0.153360133658E+00  0.135251353373E+00  0.118765865573E+00
  0.103825788360E+00  0.903459536970E-01  0.782381886002E-01  0.674135342515E-01  0.577832098186E-01
  0.492591432332E-01  0.417544694948E-01  0.351840867055E-01  0.294652292112E-01  0.245179926179E-01
  0.202657672020E-01  0.166355725088E-01  0.135583150370E-01  0.109690040671E-01  0.880694801380E-02
  0.701593482223E-02  0.554438064022E-02  0.434542455745E-02  0.337695020841E-02  0.260152405669E-02
  0.198625016146E-02  0.150254947793E-02  0.112587721296E-02  0.835394521681E-03  0.613611416974E-03
  0.446016795571E-03  0.320709524088E-03  0.228042026503E-03  0.160285114181E-03  0.111320153533E-03
  0.763622544975E-04  0.517161011961E-04  0.345643915190E-04
 ae wavefunction
 -0.105761351531E-05 -0.112136177799E-05 -0.118865718120E-05 -0.125971488135E-05 -0.133476237287E-05
 -0.141404025730E-05 -0.149780305551E-05 -0.158632006916E-05 -0.167987629607E-05 -0.177877339978E-05
 -0.188333074042E-05 -0.199388646555E-05 -0.211079867340E-05 -0.223444664236E-05 -0.236523214114E-05
 -0.250358081634E-05 -0.264994367082E-05 -0.280479862911E-05 -0.296865220461E-05 -0.314204126980E-05
 -0.332553493502E-05 -0.351973655084E-05 -0.372528582531E-05 -0.394286109194E-05 -0.417318169895E-05
 -0.441701056899E-05 -0.467515690449E-05 -0.494847907728E-05 -0.523788769041E-05 -0.554434884088E-05
 -0.586888758502E-05 -0.621259162584E-05 -0.657661523547E-05 -0.696218342390E-05 -0.737059637626E-05
 -0.780323417078E-05 -0.826156179865E-05 -0.874713450342E-05 -0.926160346188E-05 -0.980672182765E-05
 -0.103843511614E-04 -0.109964682721E-04 -0.116451724970E-04 -0.123326934470E-04 -0.130613992487E-04
 -0.138338053149E-04 -0.146525836777E-04 -0.155205729196E-04 -0.164407887427E-04 -0.174164352158E-04
 -0.184509167437E-04 -0.195478508042E-04 -0.207110815047E-04 -0.219446940069E-04 -0.232530298831E-04
 -0.246407034412E-04 -0.261126191373E-04 -0.276739900531E-04 -0.293303575966E-04 -0.310876124690E-04
 -0.329520169409E-04 -0.349302286069E-04 -0.370293256233E-04 -0.392568335776E-04 -0.416207540944E-04
 -0.441295952467E-04 -0.467924039404E-04 -0.496188003508E-04 -0.526190145694E-04 -0.558039256066E-04
 -0.591851028640E-04 -0.627748502639E-04 -0.665862532086E-04 -0.706332285065E-04 -0.749305775050E-04
 -0.794940425864E-04 -0.843403672740E-04 -0.894873601503E-04 -0.949539628284E-04 -0.100760322241E-03
 -0.106927867523E-03 -0.113479391732E-03 -0.120439138763E-03 -0.127832895741E-03 -0.135688091245E-03
 -0.144033899721E-03 -0.152901352464E-03 -0.162323455576E-03 -0.172335315325E-03 -0.182974271365E-03
 -0.194280038281E-03 -0.206294855976E-03 -0.219063649476E-03 -0.232634198590E-03 -0.247057318229E-03
 -0.262387049828E-03 -0.278680864658E-03 -0.295999879684E-03 -0.314409086732E-03 -0.333977595768E-03
 -0.354778893102E-03 -0.376891115402E-03 -0.400397340454E-03 -0.425385895632E-03 -0.451950685127E-03
 -0.480191536986E-03 -0.510214571149E-03 -0.542132589656E-03 -0.576065490260E-03 -0.612140704844E-03
 -0.650493663980E-03 -0.691268289099E-03 -0.734617513834E-03 -0.780703836106E-03 -0.829699902687E-03
 -0.881789127962E-03 -0.937166348734E-03 -0.996038517051E-03 -0.105862543300E-02 -0.112516051964E-02
 -0.119589164215E-02 -0.127108197365E-02 -0.135101090983E-02 -0.143597503509E-02 -0.152628914250E-02
 -0.162228731046E-02 -0.172432403857E-02 -0.183277544569E-02 -0.194804053298E-02 -0.207054251501E-02
 -0.220073022185E-02 -0.233907957558E-02 -0.248609514390E-02 -0.264231177477E-02 -0.280829631479E-02
 -0.298464941501E-02 -0.317200742753E-02 -0.337104439609E-02 -0.358247414429E-02 -0.380705246454E-02
 -0.404557941132E-02 -0.429890170173E-02 -0.456791522672E-02 -0.485356767583E-02 -0.515686127834E-02
 -0.547885566359E-02 -0.582067084264E-02 -0.618349031358E-02 -0.656856429204E-02 -0.697721306847E-02
 -0.741083049273E-02 -0.787088758656E-02 -0.835893628344E-02 -0.887661329488E-02 -0.942564410117E-02
 -0.100078470639E-01 -0.106251376565E-01 -0.112795328074E-01 -0.119731553504E-01 -0.127082385736E-01
 -0.134871308583E-01 -0.143123003966E-01 -0.151863399751E-01 -0.161119718084E-01 -0.170920524073E-01
 -0.181295774590E-01 -0.192276866996E-01 -0.203896687499E-01 -0.216189658888E-01 -0.229191787294E-01
 -0.242940707625E-01 -0.257475727268E-01 -0.272837867615E-01 -0.289069902905E-01 -0.306216395843E-01
 -0.324323729401E-01 -0.343440134127E-01 -0.363615710257E-01 -0.384902443835E-01 -0.407354216003E-01
 -0.431026804520E-01 -0.455977876535E-01 -0.482266971517E-01 -0.509955473204E-01 -0.539106569325E-01
 -0.569785197775E-01 -0.602057977829E-01 -0.635993124905E-01 -0.671660347285E-01 -0.709130723122E-01
 -0.748476555968E-01 -0.789771206985E-01 -0.833088901917E-01 -0.878504510802E-01 -0.926093298381E-01
 -0.975930643057E-01 -0.102809172223E+00 -0.108265116177E+00 -0.113968264746E+00 -0.119925849605E+00
 -0.126144918381E+00 -0.132632283035E+00 -0.139394463552E+00 -0.146437626755E+00 -0.153767520036E+00
 -0.161389399845E+00 -0.169307954773E+00 -0.177527223131E+00 -0.186050504894E+00 -0.194880267990E+00
 -0.204018048889E+00 -0.213464347541E+00 -0.223218516745E+00 -0.233278646093E+00 -0.243641440717E+00
 -0.254302095120E+00 -0.265254162498E+00 -0.276489420013E+00 -0.287997730646E+00 -0.299766902325E+00
 -0.311782545231E+00 -0.324027928303E+00 -0.336483836159E+00 -0.349128427841E+00 -0.361937098951E+00
 -0.374882348913E+00 -0.387933655129E+00 -0.401057355750E+00 -0.414216542458E+00 -0.427370964142E+00
 -0.440476941509E+00 -0.453487291735E+00 -0.466351261463E+00 -0.479014466262E+00 -0.491418835556E+00
 -0.503502564348E+00 -0.515200076604E+00 -0.526442009360E+00 -0.537155230240E+00 -0.547262903112E+00
 -0.556684615958E+00 -0.565336580977E+00 -0.573131910423E+00 -0.579980963571E+00 -0.585791755104E+00
 -0.590470413630E+00 -0.593921682382E+00 -0.596049458994E+00 -0.596757375077E+00 -0.595949417843E+00
 -0.593530595121E+00 -0.589407643459E+00 -0.583489777216E+00 -0.575689475137E+00 -0.565923300171E+00
 -0.554112748236E+00 -0.540185121134E+00 -0.524074418954E+00 -0.505722246794E+00 -0.485078730364E+00
 -0.462103434062E+00 -0.436766274603E+00 -0.409048421756E+00 -0.378943177015E+00 -0.346456818998E+00
 -0.311609403264E+00 -0.274435502290E+00 -0.234984869934E+00 -0.193323013199E+00 -0.149531653620E+00
 -0.103709060428E+00 -0.559702392454E-01 -0.644696280378E-02  0.447123654264E-01  0.973430189051E-01
  0.151264427312E+00  0.206280828346E+00  0.262182102474E+00  0.318744825310E+00  0.375733615229E+00
  0.432902911651E+00  0.489999363456E+00  0.546764950231E+00  0.602940630892E+00  0.658269551045E+00
  0.712497883080E+00  0.765371361170E+00  0.816628017023E+00  0.865991996555E+00  0.913175105604E+00
  0.957887346412E+00  0.999849849407E+00  0.103880336415E+01  0.107451153445E+01  0.110676174355E+01
  0.113536575833E+01  0.116016094249E+01  0.118101201061E+01  0.119781302380E+01  0.121048927771E+01
  0.121899878737E+01  0.122333317712E+01  0.122351789730E+01  0.121961177846E+01  0.121170598749E+01
  0.119992247547E+01  0.118441201139E+01  0.116535189326E+01  0.114294341723E+01  0.111740917695E+01
  0.108899025436E+01  0.105794334818E+01  0.102453788038E+01  0.989053100162E+00  0.951775200456E+00
  0.912994444895E+00  0.873002299728E+00  0.832088560862E+00  0.790538473758E+00  0.748629860178E+00
  0.706630289656E+00  0.664794365748E+00  0.623361226342E+00  0.582552370072E+00  0.542569924698E+00
  0.503595441965E+00  0.465789260348E+00  0.429290424755E+00  0.394217109581E+00  0.360667471434E+00
  0.328720861164E+00  0.298439329929E+00  0.269869322571E+00  0.243043305094E+00  0.217980817892E+00
  0.194688252556E+00  0.173156925523E+00  0.153360133658E+00  0.135251353373E+00  0.118765865573E+00
  0.103825788360E+00  0.903459536970E-01  0.782381886002E-01  0.674135342515E-01  0.577832098186E-01
  0.492591432332E-01  0.417544694948E-01  0.351840867055E-01  0.294652292112E-01  0.245179926179E-01
  0.202657672020E-01  0.166355725088E-01  0.135583150370E-01  0.109690040671E-01  0.880694801380E-02
  0.701593482223E-02  0.554438064022E-02  0.434542455745E-02  0.337695020841E-02  0.260152405669E-02
  0.198625016146E-02  0.150254947793E-02  0.112587721296E-02  0.835394521681E-03  0.613611416974E-03
  0.446016795571E-03  0.320709524088E-03  0.228042026503E-03  0.160285114181E-03  0.111320153533E-03
  0.763622544975E-04  0.517161011961E-04  0.345643915190E-04
 pseudo wavefunction
  0.747227044633E-08  0.796613072292E-08  0.849263140964E-08  0.905392978948E-08  0.965232572541E-08
  0.102902710839E-07  0.109703797810E-07  0.116954384931E-07  0.124684180742E-07  0.132924857295E-07
  0.141710179924E-07  0.151076145594E-07  0.161061130394E-07  0.171706046784E-07  0.183054511223E-07
  0.195153022889E-07  0.208051154201E-07  0.221801753938E-07  0.236461163781E-07  0.252089449168E-07
  0.268750645406E-07  0.286513020047E-07  0.305449352611E-07  0.325637232790E-07  0.347159378363E-07
  0.370103974127E-07  0.394565033223E-07  0.420642782342E-07  0.448444072402E-07  0.478082816350E-07
  0.509680455912E-07  0.543366459189E-07  0.579278851138E-07  0.617564779114E-07  0.658381115793E-07
  0.701895101940E-07  0.748285031662E-07  0.797740982948E-07  0.850465596494E-07  0.906674906004E-07
  0.966599223363E-07  0.103048408232E-06  0.109859124452E-06  0.117119977208E-06  0.124860717098E-06
  0.133113061009E-06  0.141910822070E-06  0.151290048202E-06  0.161289169818E-06  0.171949157289E-06
  0.183313688813E-06  0.195429329383E-06  0.208345721586E-06  0.222115789001E-06  0.236795953053E-06
  0.252446364192E-06  0.269131148350E-06  0.286918669697E-06  0.305881810748E-06  0.326098270995E-06
  0.347650885271E-06  0.370627963158E-06  0.395123650822E-06  0.421238316770E-06  0.449078963094E-06
  0.478759663906E-06  0.510402032735E-06  0.544135720832E-06  0.580098948397E-06  0.618439070917E-06
  0.659313182943E-06  0.702888761761E-06  0.749344353611E-06  0.798870305259E-06  0.851669543916E-06
  0.907958408708E-06  0.967967537096E-06  0.103194280988E-05  0.110014635868E-05  0.117285763995E-05
  0.125037458004E-05  0.133301479590E-05  0.142111689647E-05  0.151504187008E-05  0.161517456353E-05
  0.172192525897E-05  0.183573135495E-05  0.195705915857E-05  0.208640579616E-05  0.222430125008E-05
  0.237131053033E-05  0.252803598948E-05  0.269511979078E-05  0.287324653927E-05  0.306314608680E-05
  0.326559652248E-05  0.348142736072E-05  0.371152294002E-05  0.395682604630E-05  0.421834177580E-05
  0.449714165318E-05  0.479436802186E-05  0.511123872449E-05  0.544905209268E-05  0.580919226662E-05
  0.619313486615E-05  0.660245303669E-05  0.703882389472E-05  0.750403539917E-05  0.799999367703E-05
  0.852873083297E-05  0.909241327516E-05  0.969335059125E-05  0.103340050110E-04  0.110170014940E-04
  0.117451384848E-04  0.125213993773E-04  0.133489647385E-04  0.142312253389E-04  0.151717960442E-04
  0.161745306253E-04  0.172435375463E-04  0.183831967968E-04  0.195981778356E-04  0.208934587203E-04
  0.222743465013E-04  0.237464989626E-04  0.253159478006E-04  0.269891233323E-04  0.287728808384E-04
  0.306745286449E-04  0.327018580616E-04  0.348631752978E-04  0.371673354866E-04  0.396237789581E-04
  0.422425699071E-04  0.450344376175E-04  0.480108204083E-04  0.511839124833E-04  0.545667138762E-04
  0.581730836932E-04  0.620177968741E-04  0.661166047016E-04  0.704862993066E-04  0.751447824350E-04
  0.801111387546E-04  0.854057140034E-04  0.910501982988E-04  0.970677149469E-04  0.103482915116E-03
  0.110322078760E-03  0.117613222205E-03  0.125386212838E-03  0.133672891364E-03  0.142507202134E-03
  0.151925332073E-03  0.161965858777E-03  0.172669908379E-03  0.184081323828E-03  0.196246844277E-03
  0.209216296297E-03  0.223042797695E-03  0.237782974786E-03  0.253497193977E-03  0.270249808620E-03
  0.288109422137E-03  0.307149168481E-03  0.327447011068E-03  0.349086061412E-03  0.372154918726E-03
  0.396748031894E-03  0.422966085259E-03  0.450916409801E-03  0.480713421357E-03  0.512479087660E-03
  0.546343426084E-03  0.582445034093E-03  0.620931654531E-03  0.661960778042E-03  0.705700285014E-03
  0.752329129647E-03  0.802038068868E-03  0.855030439024E-03  0.911522983435E-03  0.971746734131E-03
  0.103594795126E-02  0.110438912389E-02  0.117735003625E-02  0.125512890348E-02  0.133804358150E-02
  0.142643285573E-02  0.152065781363E-02  0.162110330660E-02  0.172817950675E-02  0.184232356471E-02
  0.196400137490E-02  0.209370945498E-02  0.223197694680E-02  0.237936774645E-02  0.253648277153E-02
  0.270396237418E-02  0.288248890903E-02  0.307278946563E-02  0.327563877554E-02  0.349186230478E-02
  0.372233954305E-02  0.396800750156E-02  0.422986443224E-02  0.450897378141E-02  0.480646839214E-02
  0.512355496969E-02  0.546151882577E-02  0.582172891758E-02  0.620564319864E-02  0.661481429924E-02
  0.705089555487E-02  0.751564740206E-02  0.801094416155E-02  0.853878122987E-02  0.910128270055E-02
  0.970070943761E-02  0.103394676239E-01  0.110201178079E-01  0.117453844734E-01  0.125181661552E-01
  0.133415461274E-01  0.142188036868E-01  0.151534260578E-01  0.161491209422E-01  0.172098297377E-01
  0.183397414479E-01  0.195433073053E-01  0.208252561260E-01  0.221906104155E-01  0.236447032368E-01
  0.251931958543E-01  0.268420961580E-01  0.285977778694E-01  0.304670005231E-01  0.324569302101E-01
  0.345751610605E-01  0.368297374324E-01  0.392291767584E-01  0.417824929912E-01  0.444992205673E-01
  0.473894387924E-01  0.504637965251E-01  0.537335370117E-01  0.572105226951E-01  0.609072597817E-01
  0.648369223179E-01  0.690133754758E-01  0.734511977016E-01  0.781657013221E-01  0.831729511374E-01
  0.884897804598E-01  0.941338039729E-01  0.100123426699E+00  0.106477848256E+00  0.113217061481E+00
  0.120361844366E+00  0.127933744117E+00  0.135955052008E+00  0.144448767525E+00  0.153438550122E+00
  0.162948656738E+00  0.173003862993E+00  0.183629365792E+00  0.194850664825E+00  0.206693420226E+00
  0.219183283401E+00  0.232345697823E+00  0.246205666324E+00  0.260787481226E+00  0.276114413418E+00
  0.292208356372E+00  0.309089420931E+00  0.326775476693E+00  0.345281635849E+00  0.364619675520E+00
  0.384797394935E+00  0.405817904340E+00  0.427678843263E+00  0.450371526791E+00  0.473880019923E+00
  0.498180141860E+00  0.523238404362E+00  0.549010891185E+00  0.575442089091E+00  0.602463685174E+00
  0.629993350296E+00  0.657933534389E+00  0.686170306273E+00  0.714572278545E+00  0.742989666998E+00
  0.771253543832E+00  0.799175354551E+00  0.826546779624E+00  0.853140033360E+00  0.878708703457E+00
  0.902989244611E+00  0.925703247342E+00  0.946560607550E+00  0.965263721499E+00  0.981512822977E+00
  0.995012561671E+00  0.100547989151E+01  0.101265329154E+01  0.101630327609E+01  0.101624406228E+01
  0.101234614694E+01  0.100454940040E+01  0.992876107727E+00  0.977443181725E+00  0.958472538166E+00
  0.936298372095E+00  0.911369818881E+00  0.884247247989E+00  0.855590254308E+00  0.826135326012E+00
  0.796661237136E+00  0.767940507881E+00  0.740675877962E+00  0.715421735708E+00  0.692518768936E+00
  0.672296575049E+00  0.655164381286E+00  0.641558996932E+00  0.000000000000E+00  0.000000000000E+00
  0.000000000000E+00  0.000000000000E+00  0.000000000000E+00  0.000000000000E+00  0.000000000000E+00
  0.000000000000E+00  0.000000000000E+00  0.000000000000E+00  0.000000000000E+00  0.000000000000E+00
  0.000000000000E+00  0.000000000000E+00  0.000000000000E+00  0.000000000000E+00  0.000000000000E+00
  0.000000000000E+00  0.000000000000E+00  0.000000000000E+00  0.000000000000E+00  0.000000000000E+00
  0.000000000000E+00  0.000000000000E+00  0.000000000000E+00  0.000000000000E+00  0.000000000000E+00
  0.000000000000E+00  0.000000000000E+00  0.000000000000E+00  0.000000000000E+00  0.000000000000E+00
  0.000000000000E+00  0.000000000000E+00  0.000000000000E+00  0.000000000000E+00  0.000000000000E+00
  0.000000000000E+00  0.000000000000E+00  0.000000000000E+00  0.000000000000E+00  0.000000000000E+00
  0.000000000000E+00  0.000000000000E+00  0.000000000000E+00
 ae wavefunction
 -0.101560690341E-05 -0.107682318791E-05 -0.114144572634E-05 -0.120968112945E-05 -0.128174785594E-05
 -0.135787695104E-05 -0.143831282646E-05 -0.152331408759E-05 -0.161315441258E-05 -0.170812348340E-05
 -0.180852797566E-05 -0.191469260625E-05 -0.202696125026E-05 -0.214569812177E-05 -0.227128903182E-05
 -0.240414272102E-05 -0.254469227907E-05 -0.269339664810E-05 -0.285074222355E-05 -0.301724455416E-05
 -0.319345014609E-05 -0.337993838573E-05 -0.357732357292E-05 -0.378625709881E-05 -0.400742974018E-05
 -0.424157411757E-05 -0.448946729311E-05 -0.475193354542E-05 -0.502984730975E-05 -0.532413631120E-05
 -0.563578489241E-05 -0.596583755447E-05 -0.631540272354E-05 -0.668565675407E-05 -0.707784818977E-05
 -0.749330229423E-05 -0.793342587138E-05 -0.839971239282E-05 -0.889374745304E-05 -0.941721457301E-05
 -0.997190137493E-05 -0.105597061520E-04 -0.111826448587E-04 -0.118428585492E-04 -0.125426212915E-04
 -0.132843485901E-04 -0.140706063476E-04 -0.149041204025E-04 -0.157877866776E-04 -0.167246819805E-04
 -0.177180754983E-04 -0.187714410277E-04 -0.198884699940E-04 -0.210730853020E-04 -0.223294560832E-04
 -0.236620133720E-04 -0.250754668266E-04 -0.265748224726E-04 -0.281654016214E-04 -0.298528610042E-04
 -0.316432141633E-04 -0.335428542633E-04 -0.355585783267E-04 -0.376976130353E-04 -0.399676422011E-04
 -0.423768359687E-04 -0.449338819143E-04 -0.476480181139E-04 -0.505290683346E-04 -0.535874794887E-04
 -0.568343614582E-04 -0.602815294714E-04 -0.639415491982E-04 -0.678277846916E-04 -0.719544494116E-04
 -0.763366604765E-04 -0.809904963819E-04 -0.859330583800E-04 -0.911825357515E-04 -0.967582752235E-04
 -0.102680854798E-03 -0.108972162226E-03 -0.115655478474E-03 -0.122755566440E-03 -0.130298765285E-03
 -0.138313090688E-03 -0.146828341431E-03 -0.155876212666E-03 -0.165490416295E-03 -0.175706808901E-03
 -0.186563527669E-03 -0.198101134802E-03 -0.210362770976E-03 -0.223394318266E-03 -0.237244573299E-03
 -0.251965431075E-03 -0.267612080205E-03 -0.284243210191E-03 -0.301921231497E-03 -0.320712509165E-03
 -0.340687610759E-03 -0.361921569498E-03 -0.384494163472E-03 -0.408490211856E-03 -0.433999889144E-03
 -0.461119058405E-03 -0.489949624701E-03 -0.520599909802E-03 -0.553185049363E-03 -0.587827413937E-03
 -0.624657055078E-03 -0.663812177970E-03 -0.705439642057E-03 -0.749695491209E-03 -0.796745515067E-03
 -0.846765843229E-03 -0.899943574055E-03 -0.956477439970E-03 -0.101657851117E-02 -0.108047093975E-02
 -0.114839274638E-02 -0.122059665166E-02 -0.129735095450E-02 -0.137894045983E-02 -0.146566745814E-02
 -0.155785275928E-02 -0.165583678332E-02 -0.175998071094E-02 -0.187066769640E-02 -0.198830414576E-02
 -0.211332106328E-02 -0.224617546932E-02 -0.238735189227E-02 -0.253736393824E-02 -0.269675594125E-02
 -0.286610469737E-02 -0.304602128595E-02 -0.323715298123E-02 -0.344018525761E-02 -0.365584389177E-02
 -0.388489716485E-02 -0.412815816767E-02 -0.438648721238E-02 -0.466079435291E-02 -0.495204201740E-02
 -0.526124775496E-02 -0.558948709902E-02 -0.593789654939E-02 -0.630767667462E-02 -0.670009533603E-02
 -0.711649103412E-02 -0.755827637765E-02 -0.802694167527E-02 -0.852405864836E-02 -0.905128426362E-02
 -0.961036468251E-02 -0.102031393240E-01 -0.108315450357E-01 -0.114976203680E-01 -0.122035099424E-01
 -0.129514689071E-01 -0.137438674676E-01 -0.145831954810E-01 -0.154720670984E-01 -0.164132254405E-01
 -0.174095472851E-01 -0.184640477468E-01 -0.195798849222E-01 -0.207603644749E-01 -0.220089441271E-01
 -0.233292380249E-01 -0.247250209367E-01 -0.262002322421E-01 -0.277589796654E-01 -0.294055426980E-01
 -0.311443756552E-01 -0.329801103021E-01 -0.349175579803E-01 -0.369617111608E-01 -0.391177443399E-01
 -0.413910141907E-01 -0.437870588747E-01 -0.463115964093E-01 -0.489705219810E-01 -0.517699040859E-01
 -0.547159793693E-01 -0.578151460312E-01 -0.610739556515E-01 -0.644991032851E-01 -0.680974156641E-01
 -0.718758373403E-01 -0.758414145894E-01 -0.800012768933E-01 -0.843626158071E-01 -0.889326610145E-01
 -0.937186533646E-01 -0.987278146836E-01 -0.103967314146E+00 -0.109444230995E+00 -0.115165513388E+00
 -0.121137933170E+00 -0.127368036344E+00 -0.133862089057E+00 -0.140626018889E+00 -0.147665351281E+00
 -0.154985140926E+00 -0.162589897988E+00 -0.170483509015E+00 -0.178669152481E+00 -0.187149208879E+00
 -0.195925165363E+00 -0.204997514962E+00 -0.214365650462E+00 -0.224027753085E+00 -0.233980676181E+00
 -0.244219824222E+00 -0.254739027461E+00 -0.265530412728E+00 -0.276584270935E+00 -0.287888921991E+00
 -0.299430577970E+00 -0.311193205515E+00 -0.323158388663E+00 -0.335305193422E+00 -0.347610035611E+00
 -0.360046553637E+00 -0.372585487893E+00 -0.385194568431E+00 -0.397838412254E+00 -0.410478431067E+00
 -0.423072749518E+00 -0.435576133083E+00 -0.447939923936E+00 -0.460111983012E+00 -0.472036637285E+00
 -0.483654633535E+00 -0.494903103257E+00 -0.505715547411E+00 -0.516021853184E+00 -0.525748356893E+00
 -0.534817966555E+00 -0.543150353703E+00 -0.550662217830E+00 -0.557267619001E+00 -0.562878369306E+00
 -0.567404472265E+00 -0.570754602553E+00 -0.572836623014E+00 -0.573558139635E+00 -0.572827096635E+00
 -0.570552412881E+00 -0.566644659371E+00 -0.561016775683E+00 -0.553584822021E+00 -0.544268762744E+00
 -0.532993277212E+00 -0.519688593314E+00 -0.504291339154E+00 -0.486745407923E+00 -0.467002830677E+00
 -0.445024650866E+00 -0.420781793923E+00 -0.394255923823E+00 -0.365440277753E+00 -0.334340468167E+00
 -0.300975240395E+00 -0.265377172138E+00 -0.227593299821E+00 -0.187685655342E+00 -0.145731696261E+00
 -0.101824612351E+00 -0.560734929468E-01 -0.860334214221E-02  0.404450668533E-01  0.909155022016E-01
  0.142636748992E+00  0.195423250580E+00  0.249075925508E+00  0.303383192944E+00  0.358122280691E+00
  0.413060945295E+00  0.467959776305E+00  0.522575203086E+00  0.576663009122E+00  0.629981427997E+00
  0.682291975829E+00  0.733356157769E+00  0.782928521819E+00  0.830750728219E+00  0.876553013304E+00
  0.920064278177E+00  0.961024492857E+00  0.999192855324E+00  0.103435094971E+01  0.106630357027E+01
  0.109487935096E+01  0.111993194345E+01  0.114134172045E+01  0.115901772070E+01  0.117289950267E+01
  0.118295862508E+01  0.118919957165E+01  0.119166004624E+01  0.119041065114E+01  0.118555401253E+01
  0.117722344372E+01  0.116558124085E+01  0.115081670491E+01  0.113314397479E+01  0.111279974934E+01
  0.109004096784E+01  0.106514250593E+01  0.103839494066E+01  0.101010242113E+01  0.980580679646E+00
  0.950155204950E+00  0.919159598963E+00  0.887934137889E+00  0.856824569911E+00  0.826181203111E+00
  0.796358368472E+00  0.767714387134E+00  0.740612217600E+00  0.715421001848E+00  0.692518768936E+00
  0.672296575049E+00  0.655164381286E+00  0.641558996932E+00  0.000000000000E+00  0.000000000000E+00
  0.000000000000E+00  0.000000000000E+00  0.000000000000E+00  0.000000000000E+00  0.000000000000E+00
  0.000000000000E+00  0.000000000000E+00  0.000000000000E+00  0.000000000000E+00  0.000000000000E+00
  0.000000000000E+00  0.000000000000E+00  0.000000000000E+00  0.000000000000E+00  0.000000000000E+00
  0.000000000000E+00  0.000000000000E+00  0.000000000000E+00  0.000000000000E+00  0.000000000000E+00
  0.000000000000E+00  0.000000000000E+00  0.000000000000E+00  0.000000000000E+00  0.000000000000E+00
  0.000000000000E+00  0.000000000000E+00  0.000000000000E+00  0.000000000000E+00  0.000000000000E+00
  0.000000000000E+00  0.000000000000E+00  0.000000000000E+00  0.000000000000E+00  0.000000000000E+00
  0.000000000000E+00  0.000000000000E+00  0.000000000000E+00  0.000000000000E+00  0.000000000000E+00
  0.000000000000E+00  0.000000000000E+00  0.000000000000E+00
 pseudo wavefunction
  0.308077296187E-12  0.339118876127E-12  0.373288176596E-12  0.410900343786E-12  0.452302277721E-12
  0.497875831750E-12  0.548041334405E-12  0.603261466129E-12  0.664045526612E-12  0.730954132101E-12
  0.804604386015E-12  0.885675570530E-12  0.974915411662E-12  0.107314697559E-11  0.118127625989E-11
  0.130030054958E-11  0.143131761519E-11  0.157553583758E-11  0.173428535293E-11  0.190903032069E-11
  0.210138242765E-11  0.231311575265E-11  0.254618312902E-11  0.280273415578E-11  0.308513502351E-11
  0.339599033791E-11  0.373816714233E-11  0.411482136070E-11  0.452942690489E-11  0.498580771483E-11
  0.548817302706E-11  0.604115619683E-11  0.664985743189E-11  0.731989083213E-11  0.805743616884E-11
  0.886929588123E-11  0.976295781588E-11  0.107466642877E-10  0.118294880995E-10  0.130214162210E-10
  0.143334418998E-10  0.157776660524E-10  0.173674088725E-10  0.191173326835E-10  0.210435771709E-10
  0.231639082396E-10  0.254978818698E-10  0.280670244842E-10  0.308950314869E-10  0.340079858085E-10
  0.374345984706E-10  0.412064733902E-10  0.453583988643E-10  0.499286684257E-10  0.549594340265E-10
  0.604970948090E-10  0.665927250483E-10  0.733025452142E-10  0.806884404965E-10  0.888185315767E-10
  0.977678029100E-10  0.107618794312E-09  0.118462362229E-09  0.130398517716E-09  0.143537348840E-09
  0.158000036035E-09  0.173919969756E-09  0.191443980747E-09  0.210733694271E-09  0.231967020792E-09
  0.255339796852E-09  0.281067591286E-09  0.309387693426E-09  0.340561301633E-09  0.374875932350E-09
  0.412648071878E-09  0.454226095351E-09  0.499993479814E-09  0.550372341060E-09  0.605827326818E-09
  0.666869902228E-09  0.734063067106E-09  0.808026548520E-09  0.889442516555E-09  0.979061876000E-09
  0.107771119197E-08  0.118630031336E-08  0.130583076437E-08  0.143740498165E-08  0.158223648206E-08
  0.174166105500E-08  0.191714908236E-08  0.211031909996E-08  0.232295272526E-08  0.255701108925E-08
  0.281465292399E-08  0.309825447253E-08  0.341043140504E-08  0.375406294308E-08  0.413231841458E-08
  0.454868648448E-08  0.500700733058E-08  0.551150806133E-08  0.606684170221E-08  0.667813011038E-08
  0.735101121315E-08  0.809169100620E-08  0.890700079088E-08  0.980446017870E-08  0.107923464438E-07
  0.118797708633E-07  0.130767627492E-07  0.143943619475E-07  0.158447206567E-07  0.174412155050E-07
  0.191985709210E-07  0.211329949332E-07  0.232623286529E-07  0.256062108187E-07  0.281862589181E-07
  0.310262685601E-07  0.341524329330E-07  0.375935843759E-07  0.413814602876E-07  0.455509958272E-07
  0.501406461058E-07  0.551927408391E-07  0.607538747320E-07  0.668753371955E-07  0.736135853579E-07
  0.810307647319E-07  0.891952823391E-07  0.981824375770E-07  0.108075116644E-06  0.118964556928E-06
  0.130951188403E-06  0.144145559796E-06  0.158669358060E-06  0.174656530552E-06  0.192254520269E-06
  0.211625625520E-06  0.232948496578E-06  0.256419783099E-06  0.282255947516E-06  0.310695261091E-06
  0.342000001061E-06  0.376458869109E-06  0.414389653448E-06  0.456142159080E-06  0.502101433206E-06
  0.552691315537E-06  0.608378346212E-06  0.669676067339E-06  0.737149757795E-06  0.811421644923E-06
  0.893176641124E-06  0.983168658215E-06  0.108222755771E-05  0.119126680106E-05  0.131129187030E-05
  0.144340953667E-05  0.158883806258E-05  0.174891843081E-05  0.192512670440E-05  0.211908763099E-05
  0.233258961683E-05  0.256760120825E-05  0.282628923242E-05  0.311103876403E-05  0.342447510194E-05
  0.376948795757E-05  0.414925807789E-05  0.456728654738E-05  0.502742703872E-05  0.553392130838E-05
  0.609143826336E-05  0.670511695804E-05  0.738061391590E-05  0.812415521077E-05  0.894259378555E-05
  0.984347253437E-05  0.108350937270E-04  0.119265954118E-04  0.131280354980E-04  0.144504842872E-04
  0.159061263020E-04  0.175083723436E-04  0.192719828036E-04  0.212132033581E-04  0.233499142840E-04
  0.257017947609E-04  0.282905036597E-04  0.311398784650E-04  0.342761541470E-04  0.377282039736E-04
  0.415278044570E-04  0.457099268411E-04  0.503130577799E-04  0.553795521146E-04  0.609560209484E-04
  0.670937585327E-04  0.738492118238E-04  0.812844969513E-04  0.894679672556E-04  0.984748380088E-04
  0.108387873435E-03  0.119298142194E-03  0.131305848104E-03  0.144521243509E-03  0.159065633469E-03
  0.175072479681E-03  0.192688613957E-03  0.212075571985E-03  0.233411059172E-03  0.256890561462E-03
  0.282729115271E-03  0.311163252026E-03  0.342453134260E-03  0.376884901789E-03  0.414773248277E-03
  0.456464250351E-03  0.502338473507E-03  0.552814381249E-03  0.608352076384E-03  0.669457405945E-03
  0.736686464121E-03  0.810650530593E-03  0.892021485031E-03  0.981537742022E-03  0.108001075459E-02
  0.118833213857E-02  0.130748147440E-02  0.143853484788E-02  0.158267419612E-02  0.174119753035E-02
  0.191553011316E-02  0.210723667305E-02  0.231803474615E-02  0.254980924076E-02  0.280462832744E-02
  0.308476076431E-02  0.339269477402E-02  0.373115859598E-02  0.410314284473E-02  0.451192481170E-02
  0.496109485456E-02  0.545458502410E-02  0.599670008372E-02  0.659215108120E-02  0.724609163453E-02
  0.796415709511E-02  0.875250675006E-02  0.961786922095E-02  0.105675912089E-01  0.116096897232E-01
  0.127529079141E-01  0.140067746045E-01  0.153816675872E-01  0.168888807086E-01  0.185406947136E-01
  0.203504517583E-01  0.223326334200E-01  0.245029419359E-01  0.268783842896E-01  0.294773586193E-01
  0.323197422627E-01  0.354269805536E-01  0.388221752595E-01  0.425301712827E-01  0.465776399394E-01
  0.509931567787E-01  0.558072714986E-01  0.610525670621E-01  0.667637045999E-01  0.729774501181E-01
  0.797326783943E-01  0.870703487605E-01  0.950334467260E-01  0.103666884607E+00  0.113017353507E+00
  0.123133118157E+00  0.134063745306E+00  0.145859755568E+00  0.158572187958E+00  0.172252065836E+00
  0.186949752678E+00  0.202714186144E+00  0.219591979429E+00  0.237626379948E+00  0.256856077299E+00
  0.277313855243E+00  0.299025086475E+00  0.322006074398E+00  0.346262253250E+00  0.371786267098E+00
  0.398555959569E+00  0.426532320041E+00  0.455657448574E+00  0.485852621032E+00  0.517016557691E+00
  0.549024022631E+00  0.581724906716E+00  0.614943972740E+00  0.648481465568E+00  0.682114810196E+00
  0.715601633193E+00  0.748684343196E+00  0.781096488427E+00  0.812571066363E+00  0.842850884590E+00
  0.871700953292E+00  0.898922719232E+00  0.924369719451E+00  0.947963933098E+00  0.969711738777E+00
  0.989717946330E+00  0.100819588019E+01  0.102547097559E+01  0.104197485776E+01  0.105822648279E+01
  0.107479672941E+01  0.109225298182E+01  0.111108089985E+01  0.113158192552E+01  0.115378872372E+01
  0.117776772236E+01  0.120369867559E+01  0.123176763209E+01  0.000000000000E+00  0.000000000000E+00
  0.000000000000E+00  0.000000000000E+00  0.000000000000E+00  0.000000000000E+00  0.000000000000E+00
  0.000000000000E+00  0.000000000000E+00  0.000000000000E+00  0.000000000000E+00  0.000000000000E+00
  0.000000000000E+00  0.000000000000E+00  0.000000000000E+00  0.000000000000E+00  0.000000000000E+00
  0.000000000000E+00  0.000000000000E+00  0.000000000000E+00  0.000000000000E+00  0.000000000000E+00
  0.000000000000E+00  0.000000000000E+00  0.000000000000E+00  0.000000000000E+00  0.000000000000E+00
  0.000000000000E+00  0.000000000000E+00  0.000000000000E+00  0.000000000000E+00  0.000000000000E+00
  0.000000000000E+00  0.000000000000E+00  0.000000000000E+00  0.000000000000E+00  0.000000000000E+00
  0.000000000000E+00  0.000000000000E+00  0.000000000000E+00  0.000000000000E+00  0.000000000000E+00
  0.000000000000E+00  0.000000000000E+00  0.000000000000E+00
 ae wavefunction
  0.262965506671E-10  0.288232665149E-10  0.315633862470E-10  0.345372926686E-10  0.377671377837E-10
  0.412770126195E-10  0.450931320913E-10  0.492440365406E-10  0.537608116957E-10  0.586773285927E-10
  0.640305056406E-10  0.698605945998E-10  0.762114933541E-10  0.831310873055E-10  0.906716228383E-10
  0.988901153346E-10  0.107848795668E-09  0.117615598135E-09  0.128264694483E-09  0.139877078142E-09
  0.152541203158E-09  0.166353684054E-09  0.181420060733E-09  0.197855637481E-09  0.215786399354E-09
  0.235350017481E-09  0.256696948286E-09  0.279991638611E-09  0.305413844543E-09  0.333160076685E-09
  0.363445182974E-09  0.396504082942E-09  0.432593668056E-09  0.471994883631E-09  0.515015010767E-09
  0.561990167047E-09  0.613288047617E-09  0.669310929784E-09  0.730498966915E-09  0.797333799704E-09
  0.870342515747E-09  0.950101991372E-09  0.103724365300E-08  0.113245869905E-08  0.123650382716E-08
  0.135020751649E-08  0.147447691899E-08  0.161030541943E-08  0.175878092969E-08  0.192109498914E-08
  0.209855275026E-08  0.229258393596E-08  0.250475486470E-08  0.273678164699E-08  0.299054467070E-08
  0.326810449518E-08  0.357171930861E-08  0.390386407657E-08  0.426725157314E-08  0.466485547046E-08
  0.509993567762E-08  0.557606617592E-08  0.609716556984E-08  0.666753063623E-08  0.729187316976E-08
  0.797536043434E-08  0.872365959403E-08  0.954298650019E-08  0.104401592737E-07  0.114226571583E-07
  0.124986851509E-07  0.136772449904E-07  0.149682131365E-07  0.163824264076E-07  0.179317760604E-07
  0.196293111199E-07  0.214893518929E-07  0.235276146550E-07  0.257613486181E-07  0.282094863919E-07
  0.308928092783E-07  0.338341288364E-07  0.370584863566E-07  0.405933719835E-07  0.444689654412E-07
  0.487184004806E-07  0.533780553948E-07  0.584878721675E-07  0.640917070753E-07  0.702377158491E-07
  0.769787767846E-07  0.843729555483E-07  0.924840158075E-07  0.101381980094E-06  0.111143746006E-06
  0.121853763029E-06  0.133604776034E-06  0.146498641952E-06  0.160647226827E-06  0.176173391153E-06
  0.193212072115E-06  0.211911472264E-06  0.232434365044E-06  0.254959528608E-06  0.279683320497E-06
  0.306821406906E-06  0.336610661721E-06  0.369311251861E-06  0.405208927053E-06  0.444617534092E-06
  0.487881777365E-06  0.535380249629E-06  0.587528759343E-06  0.644783983344E-06  0.707647476494E-06
  0.776670072856E-06  0.852456716336E-06  0.935671762414E-06  0.102704479641E-05  0.112737701820E-05
  0.123754824802E-05  0.135852461308E-05  0.149136698060E-05  0.163724020883E-05  0.179742329466E-05
  0.197332050338E-05  0.216647357500E-05  0.237857510934E-05  0.261148324272E-05  0.286723773880E-05
  0.314807762810E-05  0.345646054308E-05  0.379508390862E-05  0.416690816432E-05  0.457518220868E-05
  0.502347127512E-05  0.551568746788E-05  0.605612320611E-05  0.664948784890E-05  0.730094779645E-05
  0.801617039139E-05  0.880137197152E-05  0.966337045856E-05  0.106096429001E-04  0.116483884206E-04
  0.127885970757E-04  0.140401251514E-04  0.154137774904E-04  0.169213974874E-04  0.185759654431E-04
  0.203917060308E-04  0.223842056920E-04  0.245705408484E-04  0.269694178918E-04  0.296013259950E-04
  0.324887038731E-04  0.356561217205E-04  0.391304796460E-04  0.429412240413E-04  0.471205834306E-04
  0.517038254746E-04  0.567295369363E-04  0.622399285577E-04  0.682811669485E-04  0.749037357499E-04
  0.821628285111E-04  0.901187758974E-04  0.988375100459E-04  0.108391069092E-03  0.118858145105E-03
  0.130324678912E-03  0.142884505519E-03  0.156640054105E-03  0.171703106841E-03  0.188195621042E-03
  0.206250619489E-03  0.226013154030E-03  0.247641347922E-03  0.271307522673E-03  0.297199415504E-03
  0.325521493892E-03  0.356496373998E-03  0.390366350172E-03  0.427395043058E-03  0.467869174210E-03
  0.512100475468E-03  0.560427741735E-03  0.613219036083E-03  0.670874056506E-03  0.733826673902E-03
  0.802547651157E-03  0.877547553482E-03  0.959379860301E-03  0.104864428921E-02  0.114599034258E-02
  0.125212108739E-02  0.136779717892E-02  0.149384113865E-02  0.163114189656E-02  0.178065960763E-02
  0.194343075176E-02  0.212057352588E-02  0.231329353583E-02  0.252288979500E-02  0.275076103519E-02
  0.299841233380E-02  0.326746205982E-02  0.355964913917E-02  0.387684063746E-02  0.422103965611E-02
  0.459439353449E-02  0.499920234788E-02  0.543792768719E-02  0.591320170270E-02  0.642783638982E-02
  0.698483308977E-02  0.758739217398E-02  0.823892287505E-02  0.894305322228E-02  0.970364003434E-02
  0.105247789168E-01  0.114108142071E-01  0.123663488068E-01  0.133962538355E-01  0.145056780407E-01
  0.157000568925E-01  0.169851212866E-01  0.183669057671E-01  0.198517561574E-01  0.214463364457E-01
  0.231576347046E-01  0.249929677367E-01  0.269599840277E-01  0.290666644895E-01  0.313213204226E-01
  0.337325881555E-01  0.363094199712E-01  0.390610711916E-01  0.419970836285E-01  0.451272659458E-01
  0.484616717087E-01  0.520105758912E-01  0.557844503382E-01  0.597939380987E-01  0.640498260059E-01
  0.685630144998E-01  0.733444837586E-01  0.784052555288E-01  0.837563504536E-01  0.894087409773E-01
  0.953732999680E-01  0.101660745159E+00  0.108281579395E+00  0.115246026562E+00  0.122563963037E+00
  0.130244844572E+00  0.138297628542E+00  0.146730691668E+00  0.155551743483E+00  0.164767735992E+00
  0.174384770205E+00  0.184408000512E+00  0.194841538060E+00  0.205688354756E+00  0.216950189607E+00
  0.228627459556E+00  0.240719177059E+00  0.253222876731E+00  0.266134553137E+00  0.279448611473E+00
  0.293157831856E+00  0.307253346936E+00  0.321724630988E+00  0.336559497672E+00  0.351744103369E+00
  0.367262955320E+00  0.383098930060E+00  0.399233320163E+00  0.415645948091E+00  0.432315414578E+00
  0.449219579142E+00  0.466336377348E+00  0.483645001419E+00  0.501127204237E+00  0.518767969755E+00
  0.536554272482E+00  0.554470910852E+00  0.572494247000E+00  0.590587403050E+00  0.608701000054E+00
  0.626779514370E+00  0.644768498676E+00  0.662618457893E+00  0.680285337709E+00  0.697729657556E+00
  0.714915741956E+00  0.731811508265E+00  0.748388776241E+00  0.764623918109E+00  0.780498649786E+00
  0.796000798368E+00  0.811124938360E+00  0.825872849578E+00  0.840253795710E+00  0.854284649030E+00
  0.867989899077E+00  0.881401583988E+00  0.894559181990E+00  0.907509495201E+00  0.920306554862E+00
  0.933011573012E+00  0.945692958222E+00  0.958426411378E+00  0.971295103153E+00  0.984389929727E+00
  0.997809824852E+00  0.101166209342E+01  0.102606271367E+01  0.104113654295E+01  0.105701735818E+01
  0.107384766950E+01  0.109177827612E+01  0.111096757924E+01  0.113158072555E+01  0.115378872372E+01
  0.117776772236E+01  0.120369867559E+01  0.123176763209E+01  0.000000000000E+00  0.000000000000E+00
  0.000000000000E+00  0.000000000000E+00  0.000000000000E+00  0.000000000000E+00  0.000000000000E+00
  0.000000000000E+00  0.000000000000E+00  0.000000000000E+00  0.000000000000E+00  0.000000000000E+00
  0.000000000000E+00  0.000000000000E+00  0.000000000000E+00  0.000000000000E+00  0.000000000000E+00
  0.000000000000E+00  0.000000000000E+00  0.000000000000E+00  0.000000000000E+00  0.000000000000E+00
  0.000000000000E+00  0.000000000000E+00  0.000000000000E+00  0.000000000000E+00  0.000000000000E+00
  0.000000000000E+00  0.000000000000E+00  0.000000000000E+00  0.000000000000E+00  0.000000000000E+00
  0.000000000000E+00  0.000000000000E+00  0.000000000000E+00  0.000000000000E+00  0.000000000000E+00
  0.000000000000E+00  0.000000000000E+00  0.000000000000E+00  0.000000000000E+00  0.000000000000E+00
  0.000000000000E+00  0.000000000000E+00  0.000000000000E+00
 End of Dataset
  PAW_PBE N 08Apr2002                    
   5.00000000000000     
 parameters from PSCTR are:
   SHA256 =  e053789ff3a61a86a1b75d8a110fcc91f86041011e7b0817c7c99e4e8a6349d7 N/POTCAR
   COPYR  = (c) Copyright 08Apr2002 Georg Kresse
   COPYR  = This file is part of the software VASP. Any use, copying, and all other rights are regulated by the VASP license agreement.
   COPYR  = If you do not have a valid VASP license, you may not use, copy or distribute this file.
   VRHFIN =N: s2p3
   LEXCH  = PE
   EATOM  =   264.5486 eV,   19.4438 Ry

   TITEL  = PAW_PBE N 08Apr2002
   LULTRA =        F    use ultrasoft PP ?
   IUNSCR =        1    unscreen: 0-lin 1-nonlin 2-no
   RPACOR =    1.200    partial core radius
   POMASS =   14.001; ZVAL   =    5.000    mass and valenz
   RCORE  =    1.500    outmost cutoff radius
   RWIGS  =    1.400; RWIGS  =    0.741    wigner-seitz radius (au A)
   ENMAX  =  400.000; ENMIN  =  300.000 eV
   ICORE  =        2    local potential
   LCOR   =        T    correct aug charges
   LPAW   =        T    paw PP
   EAUG   =  627.112
   DEXC   =    0.000
   RMAX   =    1.529    core radius for proj-oper
   RAUG   =    1.300    factor for augmentation sphere
   RDEP   =    1.514    radius for radial grids
   RDEPT  =    1.338    core radius for aug-charge
 
   Atomic configuration
    4 entries
     n  l   j            E        occ.
     1  0  0.50      -384.7179   2.0000
     2  0  0.50       -18.5828   2.0000
     2  1  0.50        -7.0898   3.0000
     3  2  1.50        -6.8029   0.0000
   Description
     l       E           TYP  RCUT    TYP  RCUT
     0    -18.5828119     23  1.200
     0    -13.5018863     23  1.200
     1     -7.0897853     23  1.500
     1      9.5240782     23  1.500
     2     -6.8029130      7  1.500
   Error from kinetic energy argument (eV)
   NDATA  =      100
   STEP   =   20.000   1.050
  106.      104.      102.      99.8      98.5      95.8      93.0      91.6
  88.9      86.1      84.8      82.0      79.3      76.6      73.9      71.2
  68.6      66.1      63.5      59.9      57.5      55.1      51.7      49.5
  47.4      44.3      41.4      39.5      36.8      34.2      31.7      29.4
  27.2      25.1      23.2      21.4      19.1      17.5      15.6      14.2
  12.6      11.1      9.72      8.50      7.41      6.43      5.55      4.60
  3.93      3.21      2.60      2.18      1.74      1.37      1.02     0.784
 0.597     0.422     0.293     0.199     0.133     0.872E-01 0.567E-01 0.347E-01
 0.238E-01 0.169E-01 0.137E-01 0.123E-01 0.116E-01 0.109E-01 0.100E-01 0.875E-02
 0.733E-02 0.589E-02 0.445E-02 0.343E-02 0.259E-02 0.207E-02 0.177E-02 0.163E-02
 0.153E-02 0.142E-02 0.127E-02 0.106E-02 0.841E-03 0.647E-03 0.505E-03 0.416E-03
 0.381E-03 0.372E-03 0.362E-03 0.337E-03 0.285E-03 0.227E-03 0.173E-03 0.137E-03
 0.121E-03 0.118E-03 0.117E-03 0.109E-03
END of PSCTR-controll parameters
 local part
   124.721915246209     
  0.21549196E+02  0.21549510E+02  0.21545877E+02  0.21539823E+02  0.21531352E+02
  0.21520464E+02  0.21507162E+02  0.21491448E+02  0.21473322E+02  0.21452781E+02
  0.21429822E+02  0.21404440E+02  0.21376626E+02  0.21346368E+02  0.21313655E+02
  0.21278469E+02  0.21240793E+02  0.21200607E+02  0.21157886E+02  0.21112606E+02
  0.21064737E+02  0.21014249E+02  0.20961106E+02  0.20905269E+02  0.20846697E+02
  0.20785343E+02  0.20721157E+02  0.20654086E+02  0.20584070E+02  0.20511050E+02
  0.20434959E+02  0.20355728E+02  0.20273287E+02  0.20187561E+02  0.20098473E+02
  0.20005943E+02  0.19909890E+02  0.19810232E+02  0.19706883E+02  0.19599760E+02
  0.19488778E+02  0.19373852E+02  0.19254900E+02  0.19131839E+02  0.19004592E+02
  0.18873081E+02  0.18737236E+02  0.18596989E+02  0.18452277E+02  0.18303046E+02
  0.18149244E+02  0.17990831E+02  0.17827772E+02  0.17660042E+02  0.17487626E+02
  0.17310517E+02  0.17128722E+02  0.16942256E+02  0.16751148E+02  0.16555439E+02
  0.16355183E+02  0.16150446E+02  0.15941309E+02  0.15727865E+02  0.15510223E+02
  0.15288505E+02  0.15062847E+02  0.14833399E+02  0.14600326E+02  0.14363805E+02
  0.14124029E+02  0.13881202E+02  0.13635543E+02  0.13387282E+02  0.13136662E+02
  0.12883936E+02  0.12629367E+02  0.12373231E+02  0.12115810E+02  0.11857394E+02
  0.11598282E+02  0.11338778E+02  0.11079191E+02  0.10819836E+02  0.10561026E+02
  0.10303082E+02  0.10046322E+02  0.97910627E+01  0.95376214E+01  0.92863112E+01
  0.90374410E+01  0.87913144E+01  0.85482283E+01  0.83084719E+01  0.80723256E+01
  0.78400598E+01  0.76119339E+01  0.73881952E+01  0.71690781E+01  0.69548033E+01
  0.67455764E+01  0.65415880E+01  0.63430123E+01  0.61500068E+01  0.59627116E+01
  0.57812492E+01  0.56057239E+01  0.54362218E+01  0.52728102E+01  0.51155379E+01
  0.49644350E+01  0.48195130E+01  0.46807651E+01  0.45481663E+01  0.44216736E+01
  0.43012270E+01  0.41867491E+01  0.40781468E+01  0.39753109E+01  0.38781174E+01
  0.37864285E+01  0.37000928E+01  0.36189467E+01  0.35428153E+01  0.34715131E+01
  0.34048455E+01  0.33426096E+01  0.32845952E+01  0.32305861E+01  0.31803611E+01
  0.31336953E+01  0.30903610E+01  0.30501290E+01  0.30127696E+01  0.29780538E+01
  0.29457542E+01  0.29156463E+01  0.28875091E+01  0.28611264E+01  0.28362876E+01
  0.28127883E+01  0.27904315E+01  0.27690281E+01  0.27483975E+01  0.27283685E+01
  0.27087795E+01  0.26894792E+01  0.26703270E+01  0.26511931E+01  0.26319591E+01
  0.26125178E+01  0.25927736E+01  0.25726425E+01  0.25520518E+01  0.25309405E+01
  0.25092584E+01  0.24869669E+01  0.24640375E+01  0.24404525E+01  0.24162039E+01
  0.23912936E+01  0.23657321E+01  0.23395387E+01  0.23127404E+01  0.22853718E+01
  0.22574739E+01  0.22290939E+01  0.22002844E+01  0.21711024E+01  0.21416093E+01
  0.21118695E+01  0.20819501E+01  0.20519201E+01  0.20218499E+01  0.19918103E+01
  0.19618721E+01  0.19321057E+01  0.19025800E+01  0.18733621E+01  0.18445170E+01
  0.18161068E+01  0.17881902E+01  0.17608225E+01  0.17340549E+01  0.17079343E+01
  0.16825029E+01  0.16577982E+01  0.16338527E+01  0.16106936E+01  0.15883431E+01
  0.15668181E+01  0.15461299E+01  0.15262850E+01  0.15072844E+01  0.14891243E+01
  0.14717960E+01  0.14552860E+01  0.14395763E+01  0.14246451E+01  0.14104662E+01
  0.13970101E+01  0.13842439E+01  0.13721317E+01  0.13606353E+01  0.13497140E+01
  0.13393253E+01  0.13294254E+01  0.13199693E+01  0.13109113E+01  0.13022055E+01
  0.12938059E+01  0.12856670E+01  0.12777441E+01  0.12699934E+01  0.12623726E+01
  0.12548412E+01  0.12473605E+01  0.12398940E+01  0.12324076E+01  0.12248698E+01
  0.12172520E+01  0.12095283E+01  0.12016760E+01  0.11936754E+01  0.11855101E+01
  0.11771668E+01  0.11686353E+01  0.11599087E+01  0.11509832E+01  0.11418579E+01
  0.11325351E+01  0.11230196E+01  0.11133191E+01  0.11034437E+01  0.10934058E+01
  0.10832201E+01  0.10729030E+01  0.10624728E+01  0.10519493E+01  0.10413534E+01
  0.10307071E+01  0.10200333E+01  0.10093552E+01  0.99869651E+00  0.98808098E+00
  0.97753216E+00  0.96707322E+00  0.95672678E+00  0.94651466E+00  0.93645771E+00
  0.92657565E+00  0.91688689E+00  0.90740839E+00  0.89815553E+00  0.88914200E+00
  0.88037974E+00  0.87187881E+00  0.86364738E+00  0.85569167E+00  0.84801593E+00
  0.84062247E+00  0.83351165E+00  0.82668193E+00  0.82012988E+00  0.81385033E+00
  0.80783637E+00  0.80207948E+00  0.79656962E+00  0.79129539E+00  0.78624409E+00
  0.78140191E+00  0.77675405E+00  0.77228489E+00  0.76797813E+00  0.76381692E+00
  0.75978406E+00  0.75586217E+00  0.75203377E+00  0.74828151E+00  0.74458827E+00
  0.74093734E+00  0.73731251E+00  0.73369825E+00  0.73007979E+00  0.72644325E+00
  0.72277573E+00  0.71906543E+00  0.71530168E+00  0.71147504E+00  0.70757734E+00
  0.70360173E+00  0.69954269E+00  0.69539608E+00  0.69115908E+00  0.68683024E+00
  0.68240944E+00  0.67789785E+00  0.67329786E+00  0.66861310E+00  0.66384831E+00
  0.65900927E+00  0.65410276E+00  0.64913644E+00  0.64411876E+00  0.63905887E+00
  0.63396649E+00  0.62885183E+00  0.62372547E+00  0.61859825E+00  0.61348116E+00
  0.60838522E+00  0.60332139E+00  0.59830045E+00  0.59333293E+00  0.58842894E+00
  0.58359819E+00  0.57884980E+00  0.57419227E+00  0.56963341E+00  0.56518028E+00
  0.56083909E+00  0.55661523E+00  0.55251316E+00  0.54853644E+00  0.54468765E+00
  0.54096845E+00  0.53737954E+00  0.53392065E+00  0.53059060E+00  0.52738730E+00
  0.52430780E+00  0.52134829E+00  0.51850421E+00  0.51577024E+00  0.51314041E+00
  0.51060813E+00  0.50816629E+00  0.50580732E+00  0.50352326E+00  0.50130584E+00
  0.49914657E+00  0.49703681E+00  0.49496788E+00  0.49293108E+00  0.49091783E+00
  0.48891970E+00  0.48692853E+00  0.48493643E+00  0.48293593E+00  0.48091998E+00
  0.47888203E+00  0.47681607E+00  0.47471669E+00  0.47257911E+00  0.47039921E+00
  0.46817353E+00  0.46589936E+00  0.46357465E+00  0.46119811E+00  0.45876914E+00
  0.45628787E+00  0.45375510E+00  0.45117230E+00  0.44854160E+00  0.44586574E+00
  0.44314801E+00  0.44039225E+00  0.43760278E+00  0.43478435E+00  0.43194207E+00
  0.42908140E+00  0.42620803E+00  0.42332788E+00  0.42044698E+00  0.41757148E+00
  0.41470750E+00  0.41186117E+00  0.40903848E+00  0.40624529E+00  0.40348724E+00
  0.40076969E+00  0.39809773E+00  0.39547604E+00  0.39290896E+00  0.39040035E+00
  0.38795364E+00  0.38557174E+00  0.38325707E+00  0.38101152E+00  0.37883643E+00
  0.37673261E+00  0.37470032E+00  0.37273927E+00  0.37084866E+00  0.36902715E+00
  0.36727292E+00  0.36558366E+00  0.36395662E+00  0.36238865E+00  0.36087620E+00
  0.35941538E+00  0.35800201E+00  0.35663164E+00  0.35529962E+00  0.35400112E+00
  0.35273121E+00  0.35148487E+00  0.35025705E+00  0.34904273E+00  0.34783696E+00
  0.34663489E+00  0.34543184E+00  0.34422332E+00  0.34300507E+00  0.34177309E+00
  0.34052373E+00  0.33925361E+00  0.33795976E+00  0.33663956E+00  0.33529081E+00
  0.33391170E+00  0.33250085E+00  0.33105733E+00  0.32958061E+00  0.32807059E+00
  0.32652762E+00  0.32495244E+00  0.32334617E+00  0.32171036E+00  0.32004688E+00
  0.31835794E+00  0.31664608E+00  0.31491409E+00  0.31316504E+00  0.31140218E+00
  0.30962897E+00  0.30784898E+00  0.30606593E+00  0.30428356E+00  0.30250568E+00
  0.30073607E+00  0.29897849E+00  0.29723660E+00  0.29551395E+00  0.29381396E+00
  0.29213987E+00  0.29049469E+00  0.28888121E+00  0.28730197E+00  0.28575923E+00
  0.28425494E+00  0.28279075E+00  0.28136797E+00  0.27998761E+00  0.27865030E+00
  0.27735636E+00  0.27610576E+00  0.27489813E+00  0.27373277E+00  0.27260868E+00
  0.27152453E+00  0.27047872E+00  0.26946937E+00  0.26849435E+00  0.26755131E+00
  0.26663769E+00  0.26575076E+00  0.26488765E+00  0.26404537E+00  0.26322084E+00
  0.26241090E+00  0.26161239E+00  0.26082215E+00  0.26003702E+00  0.25925394E+00
  0.25846991E+00  0.25768205E+00  0.25688763E+00  0.25608408E+00  0.25526901E+00
  0.25444025E+00  0.25359583E+00  0.25273404E+00  0.25185342E+00  0.25095277E+00
  0.25003114E+00  0.24908787E+00  0.24812258E+00  0.24713516E+00  0.24612577E+00
  0.24509485E+00  0.24404308E+00  0.24297141E+00  0.24188101E+00  0.24077328E+00
  0.23964983E+00  0.23851244E+00  0.23736307E+00  0.23620382E+00  0.23503692E+00
  0.23386467E+00  0.23268949E+00  0.23151382E+00  0.23034013E+00  0.22917090E+00
  0.22800859E+00  0.22685561E+00  0.22571430E+00  0.22458690E+00  0.22347556E+00
  0.22238228E+00  0.22130892E+00  0.22025717E+00  0.21922853E+00  0.21822433E+00
  0.21724567E+00  0.21629347E+00  0.21536840E+00  0.21447092E+00  0.21360127E+00
  0.21275946E+00  0.21194529E+00  0.21115831E+00  0.21039790E+00  0.20966320E+00
  0.20895318E+00  0.20826661E+00  0.20760212E+00  0.20695815E+00  0.20633305E+00
  0.20572502E+00  0.20513216E+00  0.20455251E+00  0.20398403E+00  0.20342464E+00
  0.20287225E+00  0.20232476E+00  0.20178009E+00  0.20123621E+00  0.20069112E+00
  0.20014293E+00  0.19958981E+00  0.19903007E+00  0.19846212E+00  0.19788453E+00
  0.19729600E+00  0.19669539E+00  0.19608175E+00  0.19545429E+00  0.19481239E+00
  0.19415564E+00  0.19348380E+00  0.19279682E+00  0.19209483E+00  0.19137814E+00
  0.19064726E+00  0.18990284E+00  0.18914569E+00  0.18837679E+00  0.18759724E+00
  0.18680828E+00  0.18601124E+00  0.18520757E+00  0.18439880E+00  0.18358651E+00
  0.18277235E+00  0.18195798E+00  0.18114509E+00  0.18033539E+00  0.17953052E+00
  0.17873215E+00  0.17794185E+00  0.17716116E+00  0.17639151E+00  0.17563427E+00
  0.17489068E+00  0.17416188E+00  0.17344888E+00  0.17275254E+00  0.17207361E+00
  0.17141267E+00  0.17077015E+00  0.17014633E+00  0.16954133E+00  0.16895513E+00
  0.16838754E+00  0.16783823E+00  0.16730670E+00  0.16679235E+00  0.16629440E+00
  0.16581200E+00  0.16534413E+00  0.16488971E+00  0.16444755E+00  0.16401638E+00
  0.16359486E+00  0.16318161E+00  0.16277521E+00  0.16237419E+00  0.16197710E+00
  0.16158247E+00  0.16118887E+00  0.16079487E+00  0.16039912E+00  0.16000029E+00
  0.15959716E+00  0.15918855E+00  0.15877340E+00  0.15835073E+00  0.15791969E+00
  0.15747953E+00  0.15702963E+00  0.15656948E+00  0.15609871E+00  0.15561710E+00
  0.15512452E+00  0.15462102E+00  0.15410674E+00  0.15358198E+00  0.15304714E+00
  0.15250275E+00  0.15194946E+00  0.15138801E+00  0.15081923E+00  0.15024406E+00
  0.14966350E+00  0.14907862E+00  0.14849053E+00  0.14790042E+00  0.14730947E+00
  0.14671891E+00  0.14612995E+00  0.14554382E+00  0.14496172E+00  0.14438483E+00
  0.14381428E+00  0.14325114E+00  0.14269644E+00  0.14215114E+00  0.14161609E+00
  0.14109208E+00  0.14057980E+00  0.14007984E+00  0.13959267E+00  0.13911866E+00
  0.13865809E+00  0.13821109E+00  0.13777770E+00  0.13735783E+00  0.13695129E+00
  0.13655778E+00  0.13617688E+00  0.13580809E+00  0.13545080E+00  0.13510431E+00
  0.13476786E+00  0.13444058E+00  0.13412157E+00  0.13380986E+00  0.13350444E+00
  0.13320427E+00  0.13290826E+00  0.13261534E+00  0.13232441E+00  0.13203440E+00
  0.13174423E+00  0.13145287E+00  0.13115932E+00  0.13086263E+00  0.13056190E+00
  0.13025629E+00  0.12994505E+00  0.12962749E+00  0.12930301E+00  0.12897109E+00
  0.12863133E+00  0.12828340E+00  0.12792707E+00  0.12756222E+00  0.12718884E+00
  0.12680698E+00  0.12641684E+00  0.12601868E+00  0.12561287E+00  0.12519984E+00
  0.12478014E+00  0.12435438E+00  0.12392323E+00  0.12348743E+00  0.12304779E+00
  0.12260514E+00  0.12216036E+00  0.12171437E+00  0.12126810E+00  0.12082247E+00
  0.12037845E+00  0.11993695E+00  0.11949890E+00  0.11906519E+00  0.11863667E+00
  0.11821417E+00  0.11779844E+00  0.11739019E+00  0.11699005E+00  0.11659862E+00
  0.11621637E+00  0.11584373E+00  0.11548104E+00  0.11512855E+00  0.11478641E+00
  0.11445471E+00  0.11413343E+00  0.11382247E+00  0.11352164E+00  0.11323067E+00
  0.11294921E+00  0.11267683E+00  0.11241303E+00  0.11215723E+00  0.11190882E+00
  0.11166711E+00  0.11143137E+00  0.11120082E+00  0.11097468E+00  0.11075210E+00
  0.11053225E+00  0.11031428E+00  0.11009733E+00  0.10988057E+00  0.10966316E+00
  0.10944430E+00  0.10922323E+00  0.10899920E+00  0.10877154E+00  0.10853962E+00
  0.10830285E+00  0.10806072E+00  0.10781278E+00  0.10755867E+00  0.10729807E+00
  0.10703076E+00  0.10675660E+00  0.10647551E+00  0.10618751E+00  0.10589267E+00
  0.10559117E+00  0.10528325E+00  0.10496920E+00  0.10464941E+00  0.10432433E+00
  0.10399444E+00  0.10366031E+00  0.10332254E+00  0.10298176E+00  0.10263866E+00
  0.10229394E+00  0.10194832E+00  0.10160256E+00  0.10125738E+00  0.10091355E+00
  0.10057179E+00  0.10023284E+00  0.99897386E-01  0.99566109E-01  0.99239644E-01
  0.98918585E-01  0.98603483E-01  0.98294834E-01  0.97993081E-01  0.97698603E-01
  0.97411719E-01  0.97132682E-01  0.96861676E-01  0.96598816E-01  0.96344147E-01
  0.96097646E-01  0.95859217E-01  0.95628700E-01  0.95405865E-01  0.95190423E-01
  0.94982020E-01  0.94780250E-01  0.94584652E-01  0.94394721E-01  0.94209906E-01
  0.94029624E-01  0.93853260E-01  0.93680172E-01  0.93509703E-01  0.93341183E-01
  0.93173937E-01  0.93007291E-01  0.92840577E-01  0.92673145E-01  0.92504360E-01
  0.92333619E-01  0.92160346E-01  0.91984004E-01  0.91804100E-01  0.91620184E-01
  0.91431858E-01  0.91238779E-01  0.91040657E-01  0.90837265E-01  0.90628433E-01
  0.90414056E-01  0.90194087E-01  0.89968547E-01  0.89737514E-01  0.89501128E-01
  0.89259590E-01  0.89013154E-01  0.88762128E-01  0.88506871E-01  0.88247788E-01
  0.87985324E-01  0.87719963E-01  0.87452219E-01  0.87182633E-01  0.86911769E-01
  0.86640206E-01  0.86368532E-01  0.86097341E-01  0.85827223E-01  0.85558764E-01
  0.85292535E-01  0.85029089E-01  0.84768954E-01  0.84512631E-01  0.84260587E-01
  0.84013250E-01  0.83771009E-01  0.83534205E-01  0.83303133E-01  0.83078037E-01
  0.82859107E-01  0.82646482E-01  0.82440243E-01  0.82240417E-01  0.82046976E-01
  0.81859836E-01  0.81678859E-01  0.81503856E-01  0.81334589E-01  0.81170770E-01
  0.81012071E-01  0.80858120E-01  0.80708509E-01  0.80562801E-01  0.80420526E-01
  0.80281195E-01  0.80144298E-01  0.80009312E-01  0.79875708E-01  0.79742950E-01
  0.79610506E-01  0.79477852E-01  0.79344475E-01  0.79209879E-01  0.79073590E-01
  0.78935161E-01  0.78794175E-01  0.78650247E-01  0.78503034E-01  0.78352230E-01
  0.78197572E-01  0.78038845E-01  0.77875880E-01  0.77708554E-01  0.77536796E-01
  0.77360584E-01  0.77179945E-01  0.76994955E-01  0.76805738E-01  0.76612463E-01
  0.76415345E-01  0.76214639E-01  0.76010641E-01  0.75803679E-01  0.75594118E-01
  0.75382347E-01  0.75168781E-01  0.74953856E-01  0.74738022E-01  0.74521742E-01
  0.74305485E-01  0.74089722E-01  0.73874921E-01  0.73661545E-01  0.73450043E-01
  0.73240848E-01  0.73034375E-01  0.72831012E-01  0.72631123E-01  0.72435037E-01
  0.72243052E-01  0.72055427E-01  0.71872383E-01  0.71694101E-01  0.71520717E-01
  0.71352328E-01  0.71188982E-01  0.71030685E-01  0.70877400E-01  0.70729044E-01
  0.70585492E-01  0.70446580E-01  0.70312102E-01  0.70181818E-01  0.70055450E-01
  0.69932693E-01  0.69813211E-01  0.69696644E-01  0.69582612E-01  0.69470716E-01
  0.69360544E-01  0.69251677E-01  0.69143687E-01  0.69036150E-01  0.68928639E-01
  0.68820741E-01  0.68712048E-01  0.68602172E-01  0.68490742E-01  0.68377409E-01
  0.68261851E-01  0.68143773E-01  0.68022912E-01  0.67899039E-01  0.67771960E-01
  0.67641517E-01  0.67507593E-01  0.67370109E-01  0.67229024E-01  0.67084340E-01
  0.66936096E-01  0.66784373E-01  0.66629288E-01  0.66470994E-01  0.66309680E-01
  0.66145569E-01  0.65978913E-01  0.65809990E-01  0.65639105E-01  0.65466584E-01
  0.65292771E-01  0.65118024E-01  0.64942714E-01  0.64767218E-01  0.64591918E-01
  0.64417194E-01  0.64243424E-01  0.64070980E-01  0.63900218E-01  0.63731486E-01
  0.63565109E-01  0.63401392E-01  0.63240619E-01  0.63083044E-01  0.62928896E-01
  0.62778368E-01  0.62631627E-01  0.62488800E-01  0.62349984E-01  0.62215236E-01
  0.62084581E-01  0.61958004E-01  0.61835457E-01  0.61716856E-01  0.61602082E-01
  0.61490983E-01  0.61383377E-01  0.61279052E-01  0.61177770E-01  0.61079268E-01
  0.60983259E-01  0.60889442E-01  0.60797495E-01  0.60707087E-01  0.60617877E-01
  0.60529516E-01  0.60441654E-01  0.60353942E-01  0.60266034E-01  0.60177592E-01
  0.60088289E-01  0.59997812E-01  0.59905865E-01  0.59812171E-01  0.59716476E-01
  0.59618550E-01  0.59518191E-01  0.59415223E-01  0.59309501E-01  0.59200912E-01
  0.59089375E-01  0.58974840E-01  0.58857292E-01  0.58736747E-01  0.58613255E-01
 gradient corrections used for XC
           5
 core charge-density (partial)
  0.11917933E-01  0.11914190E-01  0.11902970E-01  0.11884292E-01  0.11858186E-01
  0.11824698E-01  0.11783885E-01  0.11735816E-01  0.11680574E-01  0.11618251E-01
  0.11548953E-01  0.11472797E-01  0.11389911E-01  0.11300434E-01  0.11204515E-01
  0.11102313E-01  0.10993997E-01  0.10879746E-01  0.10759747E-01  0.10634194E-01
  0.10503291E-01  0.10367248E-01  0.10226283E-01  0.10080617E-01  0.99304815E-02
  0.97761092E-02  0.96177389E-02  0.94556133E-02  0.92899783E-02  0.91210826E-02
  0.89491771E-02  0.87745147E-02  0.85973488E-02  0.84179337E-02  0.82365236E-02
  0.80533720E-02  0.78687312E-02  0.76828518E-02  0.74959823E-02  0.73083685E-02
  0.71202527E-02  0.69318737E-02  0.67434663E-02  0.65552605E-02  0.63674812E-02
  0.61803481E-02  0.59940751E-02  0.58088699E-02  0.56249337E-02  0.54424610E-02
  0.52616393E-02  0.50826486E-02  0.49056616E-02  0.47308431E-02  0.45583500E-02
  0.43883310E-02  0.42209268E-02  0.40562696E-02  0.38944833E-02  0.37356833E-02
  0.35799763E-02  0.34274608E-02  0.32782265E-02  0.31323549E-02  0.29899188E-02
  0.28509828E-02  0.27156033E-02  0.25838285E-02  0.24556984E-02  0.23312456E-02
  0.22104946E-02  0.20934625E-02  0.19801591E-02  0.18705873E-02  0.17647428E-02
  0.16626148E-02  0.15641862E-02  0.14694336E-02  0.13783277E-02  0.12908338E-02
  0.12069116E-02  0.11265159E-02  0.10495966E-02  0.97609940E-03  0.90596547E-03
  0.83913222E-03  0.77553347E-03  0.71509966E-03  0.65775825E-03  0.60343392E-03
  0.55204892E-03  0.50352328E-03  0.45777518E-03  0.41472113E-03  0.37427628E-03
  0.33635469E-03  0.30086954E-03  0.26773341E-03  0.23685851E-03  0.20815688E-03
  0.18154066E-03  0.15692224E-03  0.13421451E-03  0.11333103E-03  0.94186206E-04
  0.76695469E-04  0.60775434E-04  0.46344051E-04  0.33320744E-04  0.21626540E-04
  0.11184191E-04  0.19182810E-05 -0.62446742E-05 -0.13376138E-04 -0.19545473E-04
 -0.24819873E-04 -0.29264304E-04 -0.32941451E-04 -0.35911678E-04 -0.38232994E-04
 -0.39961032E-04 -0.41149030E-04 -0.41847824E-04 -0.42105849E-04 -0.41969140E-04
 -0.41481355E-04 -0.40683785E-04 -0.39615389E-04 -0.38312819E-04 -0.36810461E-04
 -0.35140479E-04 -0.33332856E-04 -0.31415452E-04 -0.29414054E-04 -0.27352437E-04
 -0.25252427E-04 -0.23133961E-04 -0.21015160E-04 -0.18912392E-04 -0.16840348E-04
 -0.14812110E-04 -0.12839227E-04 -0.10931787E-04 -0.90984931E-05 -0.73467371E-05
 -0.56826745E-05 -0.41112984E-05 -0.26365136E-05 -0.12612092E-05  0.12669428E-07
  0.11840504E-05  0.22526656E-05  0.32189835E-05  0.40841431E-05  0.48498901E-05
  0.55185147E-05  0.60927920E-05  0.65759246E-05  0.69714867E-05  0.72833719E-05
  0.75157425E-05  0.76729816E-05  0.77596478E-05  0.77804323E-05  0.77401191E-05
  0.76435468E-05  0.74955741E-05  0.73010468E-05  0.70647684E-05  0.67914725E-05
  0.64857976E-05  0.61522648E-05  0.57952575E-05  0.54190034E-05  0.50275590E-05
  0.46247959E-05  0.42143892E-05  0.37998082E-05  0.33843085E-05  0.29709267E-05
  0.25624754E-05  0.21615417E-05  0.17704854E-05  0.13914398E-05  0.10263137E-05
  0.67679357E-06  0.34434865E-06  0.30235327E-07 -0.26449643E-06 -0.53899629E-06
 -0.79260589E-06 -0.10248505E-05 -0.12354302E-05 -0.14242106E-05 -0.15912129E-05
 -0.17366039E-05 -0.18606859E-05 -0.19638859E-05 -0.20467454E-05 -0.21099094E-05
 -0.21541162E-05 -0.21801865E-05 -0.21890136E-05 -0.21815528E-05 -0.21588118E-05
 -0.21218407E-05 -0.20717232E-05 -0.20095673E-05 -0.19364966E-05 -0.18536428E-05
 -0.17621372E-05 -0.16631039E-05 -0.15576529E-05 -0.14468739E-05 -0.13318300E-05
 -0.12135531E-05 -0.10930385E-05 -0.97124084E-06 -0.84907016E-06 -0.72738860E-06
 -0.60700752E-06 -0.48868512E-06 -0.37312449E-06 -0.26097215E-06 -0.15281701E-06
 -0.49189676E-07  0.49437758E-07  0.14265159E-06  0.23009602E-06  0.31147238E-06
  0.38653795E-06  0.45510460E-06  0.51703710E-06  0.57225122E-06  0.62071162E-06
  0.66242948E-06  0.69746010E-06  0.72590021E-06  0.74788526E-06  0.76358656E-06
  0.77320835E-06  0.77698487E-06  0.77517728E-06  0.76807067E-06  0.75597107E-06
  0.73920239E-06  0.71810348E-06  0.69302524E-06  0.66432777E-06  0.63237761E-06
  0.59754507E-06  0.56020169E-06  0.52071783E-06  0.47946027E-06  0.43679013E-06
  0.39306078E-06  0.34861594E-06  0.30378794E-06  0.25889618E-06  0.21424560E-06
  0.17012550E-06  0.12680835E-06  0.84548861E-07  0.43583154E-07  0.41281265E-08
 -0.33619068E-07 -0.69481375E-07 -0.10330206E-06 -0.13494479E-06 -0.16429359E-06
 -0.19125265E-06 -0.21574606E-06 -0.23771740E-06 -0.25712923E-06 -0.27396249E-06
 -0.28821583E-06 -0.29990480E-06 -0.30906105E-06 -0.31573143E-06 -0.31997699E-06
 -0.32187201E-06 -0.32150295E-06 -0.31896737E-06 -0.31437285E-06 -0.30783583E-06
 -0.29948054E-06 -0.28943786E-06 -0.27784421E-06 -0.26484043E-06 -0.25057070E-06
 -0.23518151E-06 -0.21882061E-06 -0.20163598E-06 -0.18377494E-06 -0.16538321E-06
 -0.14660402E-06 -0.12757736E-06 -0.10843916E-06 -0.89320608E-07 -0.70347520E-07
 -0.51639738E-07 -0.33310615E-07 -0.15466547E-07  0.17934261E-08  0.18377958E-07
  0.34203675E-07  0.49195390E-07  0.63286263E-07  0.76417895E-07  0.88540375E-07
  0.99612264E-07  0.10960053E-06  0.11848044E-06  0.12623538E-06  0.13285666E-06
  0.13834330E-06  0.14270165E-06  0.14594518E-06  0.14809405E-06  0.14917475E-06
  0.14921970E-06  0.14826682E-06  0.14635907E-06  0.14354400E-06  0.13987328E-06
  0.13540219E-06  0.13018920E-06  0.12429539E-06  0.11778404E-06  0.11072013E-06
  0.10316982E-06  0.95200070E-07  0.86878095E-07  0.78270993E-07  0.69445295E-07
  0.60466570E-07  0.51399041E-07  0.42305224E-07  0.33245595E-07  0.24278275E-07
  0.15458747E-07  0.68395931E-08 -0.15297337E-08 -0.96031156E-08 -0.17337946E-07
 -0.24695276E-07 -0.31639938E-07 -0.38140634E-07 -0.44170002E-07 -0.49704653E-07
 -0.54725187E-07 -0.59216172E-07 -0.63166113E-07 -0.66567387E-07 -0.69416162E-07
 -0.71712290E-07 -0.73459186E-07 -0.74663684E-07 -0.75335883E-07 -0.75488968E-07
 -0.75139025E-07 -0.74304844E-07 -0.73007711E-07 -0.71271185E-07 -0.69120877E-07
 -0.66584221E-07 -0.63690239E-07 -0.60469302E-07 -0.56952897E-07 -0.53173392E-07
 -0.49163798E-07 -0.44957539E-07 -0.40588233E-07 -0.36089464E-07 -0.31494577E-07
 -0.26836471E-07 -0.22147405E-07 -0.17458815E-07 -0.12801140E-07 -0.82036605E-08
 -0.36943515E-08  0.70025603E-09  0.49551964E-08  0.90471787E-08  0.12954682E-07
  0.16658035E-07  0.20139486E-07  0.23383254E-07  0.26375567E-07  0.29104686E-07
  0.31560923E-07  0.33736631E-07  0.35626195E-07  0.37226006E-07  0.38534416E-07
  0.39551700E-07  0.40279984E-07  0.40723185E-07  0.40886926E-07  0.40778451E-07
  0.40406533E-07  0.39781367E-07  0.38914470E-07  0.37818561E-07  0.36507453E-07
  0.34995926E-07  0.33299607E-07  0.31434850E-07  0.29418606E-07  0.27268299E-07
  0.25001706E-07  0.22636827E-07  0.20191774E-07  0.17684643E-07  0.15133407E-07
  0.12555805E-07  0.99692336E-08  0.73906486E-08  0.48364706E-08  0.23224961E-08
 -0.13618458E-09 -0.25252625E-08 -0.48312786E-08 -0.70416845E-08 -0.91448959E-08
 -0.11130339E-07 -0.12988489E-07 -0.14710901E-07 -0.16290231E-07 -0.17720254E-07
 -0.18995873E-07 -0.20113115E-07 -0.21069131E-07 -0.21862178E-07 -0.22491602E-07
 -0.22957812E-07 -0.23262246E-07 -0.23407337E-07 -0.23396467E-07 -0.23233922E-07
 -0.22924840E-07 -0.22475153E-07 -0.21891532E-07 -0.21181320E-07 -0.20352474E-07
 -0.19413489E-07 -0.18373340E-07 -0.17241403E-07 -0.16027393E-07 -0.14741288E-07
 -0.13393261E-07 -0.11993611E-07 -0.10552693E-07 -0.90808538E-08 -0.75883637E-08
 -0.60853555E-08 -0.45817638E-08 -0.30872671E-08 -0.16112337E-08 -0.16267042E-09
  0.12498247E-08  0.26181061E-08  0.39345207E-08  0.51919430E-08  0.63838069E-08
  0.75041322E-08  0.85475479E-08  0.95093101E-08  0.10385316E-07  0.11172113E-07
  0.11866905E-07  0.12467553E-07  0.12972569E-07  0.13381114E-07  0.13692984E-07
  0.13908595E-07  0.14028965E-07  0.14055693E-07  0.13990934E-07  0.13837373E-07
  0.13598190E-07  0.13277034E-07  0.12877984E-07  0.12405514E-07  0.11864454E-07
  0.11259953E-07  0.10597436E-07  0.98825636E-08  0.91211921E-08  0.83193297E-08
  0.74830962E-08  0.66186807E-08  0.57323017E-08  0.48301665E-08  0.39184326E-08
  0.30031700E-08  0.20903250E-08  0.11856857E-08  0.29484901E-09 -0.57680966E-09
 -0.14241653E-08 -0.22423694E-08 -0.30268743E-08 -0.37734545E-08 -0.44782255E-08
 -0.51376605E-08 -0.57486041E-08 -0.63082832E-08 -0.68143158E-08 -0.72647168E-08
 -0.76579008E-08 -0.79926832E-08 -0.82682778E-08 -0.84842932E-08 -0.86407251E-08
 -0.87379482E-08 -0.87767043E-08 -0.87580896E-08 -0.86835395E-08 -0.85548115E-08
 -0.83739669E-08 -0.81433507E-08 -0.78655703E-08 -0.75434731E-08 -0.71801231E-08
 -0.67787763E-08 -0.63428563E-08 -0.58759283E-08 -0.53816741E-08 -0.48638656E-08
 -0.43263393E-08 -0.37729706E-08 -0.32076485E-08 -0.26342505E-08 -0.20566190E-08
 -0.14785373E-08 -0.90370713E-09 -0.33572747E-09  0.22192615E-09  0.76592077E-09
  0.12930838E-08  0.18004194E-08  0.22851238E-08  0.27445982E-08  0.31764612E-08
  0.35785586E-08  0.39489722E-08  0.42860266E-08  0.45882948E-08  0.48546013E-08
  0.50840242E-08  0.52758957E-08  0.54298006E-08  0.55455733E-08  0.56232938E-08
  0.56632817E-08  0.56660890E-08  0.56324915E-08  0.55634796E-08  0.54602467E-08
  0.53241781E-08  0.51568375E-08  0.49599539E-08  0.47354068E-08  0.44852113E-08
  0.42115026E-08  0.39165197E-08  0.36025895E-08  0.32721100E-08  0.29275337E-08
  0.25713513E-08  0.22060746E-08  0.18342210E-08  0.14582968E-08  0.10807820E-08
  0.70411525E-09  0.33067925E-09 -0.37213174E-10 -0.39733207E-09 -0.74754278E-09
 -0.10858174E-08 -0.14102453E-08 -0.17190428E-08 -0.20105619E-08 -0.22832977E-08
 -0.25358951E-08 -0.27671541E-08 -0.29760345E-08 -0.31616587E-08 -0.33233145E-08
 -0.34604559E-08 -0.35727032E-08 -0.36598420E-08 -0.37218213E-08 -0.37587505E-08
 -0.37708954E-08 -0.37586737E-08 -0.37226488E-08 -0.36635236E-08 -0.35821335E-08
 -0.34794380E-08 -0.33565128E-08 -0.32145399E-08 -0.30547989E-08 -0.28786565E-08
 -0.26875561E-08 -0.24830076E-08 -0.22665762E-08 -0.20398717E-08 -0.18045371E-08
 -0.15622382E-08 -0.13146520E-08 -0.10634566E-08 -0.81031998E-09 -0.55688999E-09
 -0.30478439E-09 -0.55581151E-10  0.18919067E-09  0.42805962E-09  0.65962004E-09
  0.88253958E-09  0.10955662E-08  0.12975347E-08  0.14873718E-08  0.16641021E-08
  0.18268513E-08  0.19748506E-08  0.21074390E-08  0.22240658E-08  0.23242915E-08
  0.24077889E-08  0.24743429E-08  0.25238496E-08  0.25563148E-08  0.25718523E-08
  0.25706807E-08  0.25531201E-08  0.25195887E-08  0.24705973E-08  0.24067456E-08
  0.23287157E-08  0.22372669E-08  0.21332291E-08  0.20174964E-08  0.18910206E-08
  0.17548036E-08  0.16098903E-08  0.14573615E-08  0.12983261E-08  0.11339139E-08
  0.96526790E-09  0.79353678E-09  0.61986779E-09  0.44539943E-09  0.27125444E-09
  0.98533055E-10 -0.71693556E-10 -0.23838947E-09 -0.40055989E-09 -0.55725671E-09
 -0.70758357E-09 -0.85070062E-09 -0.98582874E-09 -0.11122534E-08 -0.12293279E-08
 -0.13364764E-08 -0.14331960E-08 -0.15190589E-08 -0.15937135E-08 -0.16568854E-08
 -0.17083777E-08 -0.17480708E-08 -0.17759219E-08 -0.17919637E-08 -0.17963032E-08
 -0.17891192E-08 -0.17706605E-08 -0.17412426E-08 -0.17012447E-08 -0.16511064E-08
 -0.15913234E-08 -0.15224439E-08 -0.14450639E-08 -0.13598227E-08 -0.12673982E-08
 -0.11685018E-08 -0.10638735E-08 -0.95427650E-09 -0.84049229E-09 -0.72331525E-09
 -0.60354743E-09 -0.48199337E-09 -0.35945503E-09 -0.23672675E-09 -0.11459040E-09
  0.61893363E-11  0.12486948E-09  0.24073307E-09  0.35309320E-09  0.46129685E-09
  0.56472843E-09  0.66281299E-09  0.75501915E-09  0.84086172E-09  0.91990396E-09
  0.99175948E-09  0.10560939E-08  0.11126259E-08  0.11611284E-08  0.12014286E-08
  0.12334087E-08  0.12570054E-08  0.12722093E-08  0.12790643E-08  0.12776662E-08
  0.12681615E-08  0.12507454E-08  0.12256597E-08  0.11931909E-08  0.11536671E-08
  0.11074557E-08  0.10549602E-08  0.99661717E-09  0.93289279E-09  0.86427965E-09
  0.79129305E-09  0.71446744E-09  0.63435274E-09  0.55151063E-09  0.46651078E-09
  0.37992719E-09  0.29233447E-09  0.20430421E-09  0.11640147E-09  0.29181271E-10
 -0.56814673E-10 -0.14106119E-09 -0.22305268E-09 -0.30230596E-09 -0.37836296E-09
 -0.45079320E-09 -0.51919604E-09 -0.58320275E-09 -0.64247825E-09 -0.69672278E-09
 -0.74567311E-09 -0.78910369E-09 -0.82682743E-09 -0.85869626E-09 -0.88460146E-09
 -0.90447370E-09 -0.91828283E-09 -0.92603749E-09 -0.92778440E-09 -0.92360749E-09
 -0.91362674E-09 -0.89799692E-09 -0.87690598E-09 -0.85057343E-09 -0.81924840E-09
 -0.78320761E-09 -0.74275325E-09 -0.69821059E-09 -0.64992565E-09 -0.59826266E-09
 -0.54360146E-09 -0.48633493E-09 -0.42686625E-09 -0.36560623E-09 -0.30297063E-09
 -0.23937740E-09 -0.17524409E-09 -0.11098517E-09 -0.47009517E-10  0.16282117E-10
  0.78499466E-10  0.13926506E-09  0.19821640E-09  0.25500802E-09  0.30931337E-09
  0.36082661E-09  0.40926421E-09  0.45436638E-09  0.49589836E-09  0.53365150E-09
  0.56744417E-09  0.59712252E-09  0.62256100E-09  0.64366272E-09  0.66035964E-09
  0.67261255E-09  0.68041088E-09  0.68377234E-09  0.68274238E-09  0.67739346E-09
  0.66782425E-09  0.65415853E-09  0.63654412E-09  0.61515151E-09  0.59017251E-09
  0.56181869E-09  0.53031976E-09  0.49592186E-09  0.45888576E-09  0.41948500E-09
  0.37800397E-09  0.33473600E-09  0.28998131E-09  0.24404511E-09  0.19723551E-09
  0.14986161E-09  0.10223152E-09  0.54650395E-10  0.74186355E-11 -0.39169997E-10
 -0.84830105E-10 -0.12928633E-09 -0.17227494E-09 -0.21354532E-09 -0.25286135E-09
 -0.29000269E-09 -0.32476593E-09 -0.35696563E-09 -0.38643520E-09 -0.41302772E-09
 -0.43661653E-09 -0.45709577E-09 -0.47438073E-09 -0.48840806E-09 -0.49913590E-09
 -0.50654381E-09 -0.51063257E-09 -0.51142390E-09 -0.50896004E-09 -0.50330312E-09
 -0.49453454E-09 -0.48275419E-09 -0.46807951E-09 -0.45064453E-09 -0.43059878E-09
 -0.40810616E-09 -0.38334364E-09 -0.35650002E-09 -0.32777455E-09 -0.29737552E-09
 -0.26551883E-09 -0.23242654E-09 -0.19832536E-09 -0.16344516E-09 -0.12801751E-09
 -0.92274148E-10 -0.56445571E-10 -0.20759567E-10  0.14560166E-10  0.49295373E-10
  0.83234536E-10  0.11617412E-09  0.14791972E-09  0.17828719E-09  0.20710363E-09
  0.23420833E-09  0.25945361E-09  0.28270556E-09  0.30384472E-09  0.32276658E-09
  0.33938209E-09  0.35361795E-09  0.36541691E-09  0.37473786E-09  0.38155588E-09
  0.38586219E-09  0.38766399E-09  0.38698415E-09  0.38386088E-09  0.37834730E-09
  0.37051087E-09  0.36043278E-09  0.34820724E-09  0.33394073E-09  0.31775117E-09
  0.29976699E-09  0.28012618E-09  0.25897534E-09  0.23646859E-09  0.21276652E-09
  0.18803509E-09  0.16244450E-09  0.13616809E-09  0.10938119E-09  0.82259986E-10
  0.54980400E-10  0.27716999E-10  0.64190703E-12 -0.26076246E-10 -0.52273337E-10
 -0.77790721E-10 -0.10247616E-09 -0.12618468E-09 -0.14877942E-09 -0.17013234E-09
 -0.19012494E-09 -0.20864889E-09 -0.22560654E-09 -0.24091140E-09 -0.25448856E-09
 -0.26627501E-09 -0.27621983E-09 -0.28428441E-09 -0.29044250E-09 -0.29468021E-09
 -0.29699594E-09 -0.29740026E-09 -0.29591561E-09 -0.29257607E-09 -0.28742698E-09
 -0.28052448E-09 -0.27193505E-09 -0.26173491E-09 -0.25000948E-09 -0.23685266E-09
 -0.22236618E-09 -0.20665879E-09 -0.18984558E-09 -0.17204709E-09 -0.15338851E-09
 -0.13399886E-09 -0.11401006E-09 -0.93556155E-10 -0.72772363E-10 -0.51794250E-10
 -0.30756866E-10 -0.97938965E-11  0.10963156E-10  0.31385773E-10  0.51349191E-10
  0.70733138E-10  0.89422531E-10  0.10730813E-09  0.12428718E-09  0.14026391E-09
  0.15515011E-09  0.16886558E-09  0.18133850E-09  0.19250579E-09  0.20231341E-09
  0.21071659E-09  0.21767995E-09  0.22317766E-09  0.22719344E-09  0.22972058E-09
  0.23076180E-09  0.23032920E-09  0.22844398E-09  0.22513625E-09  0.22044472E-09
  0.21441632E-09  0.20710583E-09  0.19857542E-09  0.18889420E-09  0.17813763E-09
  0.16638704E-09  0.15372902E-09  0.14025477E-09  0.12605954E-09  0.11124191E-09
  0.95903196E-10  0.80146715E-10  0.64077153E-10  0.47799875E-10  0.31420253E-10
  0.15043005E-10 -0.12284541E-11 -0.17292651E-10 -0.33050666E-10 -0.48406723E-10
 -0.63268755E-10 -0.77548940E-10 -0.91164196E-10 -0.10403665E-09 -0.11609406E-09
 -0.12727021E-09 -0.13750524E-09 -0.14674595E-09 -0.15494607E-09 -0.16206642E-09
 -0.16807515E-09 -0.17294775E-09 -0.17666720E-09 -0.17922396E-09 -0.18061591E-09
 -0.18084832E-09 -0.17993369E-09 -0.17789161E-09 -0.17474853E-09 -0.17053752E-09
 -0.16529801E-09 -0.15907540E-09 -0.15192078E-09 -0.14389046E-09 -0.13504564E-09
 kinetic energy density (partial)
  0.58247555E+01  0.58229316E+01  0.58174628E+01  0.58083586E+01  0.57956344E+01
  0.57793118E+01  0.57594187E+01  0.57359887E+01  0.57090616E+01  0.56786828E+01
  0.56449035E+01  0.56077804E+01  0.55673758E+01  0.55237571E+01  0.54769968E+01
  0.54271723E+01  0.53743658E+01  0.53186637E+01  0.52601570E+01  0.51989406E+01
  0.51351130E+01  0.50687767E+01  0.50000370E+01  0.49290025E+01  0.48557846E+01
  0.47804970E+01  0.47032558E+01  0.46241789E+01  0.45433860E+01  0.44609981E+01
  0.43771373E+01  0.42919264E+01  0.42054890E+01  0.41179488E+01  0.40294295E+01
  0.39400545E+01  0.38499466E+01  0.37592281E+01  0.36680198E+01  0.35764416E+01
  0.34846115E+01  0.33926459E+01  0.33006592E+01  0.32087636E+01  0.31170689E+01
  0.30256822E+01  0.29347077E+01  0.28442470E+01  0.27543983E+01  0.26652564E+01
  0.25769131E+01  0.24894563E+01  0.24029704E+01  0.23175360E+01  0.22332298E+01
  0.21501246E+01  0.20682894E+01  0.19877889E+01  0.19086837E+01  0.18310306E+01
  0.17548819E+01  0.16802860E+01  0.16072869E+01  0.15359248E+01  0.14662356E+01
  0.13982512E+01  0.13319994E+01  0.12675040E+01  0.12047852E+01  0.11438590E+01
  0.10847378E+01  0.10274304E+01  0.97194200E+00  0.91827420E+00  0.86642537E+00
  0.81639061E+00  0.76816187E+00  0.72172810E+00  0.67707538E+00  0.63418702E+00
  0.59304373E+00  0.55362372E+00  0.51590289E+00  0.47985489E+00  0.44545136E+00
  0.41266198E+00  0.38145466E+00  0.35179570E+00  0.32364986E+00  0.29698059E+00
  0.27175009E+00  0.24791949E+00  0.22544899E+00  0.20429795E+00  0.18442506E+00
  0.16578846E+00  0.14834585E+00  0.13205461E+00  0.11687192E+00  0.10275489E+00
  0.89660618E-01  0.77546358E-01  0.66369565E-01  0.56088015E-01  0.46659883E-01
  0.38043837E-01  0.30199107E-01  0.23085567E-01  0.16663797E-01  0.10895153E-01
  0.57418249E-02  0.11668863E-02 -0.28656515E-02 -0.63907974E-02 -0.94425413E-02
 -0.12053819E-01 -0.14256482E-01 -0.16081274E-01 -0.17557806E-01 -0.18714545E-01
 -0.19578798E-01 -0.20176703E-01 -0.20533227E-01 -0.20672164E-01 -0.20616137E-01
 -0.20386607E-01 -0.20003877E-01 -0.19487109E-01 -0.18854338E-01 -0.18122489E-01
 -0.17307398E-01 -0.16423834E-01 -0.15485524E-01 -0.14505180E-01 -0.13494526E-01
 -0.12464331E-01 -0.11424438E-01 -0.10383794E-01 -0.93504900E-02 -0.83317896E-02
 -0.73341670E-02 -0.63633422E-02 -0.54243167E-02 -0.45214103E-02 -0.36582973E-02
 -0.28380432E-02 -0.20631407E-02 -0.13355459E-02 -0.65671418E-03 -0.27635183E-04
  0.55113260E-03  0.10794278E-02  0.15574530E-02  0.19857425E-02  0.23651308E-02
  0.26967222E-02  0.29818612E-02  0.32221047E-02  0.34191942E-02  0.35750301E-02
  0.36916469E-02  0.37711894E-02  0.38158905E-02  0.38280501E-02  0.38100151E-02
  0.37641610E-02  0.36928746E-02  0.35985378E-02  0.34835128E-02  0.33501287E-02
  0.32006690E-02  0.30373605E-02  0.28623630E-02  0.26777607E-02  0.24855544E-02
  0.22876543E-02  0.20858749E-02  0.18819297E-02  0.16774276E-02  0.14738699E-02
  0.12726482E-02  0.10750432E-02  0.88222382E-03  0.69524781E-03  0.51506220E-03
  0.34250482E-03  0.17830627E-03  0.23092384E-04 -0.12261282E-03 -0.25838380E-03
 -0.38388976E-03 -0.49889058E-03 -0.60323251E-03 -0.69684357E-03 -0.77972879E-03
 -0.85196526E-03 -0.91369708E-03 -0.96513023E-03 -0.10065273E-02 -0.10382025E-02
 -0.10605161E-02 -0.10738696E-02 -0.10787004E-02 -0.10754770E-02 -0.10646939E-02
 -0.10468670E-02 -0.10225291E-02 -0.99222517E-03 -0.95650836E-03 -0.91593591E-03
 -0.87106532E-03 -0.82245074E-03 -0.77063966E-03 -0.71616969E-03 -0.65956577E-03
 -0.60133742E-03 -0.54197646E-03 -0.48195474E-03 -0.42172231E-03 -0.36170573E-03
 -0.30230663E-03 -0.24390051E-03 -0.18683579E-03 -0.13143305E-03 -0.77984493E-04
 -0.26753619E-04  0.22024920E-04  0.68145270E-04  0.11143015E-03  0.15173046E-03
  0.18892475E-03  0.22291854E-03  0.25364348E-03  0.28105645E-03  0.30513851E-03
  0.32589376E-03  0.34334813E-03  0.35754808E-03  0.36855928E-03  0.37646516E-03
  0.38136551E-03  0.38337500E-03  0.38262172E-03  0.37924564E-03  0.37339715E-03
  0.36523558E-03  0.35492774E-03  0.34264644E-03  0.32856917E-03  0.31287665E-03
  0.29575155E-03  0.27737726E-03  0.25793661E-03  0.23761078E-03  0.21657820E-03
  0.19501356E-03  0.17308681E-03  0.15096236E-03  0.12879827E-03  0.10674552E-03
  0.84947377E-04  0.63538856E-04  0.42646220E-04  0.22386584E-04  0.28675821E-05
 -0.15812886E-04 -0.33566835E-04 -0.50316310E-04 -0.65993432E-04 -0.80540373E-04
 -0.93909279E-04 -0.10606213E-03 -0.11697055E-03 -0.12661554E-03 -0.13498721E-03
 -0.14208443E-03 -0.14791446E-03 -0.15249252E-03 -0.15584136E-03 -0.15799078E-03
 -0.15897717E-03 -0.15884293E-03 -0.15763599E-03 -0.15540925E-03 -0.15222003E-03
 -0.14812955E-03 -0.14320230E-03 -0.13750556E-03 -0.13110884E-03 -0.12408331E-03
 -0.11650130E-03 -0.10843582E-03 -0.99959997E-04 -0.91146663E-04 -0.82067878E-04
 -0.72794503E-04 -0.63395804E-04 -0.53939066E-04 -0.44489253E-04 -0.35108682E-04
 -0.25856733E-04 -0.16789591E-04 -0.79600109E-05  0.58287675E-06  0.87937392E-05
  0.16631178E-04  0.24057839E-04  0.31040491E-04  0.37550073E-04  0.43561723E-04
  0.49054767E-04  0.54012691E-04  0.58423085E-04  0.62277563E-04  0.65571665E-04
  0.68304730E-04  0.70479761E-04  0.72103260E-04  0.73185062E-04  0.73738139E-04
  0.73778404E-04  0.73324497E-04  0.72397565E-04  0.71021035E-04  0.69220379E-04
  0.67022875E-04  0.64457369E-04  0.61554034E-04  0.58344126E-04  0.54859749E-04
  0.51133618E-04  0.47198829E-04  0.43088637E-04  0.38836235E-04  0.34474547E-04
  0.30036030E-04  0.25552481E-04  0.21054861E-04  0.16573128E-04  0.12136080E-04
  0.77712160E-05  0.35046049E-05 -0.63922913E-06 -0.46374080E-05 -0.84687878E-05
 -0.12114033E-04 -0.15555674E-04 -0.18778159E-04 -0.21767879E-04 -0.24513194E-04
 -0.27004433E-04 -0.29233896E-04 -0.31195826E-04 -0.32886387E-04 -0.34303619E-04
 -0.35447389E-04 -0.36319330E-04 -0.36922767E-04 -0.37262646E-04 -0.37345443E-04
 -0.37179074E-04 -0.36772797E-04 -0.36137107E-04 -0.35283629E-04 -0.34225009E-04
 -0.32974797E-04 -0.31547334E-04 -0.29957634E-04 -0.28221265E-04 -0.26354236E-04
 -0.24372878E-04 -0.22293730E-04 -0.20133432E-04 -0.17908607E-04 -0.15635768E-04
 -0.13331206E-04 -0.11010900E-04 -0.86904236E-05 -0.63848604E-05 -0.41087222E-05
 -0.18758761E-05  0.30052320E-06  0.24080945E-05  0.44352842E-05  0.63714138E-05
  0.82067200E-05  0.99323885E-05  0.11540580E-04  0.13024450E-04  0.14378161E-04
  0.15596889E-04  0.16676823E-04  0.17615158E-04  0.18410081E-04  0.19060754E-04
  0.19567287E-04  0.19930714E-04  0.20152951E-04  0.20236762E-04  0.20185718E-04
  0.20004143E-04  0.19697070E-04  0.19270188E-04  0.18729782E-04  0.18082680E-04
  0.17336190E-04  0.16498043E-04  0.15576330E-04  0.14579439E-04  0.13515994E-04
  0.12394795E-04  0.11224757E-04  0.10014845E-04  0.87740252E-05  0.75111987E-05
  0.62351535E-05  0.49545095E-05  0.36776691E-05  0.24127706E-05  0.11676439E-05
 -0.50229868E-07 -0.12337561E-05 -0.23762603E-05 -0.34715187E-05 -0.45137846E-05
 -0.54978114E-05 -0.64188717E-05 -0.72727726E-05 -0.80558672E-05 -0.87650624E-05
 -0.93978232E-05 -0.99521728E-05 -0.10426690E-04 -0.10820503E-04 -0.11133278E-04
 -0.11365210E-04 -0.11517003E-04 -0.11589855E-04 -0.11585433E-04 -0.11505854E-04
 -0.11353656E-04 -0.11131774E-04 -0.10843505E-04 -0.10492485E-04 -0.10082649E-04
 -0.96182026E-05 -0.91035889E-05 -0.85434510E-05 -0.79425991E-05 -0.73059749E-05
 -0.66386177E-05 -0.59456289E-05 -0.52321391E-05 -0.45032742E-05 -0.37641234E-05
 -0.30197080E-05 -0.22749513E-05 -0.15346504E-05 -0.80344880E-06 -0.85811224E-07
  0.61399984E-06  0.12919459E-05  0.19442323E-05  0.25673256E-05  0.31579692E-05
  0.37131972E-05  0.42303450E-05  0.47070589E-05  0.51413028E-05  0.55313630E-05
  0.58758508E-05  0.61737027E-05  0.64241796E-05  0.66268624E-05  0.67816471E-05
  0.68887372E-05  0.69486351E-05  0.69621307E-05  0.69302899E-05  0.68544406E-05
  0.67361578E-05  0.65772477E-05  0.63797301E-05  0.61458208E-05  0.58779126E-05
  0.55785557E-05  0.52504379E-05  0.48963639E-05  0.45192353E-05  0.41220293E-05
  0.37077784E-05  0.32795499E-05  0.28404254E-05  0.23934813E-05  0.19417696E-05
  0.14882986E-05  0.10360158E-05  0.58779001E-06  0.14639572E-06 -0.28550253E-06
 -0.70536419E-06 -0.11107858E-05 -0.14995128E-05 -0.18694504E-05 -0.22186728E-05
 -0.25454314E-05 -0.28481619E-05 -0.31254892E-05 -0.33762324E-05 -0.35994070E-05
 -0.37942269E-05 -0.39601045E-05 -0.40966498E-05 -0.42036686E-05 -0.42811584E-05
 -0.43293048E-05 -0.43484753E-05 -0.43392132E-05 -0.43022298E-05 -0.42383962E-05
 -0.41487341E-05 -0.40344060E-05 -0.38967042E-05 -0.37370403E-05 -0.35569331E-05
 -0.33579966E-05 -0.31419279E-05 -0.29104945E-05 -0.26655215E-05 -0.24088786E-05
 -0.21424677E-05 -0.18682100E-05 -0.15880331E-05 -0.13038594E-05 -0.10175934E-05
 -0.73111050E-06 -0.44624577E-06 -0.16478308E-06  0.11155483E-06  0.38111590E-06
  0.64232765E-06  0.89370528E-06  0.11338591E-05  0.13615013E-05  0.15754516E-05
  0.17746427E-05  0.19581239E-05  0.21250655E-05  0.22747604E-05  0.24066264E-05
  0.25202073E-05  0.26151725E-05  0.26913168E-05  0.27485590E-05  0.27869393E-05
  0.28066168E-05  0.28078659E-05  0.27910719E-05  0.27567265E-05  0.27054220E-05
  0.26378458E-05  0.25547738E-05  0.24570638E-05  0.23456482E-05  0.22215264E-05
  0.20857575E-05  0.19394521E-05  0.17837640E-05  0.16198826E-05  0.14490240E-05
  0.12724231E-05  0.10913256E-05  0.90697940E-06  0.72062725E-06  0.53349862E-06
  0.34680241E-06  0.16171972E-06 -0.20603030E-07 -0.19906060E-06 -0.37259504E-06
 -0.54020140E-06 -0.70093295E-06 -0.85390597E-06 -0.99830400E-06 -0.11333816E-05
 -0.12584678E-05 -0.13729683E-05 -0.14763682E-05 -0.15682333E-05 -0.16482116E-05
 -0.17160330E-05 -0.17715104E-05 -0.18145384E-05 -0.18450927E-05 -0.18632285E-05
 -0.18690787E-05 -0.18628511E-05 -0.18448262E-05 -0.18153533E-05 -0.17748475E-05
 -0.17237855E-05 -0.16627013E-05 -0.15921819E-05 -0.15128623E-05 -0.14254208E-05
 -0.13305739E-05 -0.12290705E-05 -0.11216872E-05 -0.10092226E-05 -0.89249170E-06
 -0.77232061E-06 -0.64954110E-06 -0.52498519E-06 -0.39947998E-06 -0.27384245E-06
 -0.14887458E-06 -0.25358559E-07  0.95947769E-07  0.21431519E-06  0.32904718E-06
  0.43948363E-06  0.54500434E-06  0.64503214E-06  0.73903569E-06  0.82653199E-06
  0.90708842E-06  0.98032459E-06  0.10459137E-05  0.11035835E-05  0.11531171E-05
  0.11943533E-05  0.12271863E-05  0.12515656E-05  0.12674952E-05  0.12750324E-05
  0.12742866E-05  0.12654175E-05  0.12486334E-05  0.12241886E-05  0.11923812E-05
  0.11535504E-05  0.11080733E-05  0.10563624E-05  0.99886157E-06  0.93604346E-06
  0.86840541E-06  0.79646610E-06  0.72076186E-06  0.64184297E-06  0.56026989E-06
  0.47660961E-06  0.39143188E-06  0.30530565E-06  0.21879544E-06  0.13245791E-06
  0.46838444E-07 -0.37532016E-07 -0.12014010E-06 -0.20049290E-06 -0.27812073E-06
 -0.35257960E-06 -0.42345364E-06 -0.49035712E-06 -0.55293640E-06 -0.61087154E-06
 -0.66387774E-06 -0.71170646E-06 -0.75414638E-06 -0.79102404E-06 -0.82220424E-06
 -0.84759023E-06 -0.86712366E-06 -0.88078418E-06 -0.88858898E-06 -0.89059196E-06
 -0.88688277E-06 -0.87758558E-06 -0.86285772E-06 -0.84288809E-06 -0.81789541E-06
 -0.78812631E-06 -0.75385330E-06 -0.71537262E-06 -0.67300190E-06 -0.62707783E-06
 -0.57795371E-06 -0.52599690E-06 -0.47158628E-06 -0.41510969E-06 -0.35696127E-06
 -0.29753895E-06 -0.23724180E-06 -0.17646753E-06 -0.11561003E-06 -0.55056926E-07
  0.48127484E-08  0.63630781E-07  0.12104192E-06  0.17670589E-06  0.23029928E-06
  0.28151728E-06  0.33007528E-06  0.37571036E-06  0.41818252E-06  0.45727581E-06
  0.49279935E-06  0.52458799E-06  0.55250302E-06  0.57643254E-06  0.59629172E-06
  0.61202290E-06  0.62359545E-06  0.63100557E-06  0.63427580E-06  0.63345449E-06
  0.62861501E-06  0.61985493E-06  0.60729496E-06  0.59107780E-06  0.57136691E-06
  0.54834510E-06  0.52221308E-06  0.49318788E-06  0.46150124E-06  0.42739790E-06
  0.39113380E-06  0.35297436E-06  0.31319259E-06  0.27206728E-06  0.22988114E-06
  0.18691895E-06  0.14346573E-06  0.99804963E-07  0.56216822E-07  0.12976453E-07
 -0.29647666E-07 -0.71395308E-07 -0.11201600E-06 -0.15127046E-06 -0.18893189E-06
 -0.22478721E-06 -0.25863821E-06 -0.29030252E-06 -0.31961451E-06 -0.34642610E-06
 -0.37060734E-06 -0.39204701E-06 -0.41065296E-06 -0.42635244E-06 -0.43909219E-06
 -0.44883852E-06 -0.45557717E-06 -0.45931311E-06 -0.46007020E-06 -0.45789072E-06
 -0.45283484E-06 -0.44497996E-06 -0.43441991E-06 -0.42126415E-06 -0.40563679E-06
 -0.38767561E-06 -0.36753098E-06 -0.34536466E-06 -0.32134869E-06 -0.29566408E-06
 -0.26849954E-06 -0.24005019E-06 -0.21051625E-06 -0.18010162E-06 -0.14901265E-06
 -0.11745670E-06 -0.85640883E-07 -0.53770757E-07 -0.22049029E-07  0.93256544E-08
  0.40159903E-07  0.70266718E-07  0.99466568E-07  0.12758841E-06  0.15447063E-06
  0.17996192E-06  0.20392206E-06  0.22622265E-06  0.24674774E-06  0.26539434E-06
  0.28207288E-06  0.29670761E-06  0.30923681E-06  0.31961300E-06  0.32780300E-06
  0.33378795E-06  0.33756319E-06  0.33913809E-06  0.33853575E-06  0.33579268E-06
  0.33095837E-06  0.32409474E-06  0.31527561E-06  0.30458604E-06  0.29212163E-06
  0.27798774E-06  0.26229870E-06  0.24517698E-06  0.22675223E-06  0.20716043E-06
  0.18654290E-06  0.16504532E-06  0.14281680E-06  0.12000883E-06  0.96774341E-07
  0.73266681E-07  0.49638673E-07  0.26041649E-07  0.26245182E-08 -0.20467131E-07
 -0.43091901E-07 -0.65113412E-07 -0.86401087E-07 -0.10683089E-06 -0.12628601E-06
 -0.14465748E-06 -0.16184478E-06 -0.17775631E-06 -0.19230987E-06 -0.20543299E-06
 -0.21706331E-06 -0.22714878E-06 -0.23564785E-06 -0.24252960E-06 -0.24777374E-06
 -0.25137062E-06 -0.25332112E-06 -0.25363651E-06 -0.25233819E-06 -0.24945747E-06
 -0.24503518E-06 -0.23912129E-06 -0.23177447E-06 -0.22306162E-06 -0.21305729E-06
 -0.20184310E-06 -0.18950718E-06 -0.17614346E-06 -0.16185104E-06 -0.14673347E-06
 -0.13089804E-06 -0.11445507E-06 -0.97517124E-07 -0.80198336E-07 -0.62613617E-07
 -0.44877947E-07 -0.27105639E-07 -0.94096361E-08  0.80991836E-08  0.25312676E-07
  0.42126071E-07  0.58438589E-07  0.74154014E-07  0.89181239E-07  0.10343477E-06
  0.11683517E-06  0.12930952E-06  0.14079171E-06  0.15122285E-06  0.16055146E-06
  0.16873375E-06  0.17573376E-06  0.18152348E-06  0.18608294E-06  0.18940018E-06
  0.19147127E-06  0.19230017E-06  0.19189864E-06  0.19028604E-06  0.18748909E-06
  0.18354163E-06  0.17848430E-06  0.17236418E-06  0.16523442E-06  0.15715381E-06
  0.14818635E-06  0.13840074E-06  0.12786995E-06  0.11667063E-06  0.10488262E-06
  0.92588403E-07  0.79872537E-07  0.66821097E-07  0.53521121E-07  0.40060041E-07
  0.26525130E-07  0.13002958E-07 -0.42114587E-09 -0.13663616E-07 -0.26643147E-07
 -0.39281182E-07 -0.51502363E-07 -0.63234969E-07 -0.74411313E-07 -0.84968119E-07
 -0.94846859E-07 -0.10399406E-06 -0.11236157E-06 -0.11990679E-06 -0.12659288E-06
 -0.13238890E-06 -0.13726993E-06 -0.14121716E-06 -0.14421790E-06 -0.14626562E-06
 -0.14735986E-06 -0.14750620E-06 -0.14671612E-06 -0.14500686E-06 -0.14240122E-06
 -0.13892737E-06 -0.13461857E-06 -0.12951293E-06 -0.12365309E-06 -0.11708588E-06
 -0.10986198E-06 -0.10203557E-06 -0.93663915E-07 -0.84806981E-07 -0.75527017E-07
 -0.65888137E-07 -0.55955889E-07 -0.45796827E-07 -0.35478076E-07 -0.25066906E-07
 -0.14630304E-07 -0.42345569E-08  0.60551569E-08  0.16175163E-07  0.26063671E-07
  0.35661143E-07  0.44910636E-07  0.53758129E-07  0.62152823E-07  0.70047424E-07
  0.77398391E-07  0.84166167E-07  0.90315373E-07  0.95814980E-07  0.10063845E-06
  0.10476384E-06  0.10817389E-06  0.11085608E-06  0.11280261E-06  0.11401045E-06
  0.11448123E-06  0.11422125E-06  0.11324130E-06  0.11155660E-06  0.10918661E-06
  0.10615488E-06  0.10248881E-06  0.98219505E-07  0.93381439E-07  0.88012267E-07
  0.82152519E-07  0.75845313E-07  0.69136053E-07  0.62072114E-07  0.54702519E-07
  0.47077613E-07  0.39248725E-07  0.31267837E-07  0.23187246E-07  0.15059233E-07
  0.69357322E-08 -0.11319881E-08 -0.90936442E-08 -0.16900238E-07 -0.24504353E-07
 -0.31860427E-07 -0.38925024E-07 -0.45657076E-07 -0.52018113E-07 -0.57972476E-07
 -0.63487504E-07 -0.68533705E-07 -0.73084902E-07 -0.77118357E-07 -0.80614873E-07
 -0.83558871E-07 -0.85938446E-07 -0.87745394E-07 -0.88975222E-07 -0.89627130E-07
 -0.89703969E-07 -0.89212184E-07 -0.88161726E-07 -0.86565948E-07 -0.84441482E-07
 -0.81808092E-07 -0.78688512E-07 -0.75108272E-07 -0.71095496E-07 -0.66680702E-07
 atomic pseudo charge-density
  0.50000000E+01  0.49905920E+01  0.49625297E+01  0.49162908E+01  0.48526485E+01
  0.47726391E+01  0.46775203E+01  0.45687233E+01  0.44478032E+01  0.43163885E+01
  0.41761349E+01  0.40286837E+01  0.38756263E+01  0.37184763E+01  0.35586481E+01
  0.33974423E+01  0.32360366E+01  0.30754820E+01  0.29167034E+01  0.27605022E+01
  0.26075624E+01  0.24584576E+01  0.23136596E+01  0.21735467E+01  0.20384129E+01
  0.19084767E+01  0.17838898E+01  0.16647446E+01  0.15510824E+01  0.14428999E+01
  0.13401557E+01  0.12427762E+01  0.11506608E+01  0.10636865E+01  0.98171195E+00
  0.90458151E+00  0.83212828E+00  0.76417699E+00  0.70054656E+00  0.64105228E+00
  0.58550764E+00  0.53372598E+00  0.48552187E+00  0.44071220E+00  0.39911723E+00
  0.36056131E+00  0.32487355E+00  0.29188830E+00  0.26144558E+00  0.23339135E+00
  0.20757768E+00  0.18386290E+00  0.16211167E+00  0.14219496E+00  0.12399001E+00
  0.10738023E+00  0.92255117E-01  0.78510094E-01  0.66046340E-01  0.54770619E-01
  0.44595081E-01  0.35437068E-01  0.27218897E-01  0.19867657E-01  0.13314992E-01
  0.74968918E-02  0.23534806E-02 -0.21711878E-02 -0.61293327E-02 -0.95696425E-02
 -0.12537466E-01 -0.15074997E-01 -0.17221453E-01 -0.19013243E-01 -0.20484137E-01
 -0.21665419E-01 -0.22586037E-01 -0.23272751E-01 -0.23750260E-01 -0.24041340E-01
 -0.24166964E-01 -0.24146415E-01 -0.23997401E-01 -0.23736156E-01 -0.23377541E-01
 -0.22935134E-01 -0.22421319E-01 -0.21847371E-01 -0.21223528E-01 -0.20559071E-01
 -0.19862388E-01 -0.19141040E-01 -0.18401825E-01 -0.17650830E-01 -0.16893486E-01
 -0.16134622E-01 -0.15378508E-01 -0.14628898E-01 -0.13889077E-01 -0.13161895E-01
 -0.12449804E-01 -0.11754892E-01 -0.11078916E-01 -0.10423328E-01 -0.97893046E-02
 -0.91777747E-02 -0.85894389E-02 -0.80247946E-02 -0.74841555E-02 -0.69676713E-02
 -0.64753448E-02 -0.60070491E-02 -0.55625422E-02 -0.51414813E-02 -0.47434360E-02
 -0.43678999E-02 -0.40143022E-02 -0.36820170E-02 -0.33703735E-02 -0.30786639E-02
 -0.28061514E-02 -0.25520773E-02 -0.23156672E-02 -0.20961373E-02 -0.18926989E-02
 -0.17045640E-02 -0.15309487E-02 -0.13710775E-02 -0.12241863E-02 -0.10895255E-02
 -0.96636253E-03 -0.85398382E-03 -0.75169688E-03 -0.65883177E-03 -0.57474239E-03
 -0.49880752E-03 -0.43043157E-03 -0.36904520E-03 -0.31410565E-03 -0.26509697E-03
 -0.22153001E-03 -0.18294234E-03 -0.14889795E-03 -0.11898694E-03 -0.92824957E-04
 -0.70052699E-04 -0.50335206E-04 -0.33361154E-04 -0.18842060E-04 -0.65114418E-05
  0.38760640E-05  0.12545617E-04  0.19703116E-04  0.25536157E-04  0.30215003E-04
  0.33893560E-04  0.36710351E-04  0.38789484E-04  0.40241608E-04  0.41164852E-04
  0.41645747E-04  0.41760126E-04  0.41573989E-04  0.41144351E-04  0.40520049E-04
  0.39742521E-04  0.38846542E-04  0.37860937E-04  0.36809243E-04  0.35710335E-04
  0.34579024E-04  0.33426600E-04  0.32261349E-04  0.31089020E-04  0.29913268E-04
  0.28736041E-04  0.27557948E-04  0.26378579E-04  0.25196797E-04  0.24010989E-04
  0.22819298E-04  0.21619810E-04  0.20410720E-04  0.19190472E-04  0.17957867E-04
  0.16712152E-04  0.15453086E-04  0.14180984E-04  0.12896743E-04  0.11601854E-04
  0.10298393E-04  0.89890031E-05  0.76768662E-05  0.63656585E-05  0.50595032E-05
  0.37629135E-05  0.24807308E-05  0.12180587E-05 -0.19806011E-07 -0.12274439E-05
 -0.23993842E-05 -0.35301748E-05 -0.46144522E-05 -0.56470072E-05 -0.66228492E-05
 -0.75372655E-05 -0.83858767E-05 -0.91646872E-05 -0.98701301E-05 -0.10499106E-04
 -0.11049019E-04 -0.11517798E-04 -0.11903926E-04 -0.12206449E-04 -0.12424986E-04
 -0.12559733E-04 -0.12611458E-04 -0.12581494E-04 -0.12471724E-04 -0.12284560E-04
 -0.12022921E-04 -0.11690202E-04 -0.11290245E-04 -0.10827301E-04 -0.10305988E-04
 -0.97312548E-05 -0.91083334E-05 -0.84426946E-05 -0.77400007E-05 -0.70060589E-05
 -0.62467727E-05 -0.54680947E-05 -0.46759794E-05 -0.38763376E-05 -0.30749910E-05
 -0.22776303E-05 -0.14897734E-05 -0.71672769E-06  0.36446148E-07  0.76496695E-06
  0.14643630E-05  0.21304984E-05  0.27595966E-05  0.33482598E-05  0.38934853E-05
  0.43926780E-05  0.48436591E-05  0.52446718E-05  0.55943827E-05  0.58918808E-05
  0.61366719E-05  0.63286707E-05  0.64681899E-05  0.65559257E-05  0.65929415E-05
  0.65806487E-05  0.65207850E-05  0.64153916E-05  0.62667880E-05  0.60775454E-05
  0.58504589E-05  0.55885193E-05  0.52948831E-05  0.49728434E-05  0.46257997E-05
  0.42572277E-05  0.38706504E-05  0.34696089E-05  0.30576339E-05  0.26382188E-05
  0.22147936E-05  0.17907001E-05  0.13691687E-05  0.95329688E-06  0.54602920E-06
  0.15013960E-06 -0.23178471E-06 -0.59735719E-06 -0.94440390E-06 -0.12709732E-05
 -0.15753435E-05 -0.18560289E-05 -0.21117823E-05 -0.23415974E-05 -0.25447077E-05
 -0.27205840E-05 -0.28689307E-05 -0.29896788E-05 -0.30829791E-05 -0.31491924E-05
 -0.31888793E-05 -0.32027881E-05 -0.31918419E-05 -0.31571250E-05 -0.30998675E-05
 -0.30214307E-05 -0.29232904E-05 -0.28070211E-05 -0.26742793E-05 -0.25267869E-05
 -0.23663147E-05 -0.21946660E-05 -0.20136607E-05 -0.18251196E-05 -0.16308495E-05
 -0.14326290E-05 -0.12321947E-05 -0.10312286E-05 -0.83134649E-06 -0.63408715E-06
 -0.44090249E-06 -0.25314913E-06 -0.72080844E-07  0.10115770E-06  0.26553608E-06
  0.42014209E-06  0.56418455E-06  0.69699494E-06  0.81802795E-06  0.92686092E-06
  0.10231923E-05  0.11068390E-05  0.11777330E-05  0.12359169E-05  0.12815390E-05
  0.13148469E-05  0.13361816E-05  0.13459702E-05  0.13447181E-05  0.13330018E-05
  0.13114596E-05  0.12807841E-05  0.12417133E-05  0.11950216E-05  0.11415117E-05
  0.10820059E-05  0.10173376E-05  0.94834350E-06  0.87585551E-06  0.80069362E-06
  0.72365875E-06  0.64552626E-06  0.56704000E-06  0.48890679E-06  0.41179161E-06
  0.33631328E-06  0.26304088E-06  0.19249068E-06  0.12512377E-06  0.61344357E-07
  0.14986012E-08 -0.54125860E-07 -0.10529983E-06 -0.15185187E-06 -0.19366714E-06
 -0.23068562E-06 -0.26289995E-06 -0.29035279E-06 -0.31313381E-06 -0.33137632E-06
 -0.34525357E-06 -0.35497483E-06 -0.36078130E-06 -0.36294175E-06 -0.36174820E-06
 -0.35751140E-06 -0.35055639E-06 -0.34121809E-06 -0.32983692E-06 -0.31675458E-06
 -0.30230999E-06 -0.28683541E-06 -0.27065281E-06 -0.25407048E-06 -0.23737998E-06
 -0.22085331E-06 -0.20474050E-06 -0.18926751E-06 -0.17463447E-06 -0.16101433E-06
 -0.14855181E-06 -0.13736279E-06 -0.12753402E-06 -0.11912320E-06 -0.11215938E-06
 -0.10664373E-06 -0.10255058E-06 -0.99828801E-07 -0.98403375E-07 -0.98177300E-07
 -0.99033647E-07 -0.10083783E-06 -0.10344002E-06 -0.10667772E-06 -0.11037837E-06
 -0.11436209E-06 -0.11844441E-06 -0.12243900E-06 -0.12616038E-06 -0.12942661E-06
 -0.13206179E-06 -0.13389857E-06 -0.13478041E-06 -0.13456374E-06 -0.13311993E-06
 -0.13033702E-06 -0.12612129E-06 -0.12039852E-06 -0.11311507E-06 -0.10423867E-06
 -0.93758973E-07 -0.81687829E-07 -0.68059304E-07 -0.52929441E-07 -0.36375762E-07
 -0.18496531E-07  0.59022411E-09  0.20747912E-07  0.41822785E-07  0.63645541E-07
  0.86033091E-07  0.10879049E-06  0.13171301E-06  0.15458825E-06  0.17719848E-06
  0.19932287E-06  0.22073989E-06  0.24122967E-06  0.26057632E-06  0.27857032E-06
  0.29501068E-06  0.30970720E-06  0.32248250E-06  0.33317399E-06  0.34163564E-06
  0.34773967E-06  0.35137798E-06  0.35246343E-06  0.35093092E-06  0.34673827E-06
  0.33986679E-06  0.33032177E-06  0.31813259E-06  0.30335273E-06  0.28605941E-06
  0.26635317E-06  0.24435706E-06  0.22021573E-06  0.19409426E-06  0.16617682E-06
  0.13666514E-06  0.10577682E-06  0.73743458E-07  0.40808699E-07  0.72261265E-08
 -0.26742924E-07 -0.60831628E-07 -0.94769988E-07 -0.12828718E-06 -0.16111393E-06
 -0.19298483E-06 -0.22364068E-06 -0.25283076E-06 -0.28031499E-06 -0.30586604E-06
 -0.32927136E-06 -0.35033495E-06 -0.36887915E-06 -0.38474616E-06 -0.39779944E-06
 -0.40792488E-06 -0.41503180E-06 -0.41905379E-06 -0.41994925E-06 -0.41770178E-06
 -0.41232035E-06 -0.40383924E-06 -0.39231772E-06 -0.37783965E-06 -0.36051270E-06
 -0.34046749E-06 -0.31785651E-06 -0.29285283E-06 -0.26564868E-06 -0.23645382E-06
 -0.20549382E-06 -0.17300821E-06 -0.13924843E-06 -0.10447586E-06 -0.68959559E-07
 -0.32974141E-07  0.32025135E-08  0.39291508E-07  0.75015195E-07  0.11009942E-06
  0.14427575E-06  0.17728357E-06  0.20887223E-06  0.23880298E-06  0.26685085E-06
  0.29280645E-06  0.31647753E-06  0.33769051E-06  0.35629173E-06  0.37214864E-06
  0.38515076E-06  0.39521042E-06  0.40226338E-06  0.40626921E-06  0.40721150E-06
  0.40509785E-06  0.39995967E-06  0.39185182E-06  0.38085200E-06  0.36706004E-06
  0.35059693E-06  0.33160375E-06  0.31024045E-06  0.28668440E-06  0.26112891E-06
  0.23378158E-06  0.20486258E-06  0.17460279E-06  0.14324192E-06  0.11102656E-06
  0.78208159E-07  0.45041030E-07  0.11780312E-07 -0.21320041E-07 -0.54009251E-07
 -0.86041663E-07 -0.11717863E-06 -0.14719035E-06 -0.17585757E-06 -0.20297322E-06
 -0.22834396E-06 -0.25179155E-06 -0.27315414E-06 -0.29228735E-06 -0.30906530E-06
 -0.32338136E-06 -0.33514886E-06 -0.34430157E-06 -0.35079400E-06 -0.35460158E-06
 -0.35572065E-06 -0.35416827E-06 -0.34998189E-06 -0.34321885E-06 -0.33395573E-06
 -0.32228759E-06 -0.30832698E-06 -0.29220292E-06 -0.27405973E-06 -0.25405571E-06
 -0.23236179E-06 -0.20916005E-06 -0.18464218E-06 -0.15900790E-06 -0.13246331E-06
 -0.10521920E-06 -0.77489393E-07 -0.49489026E-07 -0.21432880E-07  0.64662897E-08
  0.33999377E-07  0.60962503E-07  0.87158536E-07  0.11239853E-06  0.13650311E-06
  0.15930372E-06  0.18064381E-06  0.20037989E-06  0.21838250E-06  0.23453699E-06
  0.24874429E-06  0.26092141E-06  0.27100191E-06  0.27893620E-06  0.28469170E-06
  0.28825287E-06  0.28962109E-06  0.28881447E-06  0.28586745E-06  0.28083032E-06
  0.27376862E-06  0.26476246E-06  0.25390564E-06  0.24130482E-06  0.22707844E-06
  0.21135570E-06  0.19427540E-06  0.17598472E-06  0.15663799E-06  0.13639540E-06
  0.11542167E-06  0.93884726E-07  0.71954370E-07  0.49800933E-07  0.27593970E-07
  0.55009655E-08 -0.16313923E-07 -0.37691072E-07 -0.58476554E-07 -0.78523227E-07
 -0.97691766E-07 -0.11585161E-06 -0.13288182E-06 -0.14867187E-06 -0.16312234E-06
 -0.17614547E-06 -0.18766569E-06 -0.19761998E-06 -0.20595816E-06 -0.21264306E-06
 -0.21765064E-06 -0.22096990E-06 -0.22260280E-06 -0.22256399E-06 -0.22088054E-06
 -0.21759151E-06 -0.21274742E-06 -0.20640973E-06 -0.19865016E-06 -0.18954994E-06
 -0.17919910E-06 -0.16769556E-06 -0.15514432E-06 -0.14165646E-06 -0.12734825E-06
 -0.11234016E-06 -0.96755849E-07 -0.80721185E-07 -0.64363243E-07 -0.47809315E-07
 -0.31185940E-07 -0.14617951E-07  0.17724402E-08  0.17866530E-07  0.33549960E-07
  0.48713505E-07  0.63253813E-07  0.77074082E-07  0.90084675E-07  0.10220367E-06
  0.11335732E-06  0.12348050E-06  0.13251700E-06  0.14041981E-06  0.14715127E-06
  0.15268322E-06  0.15699700E-06  0.16008343E-06  0.16194268E-06  0.16258409E-06
  0.16202592E-06  0.16029507E-06  0.15742665E-06  0.15346361E-06  0.14845620E-06
  0.14246150E-06  0.13554283E-06  0.12776915E-06  0.11921439E-06  0.10995688E-06
  0.10007856E-06  0.89664375E-07  0.78801529E-07  0.67578792E-07  0.56085802E-07
  0.44412367E-07  0.32647790E-07  0.20880203E-07  0.91959339E-08 -0.23211085E-08
 -0.13590012E-07 -0.24533405E-07 -0.35077961E-07 -0.45154863E-07 -0.54700221E-07
 -0.63655445E-07 -0.71967567E-07 -0.79589517E-07 -0.86480345E-07 -0.92605388E-07
 -0.97936395E-07 -0.10245159E-06 -0.10613570E-06 -0.10897991E-06 -0.11098179E-06
 -0.11214515E-06 -0.11247991E-06 -0.11200184E-06 -0.11073234E-06 -0.10869813E-06
 -0.10593094E-06 -0.10246714E-06 -0.98347388E-07 -0.93616202E-07 -0.88321545E-07
 -0.82514391E-07 -0.76248268E-07 -0.69578803E-07 -0.62563260E-07 -0.55260072E-07
 -0.47728383E-07 -0.40027591E-07 -0.32216902E-07 -0.24354898E-07 -0.16499119E-07
 -0.87056653E-08 -0.10288158E-08  0.64793227E-08  0.13769146E-07  0.20793857E-07
  0.27509733E-07  0.33876374E-07  0.39856912E-07  0.45418190E-07  0.50530913E-07
  0.55169755E-07  0.59313448E-07  0.62944826E-07  0.66050847E-07  0.68622574E-07
  0.70655135E-07  0.72147646E-07  0.73103114E-07  0.73528309E-07  0.73433610E-07
  0.72832836E-07  0.71743046E-07  0.70184331E-07  0.68179584E-07  0.65754252E-07
  0.62936085E-07  0.59754872E-07  0.56242166E-07  0.52431005E-07  0.48355636E-07
  0.44051235E-07  0.39553620E-07  0.34898985E-07  0.30123622E-07  0.25263664E-07
  0.20354828E-07  0.15432173E-07  0.10529868E-07  0.56809784E-08  0.91725923E-09
 -0.37310281E-08 -0.82352874E-08 -0.12568739E-07 -0.16706557E-07 -0.20625979E-07
 -0.24306413E-07 -0.27729508E-07 -0.30879216E-07 -0.33741836E-07 -0.36306036E-07
 -0.38562856E-07 -0.40505700E-07 -0.42130304E-07 -0.43434695E-07 -0.44419131E-07
 -0.45086029E-07 -0.45439877E-07 -0.45487138E-07 -0.45236143E-07 -0.44696971E-07
 -0.43881326E-07 -0.42802401E-07 -0.41474740E-07 -0.39914096E-07 -0.38137284E-07
 -0.36162030E-07 -0.34006822E-07 -0.31690761E-07 -0.29233413E-07 -0.26654658E-07
 -0.23974551E-07 -0.21213181E-07 -0.18390537E-07 -0.15526378E-07 -0.12640112E-07
 -0.97506788E-08 -0.68764451E-08 -0.40351009E-08 -0.12435699E-08  0.14820740E-08
  0.41266809E-08  0.66760900E-08  0.91171860E-08  0.11437946E-07  0.13627476E-07
  0.15676045E-07  0.17575098E-07  0.19317274E-07  0.20896408E-07  0.22307526E-07
  0.23546836E-07  0.24611705E-07  0.25500640E-07  0.26213253E-07  0.26750223E-07
  0.27113260E-07  0.27305052E-07  0.27329217E-07  0.27190249E-07  0.26893461E-07
  0.26444925E-07  0.25851408E-07  0.25120311E-07  0.24259604E-07  0.23277761E-07
  0.22183692E-07  0.20986680E-07  0.19696316E-07  0.18322435E-07  0.16875054E-07
  0.15364307E-07  0.13800391E-07  0.12193506E-07  0.10553800E-07  0.88913146E-08
  0.72159395E-08  0.55373613E-08  0.38650200E-08  0.22080679E-08  0.57533064E-09
 -0.10247285E-08 -0.25840406E-08 -0.40949610E-08 -0.55502955E-08 -0.69433235E-08
 -0.82678188E-08 -0.95180663E-08 -0.10688877E-07 -0.11775600E-07 -0.12774129E-07
 -0.13680913E-07 -0.14492954E-07 -0.15207814E-07 -0.15823609E-07 -0.16339008E-07
 -0.16753223E-07 -0.17066009E-07 -0.17277643E-07 -0.17388920E-07 -0.17401137E-07
 -0.17316073E-07 -0.17135977E-07 -0.16863544E-07 -0.16501899E-07 -0.16054570E-07
 -0.15525466E-07 -0.14918856E-07 -0.14239335E-07 -0.13491805E-07 -0.12681442E-07
 -0.11813670E-07 -0.10894129E-07 -0.99286449E-08 -0.89232016E-08 -0.78839062E-08
 -0.68169590E-08 -0.57286216E-08 -0.46251849E-08 -0.35129372E-08 -0.23981325E-08
 -0.12869593E-08 -0.18550942E-09  0.90025205E-09  0.19645167E-08  0.30016612E-08
  0.40062758E-08  0.49731901E-08  0.58974993E-08  0.67745876E-08  0.76001512E-08
  0.83702188E-08  0.90811706E-08  0.97297560E-08  0.10313108E-07  0.10828758E-07
  0.11274643E-07  0.11649120E-07  0.11950967E-07  0.12179389E-07  0.12334020E-07
  0.12414923E-07  0.12422584E-07  0.12357908E-07  0.12222211E-07  0.12017208E-07
  0.11745001E-07  0.11408065E-07  0.11009226E-07  0.10551650E-07  0.10038810E-07
  0.94744748E-08  0.88626739E-08  0.82076771E-08  0.75139638E-08  0.67861949E-08
  0.60291819E-08  0.52478566E-08  0.44472388E-08  0.36324048E-08  0.28084547E-08
  0.19804809E-08  0.11535356E-08  0.33259958E-09 -0.47744873E-09 -0.12718630E-08
 -0.20460577E-08 -0.27956360E-08 -0.35164154E-08 -0.42044521E-08 -0.48560642E-08
 -0.54678513E-08 -0.60367141E-08 -0.65598699E-08 -0.70348669E-08 -0.74595957E-08
 -0.78322984E-08 -0.81515755E-08 -0.84163894E-08 -0.86260664E-08 -0.87802955E-08
 -0.88791250E-08 -0.89229562E-08 -0.89125353E-08 -0.88489427E-08 -0.87335802E-08
 -0.85681558E-08 -0.83546674E-08 -0.80953835E-08 -0.77928233E-08 -0.74497348E-08
 -0.70690720E-08 -0.66539706E-08 -0.62077232E-08 -0.57337536E-08 -0.52355905E-08
 -0.47168415E-08 -0.41811662E-08 -0.36322503E-08 -0.30737792E-08 -0.25094131E-08
 -0.19427619E-08 -0.13773614E-08 -0.81665079E-09 -0.26395089E-09  0.27755587E-09
  0.80484408E-09  0.13150623E-08  0.18055485E-08  0.22738432E-08  0.27177016E-08
  0.31351029E-08  0.35242580E-08  0.38836155E-08  0.42118649E-08  0.45079391E-08
  0.47710134E-08  0.50005043E-08  0.51960652E-08  0.53575809E-08  0.54851602E-08
  0.55791275E-08  0.56400123E-08  0.56685377E-08  0.56656077E-08  0.56322939E-08
  0.55698207E-08  0.54795500E-08  0.53629657E-08  0.52216569E-08  0.50573021E-08
  0.48716523E-08  0.46665146E-08  0.44437363E-08  0.42051888E-08  0.39527520E-08
  0.36883003E-08  0.34136877E-08  0.31307355E-08  0.28412196E-08  0.25468598E-08
  0.22493096E-08  0.19501477E-08  0.16508700E-08  0.13528831E-08  0.10574999E-08
  0.76593521E-09  0.47930341E-09  0.19861723E-09 -0.75212429E-10 -0.34137552E-09
   25.1333556480997      T
 Non local Part
           0           2  0.809101009264628     
   4.95117806065304        5.78043321655911        5.78043321655911     
   6.74039580541299     
 Reciprocal Space Part
  0.53611357E+02  0.53292218E+02  0.52337589E+02  0.50755826E+02  0.48560816E+02
  0.45771922E+02  0.42413897E+02  0.38516769E+02  0.34115688E+02  0.29250737E+02
  0.23966699E+02  0.18312769E+02  0.12342218E+02  0.61119970E+01 -0.31772164E+00
 -0.68840574E+01 -0.13522001E+02 -0.20165053E+02 -0.26745910E+02 -0.33197211E+02
 -0.39452313E+02 -0.45446104E+02 -0.51115834E+02 -0.56401952E+02 -0.61248931E+02
 -0.65606074E+02 -0.69428275E+02 -0.72676722E+02 -0.75319534E+02 -0.77332302E+02
 -0.78698528E+02 -0.79409953E+02 -0.79466753E+02 -0.78877603E+02 -0.77659599E+02
 -0.75838039E+02 -0.73446061E+02 -0.70524136E+02 -0.67119438E+02 -0.63285085E+02
 -0.59079268E+02 -0.54564300E+02 -0.49805569E+02 -0.44870453E+02 -0.39827191E+02
 -0.34743744E+02 -0.29686672E+02 -0.24720041E+02 -0.19904388E+02 -0.15295764E+02
 -0.10944877E+02 -0.68963499E+01 -0.31881027E+01  0.14911751E+00  0.30920606E+01
  0.56251417E+01  0.77404546E+01  0.94376309E+01  0.10723552E+02  0.11611923E+02
  0.12122718E+02  0.12281521E+02  0.12118763E+02  0.11668893E+02  0.10969492E+02
  0.10060351E+02  0.89825471E+01  0.77775222E+01  0.64861951E+01  0.51481270E+01
  0.38007521E+01  0.24786942E+01  0.12131787E+01  0.31551524E-01 -0.10430880E+01
 -0.19921365E+01 -0.28016168E+01 -0.34621917E+01 -0.39690663E+01 -0.43217848E+01
 -0.45239346E+01 -0.45827671E+01 -0.45087503E+01 -0.43150671E+01 -0.40170764E+01
 -0.36317507E+01 -0.31771083E+01 -0.26716538E+01 -0.21338418E+01 -0.15815768E+01
 -0.10317607E+01 -0.49989762E+00  0.23723823E-03  0.45685814E+00  0.86035666E+00
  0.12034154E+01  0.14810490E+01  0.16905755E+01  0.18315239E+01  0.19054826E+01
 Real Space Part
 -0.13484615E+04 -0.13474916E+04 -0.13445843E+04 -0.13397468E+04 -0.13329913E+04
 -0.13243347E+04 -0.13137986E+04 -0.13014090E+04 -0.12871967E+04 -0.12711967E+04
 -0.12534480E+04 -0.12339939E+04 -0.12128816E+04 -0.11901617E+04 -0.11658884E+04
 -0.11401194E+04 -0.11129154E+04 -0.10843398E+04 -0.10544591E+04 -0.10233420E+04
 -0.99105995E+03 -0.95768626E+03 -0.92329647E+03 -0.88796797E+03 -0.85177991E+03
 -0.81481306E+03 -0.77714974E+03 -0.73887363E+03 -0.70006975E+03 -0.66082435E+03
 -0.62122483E+03 -0.58135967E+03 -0.54131838E+03 -0.50119143E+03 -0.46107018E+03
 -0.42104685E+03 -0.38121441E+03 -0.34166658E+03 -0.30249767E+03 -0.26380257E+03
 -0.22567657E+03 -0.18821531E+03 -0.15151456E+03 -0.11567015E+03 -0.80777677E+02
 -0.46932361E+02 -0.14228761E+02  0.17239501E+02  0.47380054E+02  0.76102132E+02
  0.10331696E+03  0.12893818E+03  0.15288230E+03  0.17506920E+03  0.19542265E+03
  0.21387087E+03  0.23034710E+03  0.24479022E+03  0.25714535E+03  0.26736449E+03
  0.27540716E+03  0.28124099E+03  0.28484239E+03  0.28619706E+03  0.28530062E+03
  0.28215904E+03  0.27678914E+03  0.26921894E+03  0.25948797E+03  0.24764744E+03
  0.23376039E+03  0.21790162E+03  0.20015761E+03  0.18062622E+03  0.15941626E+03
  0.13664675E+03  0.11244432E+03  0.86947330E+02  0.60534274E+02  0.36442330E+02
  0.27135016E+02  0.17187261E+02  0.75331399E+01 -0.16299569E+01 -0.10169232E+02
 -0.17951292E+02 -0.24846481E+02 -0.30731933E+02 -0.35492215E+02 -0.39020353E+02
 -0.41219151E+02 -0.42001200E+02 -0.41290307E+02 -0.39021721E+02 -0.35142591E+02
 -0.29607021E+02 -0.22402170E+02 -0.13627919E+02 -0.21145349E+01  0.00000000E+00
 Reciprocal Space Part
 -0.40989220E+02 -0.40730674E+02 -0.39957300E+02 -0.38675879E+02 -0.36897682E+02
 -0.34638430E+02 -0.31918221E+02 -0.28761443E+02 -0.25196652E+02 -0.21256424E+02
 -0.16977164E+02 -0.12398882E+02 -0.75649160E+01 -0.25216183E+01  0.26820177E+01
  0.79947748E+01  0.13363682E+02  0.18734531E+02  0.24052446E+02  0.29262480E+02
  0.34310260E+02  0.39142649E+02  0.43708430E+02  0.47958987E+02  0.51848992E+02
  0.55337062E+02  0.58386385E+02  0.60965307E+02  0.63047849E+02  0.64614157E+02
  0.65650868E+02  0.66151376E+02  0.66116000E+02  0.65552039E+02  0.64473706E+02
  0.62901952E+02  0.60864167E+02  0.58393766E+02  0.55529672E+02  0.52315684E+02
  0.48799774E+02  0.45033288E+02  0.41070095E+02  0.36965685E+02  0.32776244E+02
  0.28557714E+02  0.24364864E+02  0.20250390E+02  0.16264064E+02  0.12451944E+02
  0.88556669E+01  0.55118358E+01  0.24515143E+01 -0.30016236E+00 -0.27242526E+01
 -0.48081459E+01 -0.65455721E+01 -0.79364833E+01 -0.89868142E+01 -0.97081280E+01
 -0.10117158E+02 -0.10235256E+02 -0.10087769E+02 -0.97033449E+01 -0.91132018E+01
 -0.83503683E+01 -0.74489134E+01 -0.64431878E+01 -0.53670898E+01 -0.42533743E+01
 -0.31330182E+01 -0.20346555E+01 -0.98409188E+00 -0.39088175E-02  0.88683902E+00
  0.16728281E+01  0.23425723E+01  0.28884319E+01  0.33065310E+01  0.35965874E+01
  0.37616660E+01  0.38078626E+01  0.37439326E+01  0.35808737E+01  0.33314785E+01
  0.30098681E+01  0.26310210E+01  0.22103090E+01  0.17630532E+01  0.13041091E+01
  0.84749287E+00  0.40605336E+00 -0.88008617E-02 -0.38731704E+00 -0.72155285E+00
 -0.10054697E+01 -0.12349658E+01 -0.14078513E+01 -0.15237703E+01 -0.15840750E+01
 Real Space Part
  0.11205075E+04  0.11197125E+04  0.11173296E+04  0.11133645E+04  0.11078270E+04
  0.11007306E+04  0.10920924E+04  0.10819335E+04  0.10702784E+04  0.10571551E+04
  0.10425949E+04  0.10266325E+04  0.10093057E+04  0.99065513E+03  0.97072442E+03
  0.94955979E+03  0.92721002E+03  0.90372630E+03  0.87916205E+03  0.85357280E+03
  0.82701607E+03  0.79955121E+03  0.77123929E+03  0.74214301E+03  0.71232657E+03
  0.68185555E+03  0.65079688E+03  0.61921874E+03  0.58719047E+03  0.55478250E+03
  0.52206633E+03  0.48911447E+03  0.45600037E+03  0.42279836E+03  0.38958367E+03
  0.35643232E+03  0.32342108E+03  0.29062744E+03  0.25812952E+03  0.22600601E+03
  0.19433607E+03  0.16319923E+03  0.13267527E+03  0.10284408E+03  0.73785508E+02
  0.45579159E+02  0.18304186E+02 -0.79609449E+01 -0.33138724E+02 -0.57152895E+02
 -0.79928785E+02 -0.10139366E+03 -0.12147711E+03 -0.14011147E+03 -0.15723227E+03
 -0.17277867E+03 -0.18669401E+03 -0.19892625E+03 -0.20942855E+03 -0.21815976E+03
 -0.22508498E+03 -0.23017608E+03 -0.23341218E+03 -0.23478021E+03 -0.23427533E+03
 -0.23190137E+03 -0.22767119E+03 -0.22160703E+03 -0.21374074E+03 -0.20411398E+03
 -0.19277827E+03 -0.17979500E+03 -0.16523534E+03 -0.14918002E+03 -0.13171895E+03
 -0.11295063E+03 -0.92979974E+02 -0.71921725E+02 -0.50089573E+02 -0.30163288E+02
 -0.22465869E+02 -0.14233632E+02 -0.62401872E+01  0.13505371E+01  0.84279849E+01
  0.14881032E+02  0.20601583E+02  0.25487116E+02  0.29441226E+02  0.32374488E+02
  0.34205562E+02  0.34861214E+02  0.34277510E+02  0.32400019E+02  0.29184194E+02
  0.24591284E+02  0.18610019E+02  0.11322835E+02  0.17570716E+01  0.00000000E+00
 Non local Part
           1           2  0.809101009264628     
   1.22338271084671        3.52552832169747        3.52552832169747     
   8.35969593299738     
 Reciprocal Space Part
  0.00000000E+00  0.11231247E+01  0.22149003E+01  0.32448658E+01  0.41843119E+01
  0.50070978E+01  0.56903973E+01  0.62153550E+01  0.65676351E+01  0.67378465E+01
  0.67218342E+01  0.65208276E+01  0.61414432E+01  0.55955397E+01  0.48999315E+01
  0.40759661E+01  0.31489782E+01  0.21476348E+01  0.11031883E+01  0.48657770E-01
 -0.98203908E+00 -0.19549816E+01 -0.28371443E+01 -0.35972750E+01 -0.42067285E+01
 -0.46402350E+01 -0.48765833E+01 -0.48991997E+01 -0.46966092E+01 -0.42627669E+01
 -0.35972512E+01 -0.27053138E+01 -0.15977873E+01 -0.29085154E+00  0.11943331E+01
  0.28321165E+01  0.45929598E+01  0.64441303E+01  0.83504730E+01  0.10275238E+02
  0.12180941E+02  0.14030239E+02  0.15786794E+02  0.17416107E+02  0.18886299E+02
  0.20168821E+02  0.21239079E+02  0.22076955E+02  0.22667216E+02  0.22999797E+02
  0.23069966E+02  0.22878347E+02  0.22430829E+02  0.21738343E+02  0.20816529E+02
  0.19685297E+02  0.18368293E+02  0.16892300E+02  0.15286563E+02  0.13582090E+02
  0.11810914E+02  0.10005362E+02  0.81973301E+01  0.64175967E+01  0.46951761E+01
  0.30567388E+01  0.15261055E+01  0.12382445E+00 -0.11331567E+01 -0.22317224E+01
 -0.31627204E+01 -0.39209921E+01 -0.45053064E+01 -0.49182010E+01 -0.51657396E+01
 -0.52571932E+01 -0.52046579E+01 -0.50226200E+01 -0.47274837E+01 -0.43370725E+01
 -0.38701209E+01 -0.33457674E+01 -0.27830644E+01 -0.22005147E+01 -0.16156474E+01
 -0.10446413E+01 -0.50200334E+00 -0.30942804E-03  0.44999045E+00  0.84069946E+00
  0.11659341E+01  0.14221189E+01  0.16079196E+01  0.17241193E+01  0.17734445E+01
  0.17603482E+01  0.16907592E+01  0.15718050E+01  0.14115195E+01  0.12185426E+01
 Real Space Part
  0.00000000E+00  0.22347392E+02  0.44592127E+02  0.66631763E+02  0.88364286E+02
  0.10968835E+03  0.13050353E+03  0.15071061E+03  0.17021186E+03  0.18891146E+03
  0.20671580E+03  0.22353396E+03  0.23927818E+03  0.25386433E+03  0.26721248E+03
  0.27924747E+03  0.28989951E+03  0.29910482E+03  0.30680621E+03  0.31295380E+03
  0.31750559E+03  0.32042810E+03  0.32169697E+03  0.32129751E+03  0.31922522E+03
  0.31548619E+03  0.31009757E+03  0.30308779E+03  0.29449682E+03  0.28437628E+03
  0.27278944E+03  0.25981116E+03  0.24552765E+03  0.23003614E+03  0.21344445E+03
  0.19587041E+03  0.17744117E+03  0.15829236E+03  0.13856718E+03  0.11841535E+03
  0.97991951E+02  0.77456178E+02  0.56969996E+02  0.36696715E+02  0.16799498E+02
 -0.25601773E+01 -0.21224118E+02 -0.39039021E+02 -0.55858106E+02 -0.71542728E+02
 -0.85963972E+02 -0.99004205E+02 -0.11055856E+03 -0.12053634E+03 -0.12886231E+03
 -0.13547791E+03 -0.14034224E+03 -0.14343294E+03 -0.14474694E+03 -0.14430083E+03
 -0.14213126E+03 -0.13829486E+03 -0.13286811E+03 -0.12594679E+03 -0.11764531E+03
 -0.10809562E+03 -0.97445999E+02 -0.85859386E+02 -0.73511606E+02 -0.60589237E+02
 -0.47287263E+02 -0.33806490E+02 -0.20350764E+02 -0.71240061E+01  0.56728914E+01
  0.17845269E+02  0.29207983E+02  0.39588700E+02  0.48831149E+02  0.56798339E+02
  0.63375620E+02  0.68473540E+02  0.72030578E+02  0.74015504E+02  0.74429432E+02
  0.73307684E+02  0.70720931E+02  0.66776390E+02  0.61618030E+02  0.55426930E+02
  0.48420528E+02  0.40852114E+02  0.33009102E+02  0.25211647E+02  0.17810102E+02
  0.11182919E+02  0.57322710E+01  0.18762774E+01  0.12337662E+00  0.00000000E+00
 Reciprocal Space Part
  0.00000000E+00 -0.65122812E+00 -0.12811568E+01 -0.18691121E+01 -0.23956539E+01
 -0.28431498E+01 -0.31963004E+01 -0.34425989E+01 -0.35727149E+01 -0.35807901E+01
 -0.34646387E+01 -0.32258460E+01 -0.28697634E+01 -0.24053984E+01 -0.18452047E+01
 -0.12047750E+01 -0.50244720E+00  0.24116691E+00  0.10037171E+01  0.17617004E+01
  0.24910818E+01  0.31679318E+01  0.37690662E+01  0.42726687E+01  0.46588820E+01
  0.49103498E+01  0.50126968E+01  0.49549339E+01  0.47297773E+01  0.43338745E+01
  0.37679300E+01  0.30367291E+01  0.21490586E+01  0.11175268E+01 -0.41712411E-01
 -0.13093225E+01 -0.26632273E+01 -0.40791191E+01 -0.55310223E+01 -0.69918939E+01
 -0.84342487E+01 -0.98307925E+01 -0.11155045E+02 -0.12381942E+02 -0.13488395E+02
 -0.14453803E+02 -0.15260493E+02 -0.15894098E+02 -0.16343838E+02 -0.16602723E+02
 -0.16667659E+02 -0.16539462E+02 -0.16222776E+02 -0.15725912E+02 -0.15060593E+02
 -0.14241630E+02 -0.13286531E+02 -0.12215058E+02 -0.11048737E+02 -0.98103398E+01
 -0.85233548E+01 -0.72114488E+01 -0.58979433E+01 -0.46053134E+01 -0.33547217E+01
 -0.21655979E+01 -0.10552733E+01 -0.38677315E-01  0.87189848E+00  0.16669651E+01
  0.23399277E+01  0.28871047E+01  0.33076757E+01  0.36035634E+01  0.37792538E+01
  0.38415620E+01  0.37993518E+01  0.36632180E+01  0.34451410E+01  0.31581236E+01
  0.28158204E+01  0.24321690E+01  0.20210335E+01  0.15958685E+01  0.11694104E+01
  0.75340524E+00  0.35837579E+00 -0.65657744E-02 -0.33385809E+00 -0.61758173E+00
 -0.85350163E+00 -0.10390618E+01 -0.11733356E+01 -0.12569341E+01 -0.12918792E+01
 -0.12814443E+01 -0.12299720E+01 -0.11426716E+01 -0.10254064E+01 -0.88447508E+00
 Real Space Part
  0.00000000E+00 -0.15627899E+02 -0.31184172E+02 -0.46597318E+02 -0.61796099E+02
 -0.76709683E+02 -0.91267799E+02 -0.10540093E+03 -0.11904049E+03 -0.13211911E+03
 -0.14457085E+03 -0.15633152E+03 -0.16733898E+03 -0.17753356E+03 -0.18685835E+03
 -0.19525973E+03 -0.20268768E+03 -0.20909634E+03 -0.21444440E+03 -0.21869563E+03
 -0.22181930E+03 -0.22379065E+03 -0.22459137E+03 -0.22420994E+03 -0.22264212E+03
 -0.21989120E+03 -0.21596835E+03 -0.21089282E+03 -0.20469215E+03 -0.19740226E+03
 -0.18906748E+03 -0.17974050E+03 -0.16948224E+03 -0.15836164E+03 -0.14645532E+03
 -0.13384720E+03 -0.12062802E+03 -0.10689474E+03 -0.92749890E+02 -0.78300810E+02
 -0.63658829E+02 -0.48938364E+02 -0.34255946E+02 -0.19729194E+02 -0.54757352E+01
  0.83879173E+01  0.21747518E+02  0.34492265E+02  0.46515980E+02  0.57718292E+02
  0.68005799E+02  0.77293198E+02  0.85504376E+02  0.92573438E+02  0.98445656E+02
  0.10307835E+03  0.10644162E+03  0.10851902E+03  0.10930807E+03  0.10882057E+03
  0.10708289E+03  0.10413592E+03  0.10003497E+03  0.94849441E+02  0.88662268E+02
  0.81569200E+02  0.73677863E+02  0.65106626E+02  0.55983261E+02  0.46443420E+02
  0.36628925E+02  0.26685893E+02  0.16762710E+02  0.70078760E+01 -0.24322550E+01
 -0.11415811E+02 -0.19807794E+02 -0.27482481E+02 -0.34325803E+02 -0.40237683E+02
 -0.45134286E+02 -0.48950095E+02 -0.51639915E+02 -0.53180603E+02 -0.53572567E+02
 -0.52841138E+02 -0.51037408E+02 -0.48239111E+02 -0.44550782E+02 -0.40104030E+02
 -0.35056996E+02 -0.29593989E+02 -0.23924238E+02 -0.18280888E+02 -0.12919154E+02
 -0.81147905E+01 -0.41609126E+01 -0.13623369E+01 -0.89633026E-01  0.00000000E+00
 PAW radial sets
         399  0.708915279022620     
(5E20.12)                                
 augmentation charges (non sperical)
 -0.121506698485E+00 -0.148151609359E+00 -0.959422877975E-02 -0.824975807859E-02 -0.148151609359E+00
 -0.180656005013E+00 -0.114074884150E-01 -0.974711338580E-02 -0.959422877975E-02 -0.114074884150E-01
  0.116078392253E+00  0.185748354025E+00 -0.824975807859E-02 -0.974711338580E-02  0.185748354025E+00
  0.295826056226E+00
 uccopancies in atom
  0.200000000022E+01  0.000000000000E+00  0.000000000000E+00  0.000000000000E+00  0.000000000000E+00
  0.000000000000E+00  0.000000000000E+00  0.000000000000E+00  0.000000000000E+00  0.000000000000E+00
  0.999999999470E+00  0.000000000000E+00  0.000000000000E+00  0.000000000000E+00  0.000000000000E+00
  0.000000000000E+00
 grid
  0.280527516333E-04  0.289225357721E-04  0.298192878340E-04  0.307438439676E-04  0.316970662468E-04
  0.326798434741E-04  0.336930920097E-04  0.347377566259E-04  0.358148113878E-04  0.369252605618E-04
  0.380701395518E-04  0.392505158649E-04  0.404674901063E-04  0.417221970061E-04  0.430158064768E-04
  0.443495247045E-04  0.457245952736E-04  0.471423003259E-04  0.486039617567E-04  0.501109424469E-04
  0.516646475341E-04  0.532665257223E-04  0.549180706334E-04  0.566208221993E-04  0.583763680979E-04
  0.601863452337E-04  0.620524412639E-04  0.639763961718E-04  0.659600038897E-04  0.680051139712E-04
  0.701136333158E-04  0.722875279473E-04  0.745288248462E-04  0.768396138405E-04  0.792220495539E-04
  0.816783534148E-04  0.842108157277E-04  0.868217978087E-04  0.895137341871E-04  0.922891348757E-04
  0.951505877110E-04  0.981007607661E-04  0.101142404838E-03  0.104278356015E-03  0.107511538316E-03
  0.110844966423E-03  0.114281748487E-03  0.117825089030E-03  0.121478291928E-03  0.125244763500E-03
  0.129128015674E-03  0.133131669268E-03  0.137259457366E-03  0.141515228795E-03  0.145902951719E-03
  0.150426717332E-03  0.155090743682E-03  0.159899379594E-03  0.164857108732E-03  0.169968553777E-03
  0.175238480738E-03  0.180671803396E-03  0.186273587883E-03  0.192049057411E-03  0.198003597136E-03
  0.204142759186E-03  0.210472267831E-03  0.216998024827E-03  0.223726114913E-03  0.230662811488E-03
  0.237814582461E-03  0.245188096279E-03  0.252790228147E-03  0.260628066437E-03  0.268708919298E-03
  0.277040321473E-03  0.285630041319E-03  0.294486088053E-03  0.303616719224E-03  0.313030448405E-03
  0.322736053137E-03  0.332742583110E-03  0.343059368603E-03  0.353696029184E-03  0.364662482677E-03
  0.375968954412E-03  0.387625986760E-03  0.399644448959E-03  0.412035547251E-03  0.424810835334E-03
  0.437982225128E-03  0.451561997889E-03  0.465562815655E-03  0.479997733055E-03  0.494880209481E-03
  0.510224121638E-03  0.526043776481E-03  0.542353924558E-03  0.559169773761E-03  0.576507003509E-03
  0.594381779364E-03  0.612810768108E-03  0.631811153281E-03  0.651400651203E-03  0.671597527497E-03
  0.692420614113E-03  0.713889326894E-03  0.736023683677E-03  0.758844322957E-03  0.782372523134E-03
  0.806630222348E-03  0.831640038941E-03  0.857425292542E-03  0.884010025812E-03  0.911419026863E-03
  0.939677852369E-03  0.968812851398E-03  0.998851189976E-03  0.102982087642E-02  0.106175078746E-02
  0.109467069516E-02  0.112861129465E-02  0.116360423281E-02  0.119968213770E-02  0.123687864907E-02
  0.127522844964E-02  0.131476729750E-02  0.135553205942E-02  0.139756074525E-02  0.144089254332E-02
  0.148556785704E-02  0.153162834252E-02  0.157911694742E-02  0.162807795104E-02  0.167855700554E-02
  0.173060117855E-02  0.178425899706E-02  0.183958049263E-02  0.189661724807E-02  0.195542244556E-02
  0.201605091616E-02  0.207855919103E-02  0.214300555407E-02  0.220945009629E-02  0.227795477185E-02
  0.234858345582E-02  0.242140200372E-02  0.249647831295E-02  0.257388238610E-02  0.265368639620E-02
  0.273596475402E-02  0.282079417747E-02  0.290825376313E-02  0.299842505997E-02  0.309139214544E-02
  0.318724170380E-02  0.328606310702E-02  0.338794849805E-02  0.349299287677E-02  0.360129418856E-02
  0.371295341562E-02  0.382807467115E-02  0.394676529639E-02  0.406913596075E-02  0.419530076495E-02
  0.432537734748E-02  0.445948699420E-02  0.459775475151E-02  0.474030954290E-02  0.488728428917E-02
  0.503881603237E-02  0.519504606359E-02  0.535612005467E-02  0.552218819408E-02  0.569340532692E-02
  0.586993109928E-02  0.605193010718E-02  0.623957204995E-02  0.643303188850E-02  0.663249000848E-02
  0.683813238844E-02  0.705015077324E-02  0.726874285286E-02  0.749411244673E-02  0.772646969374E-02
  0.796603124822E-02  0.821302048191E-02  0.846766769229E-02  0.873021031726E-02  0.900089315657E-02
  0.927996860004E-02  0.956769686293E-02  0.986434622857E-02  0.101701932985E-01  0.104855232502E-01
  0.108106301035E-01  0.111458169942E-01  0.114913964569E-01  0.118476907164E-01  0.122150319883E-01
  0.125937627887E-01  0.129842362533E-01  0.133868164670E-01  0.138018788033E-01  0.142298102742E-01
  0.146710098911E-01  0.151258890370E-01  0.155948718499E-01  0.160783956182E-01  0.165769111888E-01
  0.170908833870E-01  0.176207914503E-01  0.181671294750E-01  0.187304068773E-01  0.193111488675E-01
  0.199098969406E-01  0.205272093808E-01  0.211636617819E-01  0.218198475842E-01  0.224963786278E-01
  0.231938857233E-01  0.239130192394E-01  0.246544497100E-01  0.254188684590E-01  0.262069882449E-01
  0.270195439257E-01  0.278572931437E-01  0.287210170323E-01  0.296115209441E-01  0.305296352018E-01
  0.314762158727E-01  0.324521455667E-01  0.334583342591E-01  0.344957201394E-01  0.355652704861E-01
  0.366679825681E-01  0.378048845754E-01  0.389770365768E-01  0.401855315093E-01  0.414314961966E-01
  0.427160923999E-01  0.440405179010E-01  0.454060076197E-01  0.468138347644E-01  0.482653120201E-01
  0.497617927717E-01  0.513046723665E-01  0.528953894146E-01  0.545354271311E-01  0.562263147182E-01
  0.579696287918E-01  0.597669948511E-01  0.616200887945E-01  0.635306384819E-01  0.655004253464E-01
  0.675312860547E-01  0.696251142200E-01  0.717838621675E-01  0.740095427550E-01  0.763042312493E-01
  0.786700672619E-01  0.811092567431E-01  0.836240740397E-01  0.862168640153E-01  0.888900442366E-01
  0.916461072276E-01  0.944876227942E-01  0.974172404194E-01  0.100437691734E+00  0.103551793066E+00
  0.106762448061E+00  0.110072650395E+00  0.113485486565E+00  0.117004138763E+00  0.120631887848E+00
  0.124372116402E+00  0.128228311886E+00  0.132204069889E+00  0.136303097485E+00  0.140529216684E+00
  0.144886368000E+00  0.149378614125E+00  0.154010143714E+00  0.158785275294E+00  0.163708461288E+00
  0.168784292168E+00  0.174017500736E+00  0.179412966535E+00  0.184975720401E+00  0.190710949150E+00
  0.196624000420E+00  0.202720387652E+00  0.209005795233E+00  0.215486083798E+00  0.222167295690E+00
  0.229055660599E+00  0.236157601368E+00  0.243479739980E+00  0.251028903739E+00  0.258812131627E+00
  0.266836680875E+00  0.275110033725E+00  0.283639904409E+00  0.292434246341E+00  0.301501259532E+00
  0.310849398238E+00  0.320487378843E+00  0.330424187982E+00  0.340669090926E+00  0.351231640216E+00
  0.362121684576E+00  0.373349378090E+00  0.384925189674E+00  0.396859912833E+00  0.409164675732E+00
  0.421850951565E+00  0.434930569259E+00  0.448415724497E+00  0.462318991095E+00  0.476653332723E+00
  0.491432114994E+00  0.506669117928E+00  0.522378548794E+00  0.538575055366E+00  0.555273739575E+00
  0.572490171592E+00  0.590240404346E+00  0.608540988491E+00  0.627408987842E+00  0.646861995280E+00
  0.666918149159E+00  0.687596150219E+00  0.708915279023E+00  0.730895413931E+00  0.753557049641E+00
  0.776921316292E+00  0.801009999172E+00  0.825845559028E+00  0.851451153008E+00  0.877850656256E+00
  0.905068684171E+00  0.933130615361E+00  0.962062615304E+00  0.991891660749E+00  0.102264556487E+01
  0.105435300318E+01  0.108704354031E+01  0.112074765754E+01  0.115549678122E+01  0.119132331210E+01
  0.122826065552E+01  0.126634325257E+01  0.130560661218E+01  0.134608734425E+01  0.138782319380E+01
  0.143085307611E+01  0.147521711308E+01  0.152095667058E+01  0.156811439704E+01  0.161673426321E+01
  0.166686160321E+01  0.171854315669E+01  0.177182711255E+01  0.182676315374E+01  0.188340250367E+01
  0.194179797397E+01  0.200200401367E+01  0.206407676003E+01  0.212807409087E+01  0.219405567851E+01
  0.226208304544E+01  0.233221962168E+01  0.240453080390E+01  0.247908401643E+01  0.255594877409E+01
  0.263519674707E+01  0.271690182767E+01  0.280114019927E+01  0.288799040732E+01  0.297753343262E+01
  0.306985276680E+01  0.316503449014E+01  0.326316735191E+01  0.336434285306E+01  0.346865533154E+01
  0.357620205030E+01  0.368708328794E+01  0.380140243226E+01  0.391926607658E+01  0.404078411922E+01
  0.416606986592E+01  0.429524013548E+01  0.442841536874E+01  0.456571974080E+01  0.470728127689E+01
  0.485323197168E+01  0.500370791237E+01  0.515884940559E+01  0.531880110823E+01
 aepotential
  0.363644682247E+05  0.353487416706E+05  0.343218994995E+05  0.332874444338E+05  0.322492400225E+05
  0.312117418979E+05  0.301780275742E+05  0.291515120221E+05  0.281355701014E+05  0.271326677666E+05
  0.261455362744E+05  0.251761744466E+05  0.242266614051E+05  0.232986148873E+05  0.223934581517E+05
  0.215123434150E+05  0.206562124034E+05  0.198257551850E+05  0.190214912190E+05  0.182437354012E+05
  0.174926412683E+05  0.167682089012E+05  0.160703026727E+05  0.153986696739E+05  0.147529457178E+05
  0.141326945858E+05  0.135373749937E+05  0.129664283631E+05  0.124191682409E+05  0.118949864823E+05
  0.113930896964E+05  0.109128288476E+05  0.104533937975E+05  0.100140762037E+05  0.959407610545E+04
  0.919266419585E+04  0.880912587447E+04  0.844266666875E+04  0.809257804644E+04  0.775821494956E+04
  0.743880725762E+04  0.713376718388E+04  0.684239598311E+04  0.656410751195E+04  0.629826616677E+04
  0.604433537324E+04  0.580173396356E+04  0.556992903385E+04  0.534844825234E+04  0.513676849927E+04
  0.493444232967E+04  0.474102075770E+04  0.455608033392E+04  0.437921615343E+04  0.421006720150E+04
  0.404823768918E+04  0.389340654465E+04  0.374520075028E+04  0.360334332964E+04  0.346756458209E+04
  0.333746920786E+04  0.321293097421E+04  0.309357648591E+04  0.297921320000E+04  0.286960400430E+04
  0.276454697462E+04  0.266379117974E+04  0.256715857659E+04  0.247448165241E+04  0.238555779224E+04
  0.230020878365E+04  0.221828597864E+04  0.213964701754E+04  0.206411269629E+04  0.199157762385E+04
  0.192189284723E+04  0.185492693728E+04  0.179057785600E+04  0.172871416363E+04  0.166924381454E+04
  0.161204904442E+04  0.155704450397E+04  0.150411721562E+04  0.145321232766E+04  0.140420803139E+04
  0.135704335172E+04  0.131163502413E+04  0.126791907021E+04  0.122581697826E+04  0.118525977529E+04
  0.114619060503E+04  0.110854625082E+04  0.107227597939E+04  0.103730229655E+04  0.100360002578E+04
  0.971106622423E+03  0.939763723548E+03  0.909545672905E+03  0.880393077063E+03  0.852270716517E+03
  0.825135424449E+03  0.798951259846E+03  0.773681748520E+03  0.749290413740E+03  0.725741193258E+03
  0.703006522257E+03  0.681052369598E+03  0.659851797879E+03  0.639374128283E+03  0.619593371624E+03
  0.600483397054E+03  0.582019904854E+03  0.564177027826E+03  0.546934865898E+03  0.530268765892E+03
  0.514159527799E+03  0.498585937261E+03  0.483528647889E+03  0.468969625663E+03  0.454890306476E+03
  0.441274378511E+03  0.428103286791E+03  0.415363079843E+03  0.403039233956E+03  0.391114281210E+03
  0.379577112064E+03  0.368411501947E+03  0.357605613714E+03  0.347148007624E+03  0.337024744195E+03
  0.327224857559E+03  0.317737313866E+03  0.308551043175E+03  0.299656208017E+03  0.291042438663E+03
  0.282699731175E+03  0.274619287462E+03  0.266792205917E+03  0.259209477209E+03  0.251862834791E+03
  0.244744433327E+03  0.237846626851E+03  0.231161553649E+03  0.224682246817E+03  0.218401783471E+03
  0.212313235299E+03  0.206410401255E+03  0.200686705093E+03  0.195136328691E+03  0.189753271044E+03
  0.184532049878E+03  0.179467020718E+03  0.174552996299E+03  0.169784929800E+03  0.165157750677E+03
  0.160666811307E+03  0.156307455179E+03  0.152075188114E+03  0.147965704029E+03  0.143974852057E+03
  0.140098600399E+03  0.136332809852E+03  0.132674144684E+03  0.129118393670E+03  0.125662499916E+03
  0.122302563270E+03  0.119035516892E+03  0.115858059860E+03  0.112767014638E+03  0.109759315829E+03
  0.106832102237E+03  0.103982390852E+03  0.101207487954E+03  0.985046210266E+02  0.958712337914E+02
  0.933046967933E+02  0.908025978674E+02  0.883625288383E+02  0.859821528780E+02  0.836591391493E+02
  0.813913594237E+02  0.791766176932E+02  0.770128572658E+02  0.748980070893E+02  0.728301291303E+02
  0.708072615360E+02  0.688275647727E+02  0.668891858207E+02  0.649903532722E+02  0.631293420475E+02
  0.613044552230E+02  0.595140387381E+02  0.577565072790E+02  0.560302690858E+02  0.543338184627E+02
  0.526656454509E+02  0.510243090430E+02  0.494083767439E+02  0.478164701677E+02  0.462472266708E+02
  0.446993332654E+02  0.431714741504E+02  0.416624274742E+02  0.401709143645E+02  0.386957680869E+02
  0.372357697734E+02  0.357898081006E+02  0.343567312566E+02  0.329354442610E+02  0.315248860564E+02
  0.301239875381E+02  0.287317346571E+02  0.273471220025E+02  0.259691724322E+02  0.245969288767E+02
  0.232294582664E+02  0.218658580321E+02  0.205052314900E+02  0.191467187953E+02  0.177894776579E+02
  0.164326873891E+02  0.150755539155E+02  0.137172948397E+02  0.123571639974E+02  0.109944320853E+02
  0.962838541045E+01  0.825834551856E+01  0.688364994680E+01  0.550365955949E+01  0.411776095861E+01
  0.272536462678E+01  0.132590449240E+01 -0.811611237080E-01 -0.149634805889E+01 -0.292014624475E+01
 -0.435302113079E+01 -0.579541125108E+01 -0.724772649713E+01 -0.871035342334E+01 -0.101836467483E+02
 -0.116679335512E+02 -0.131635146559E+02 -0.146706573719E+02 -0.161896006967E+02 -0.177205521151E+02
 -0.192636874310E+02 -0.208191490020E+02 -0.223870457351E+02 -0.239674519012E+02 -0.255604048061E+02
 -0.271659054058E+02 -0.287839142952E+02 -0.304143518026E+02 -0.320570942843E+02 -0.337119729797E+02
 -0.353787693970E+02 -0.370572129372E+02 -0.387469757046E+02 -0.404476680153E+02 -0.421588320648E+02
 -0.438799345326E+02 -0.456103584052E+02 -0.473493929670E+02 -0.490962213142E+02 -0.508499075859E+02
 -0.526093802337E+02 -0.543734137380E+02 -0.561406077430E+02 -0.579093634126E+02 -0.596778570927E+02
 -0.614440122636E+02 -0.632054693090E+02 -0.649595555124E+02 -0.667032556601E+02 -0.684331865848E+02
 -0.701455782694E+02 -0.718362659770E+02 -0.735006983686E+02 -0.751339678176E+02 -0.767308697731E+02
 -0.782859986697E+02 -0.797938880338E+02 -0.812492023659E+02 -0.826469881328E+02 -0.839829912972E+02
 -0.852540493200E+02 -0.864585674264E+02 -0.875970895116E+02 -0.886729695437E+02 -0.896931276911E+02
 -0.906688136179E+02 -0.916161617852E+02 -0.925560700321E+02 -0.935125587284E+02 -0.945084005548E+02
 -0.955568566820E+02 -0.966495566929E+02 -0.977435754195E+02 -0.987548957575E+02 -0.995673585401E+02
 -0.100061379846E+03 -0.100154992325E+03 -0.998385175860E+02 -0.991826925454E+02 -0.983122582005E+02
 -0.973581436896E+02 -0.964160585281E+02 -0.955317699989E+02 -0.947111141203E+02 -0.939390881949E+02
 -0.931953469543E+02 -0.924622717305E+02 -0.917274073771E+02 -0.909830060807E+02 -0.902246338886E+02
 -0.894498049634E+02 -0.886569508584E+02 -0.878448123883E+02 -0.870121333309E+02 -0.861575897491E+02
 -0.852798265131E+02 -0.843775483315E+02 -0.834496262855E+02 -0.824951686059E+02 -0.815135855842E+02
 -0.805046166180E+02 -0.794683496524E+02 -0.784052059023E+02 -0.773159303477E+02 -0.762015691304E+02
 -0.750634350400E+02 -0.739030828065E+02 -0.727222711947E+02 -0.715229330546E+02 -0.703071375873E+02
 -0.690770573444E+02 -0.678349367499E+02 -0.665830513997E+02 -0.653236791265E+02 -0.640590656940E+02
 -0.627913868676E+02 -0.615227227132E+02 -0.602550215233E+02 -0.589900761191E+02 -0.577295002498E+02
 -0.564747132155E+02 -0.552269326439E+02 -0.539871781594E+02 -0.527562866405E+02 -0.515349396867E+02
 -0.503237019290E+02 -0.491230679775E+02 -0.479335146096E+02 -0.467555482868E+02 -0.455897587322E+02
 -0.444368476562E+02 -0.432976556180E+02 -0.421731693520E+02 -0.410645145245E+02 -0.399729343717E+02
 -0.388997564336E+02 -0.378463502098E+02 -0.368140787624E+02 -0.358042472639E+02 -0.348180513137E+02
 -0.338565277674E+02 -0.329205107111E+02 -0.320105952759E+02 -0.311271118111E+02 -0.302701126510E+02
 -0.294393729592E+02 -0.286344060614E+02 -0.278544923014E+02 -0.270987190485E+02 -0.263660283296E+02
 -0.256552678991E+02 -0.249652415141E+02 -0.242947547304E+02 -0.236426534972E+02 -0.230078539946E+02
 -0.223893632855E+02 -0.217862912838E+02 -0.211978551883E+02 -0.206233778781E+02 -0.200622818571E+02
 -0.195140802427E+02 -0.189783660815E+02 -0.184548010177E+02 -0.179431040713E+02 -0.174430410447E+02
 -0.169544148739E+02 -0.164770570862E+02 -0.160108204113E+02 -0.155555725167E+02 -0.151111907893E+02
 -0.146775580634E+02 -0.142545591814E+02 -0.138420782774E+02 -0.134399966805E+02
 core charge-density
  0.378166382033E-05  0.401938218526E-05  0.427204063063E-05  0.454057781232E-05  0.482599133249E-05
  0.512934143848E-05  0.545175495397E-05  0.579442945618E-05  0.615863771496E-05  0.654573241029E-05
  0.695715114492E-05  0.739442177149E-05  0.785916805303E-05  0.835311567821E-05  0.887809865318E-05
  0.943606609378E-05  0.100290894428E-04  0.106593701395E-04  0.113292477686E-04  0.120412087194E-04
  0.127978953877E-04  0.136021159518E-04  0.144568547612E-04  0.153652833747E-04  0.163307722892E-04
  0.173569034008E-04  0.184474832458E-04  0.196065570691E-04  0.208384237714E-04  0.221476517906E-04
  0.235390959747E-04  0.250179155092E-04  0.265895929631E-04  0.282599545242E-04  0.300351914967E-04
  0.319218831414E-04  0.339270209390E-04  0.360580343676E-04  0.383228182867E-04  0.407297620288E-04
  0.432877803026E-04  0.460063460226E-04  0.488955251816E-04  0.519660138961E-04  0.552291777549E-04
  0.586970936191E-04  0.623825940175E-04  0.662993143062E-04  0.704617427578E-04  0.748852737606E-04
  0.795862643255E-04  0.845820940975E-04  0.898912290922E-04  0.955332893873E-04  0.101529121008E-03
  0.107900872272E-03  0.114672074856E-03  0.121867729890E-03  0.129514399378E-03  0.137640303265E-03
  0.146275422513E-03  0.155451608552E-03  0.165202699464E-03  0.175564643377E-03  0.186575629429E-03
  0.198276226838E-03  0.210709532514E-03  0.223921327783E-03  0.237960244726E-03  0.252877942766E-03
  0.268729296092E-03  0.285572592595E-03  0.303469745000E-03  0.322486514935E-03  0.342692750750E-03
  0.364162639841E-03  0.386974976441E-03  0.411213445752E-03  0.436966925402E-03  0.464329805310E-03
  0.493402326995E-03  0.524290943565E-03  0.557108701540E-03  0.591975645917E-03  0.629019249703E-03
  0.668374869566E-03  0.710186228970E-03  0.754605930538E-03  0.801795999305E-03  0.851928458715E-03
  0.905185941277E-03  0.961762335898E-03  0.102186347405E-02  0.108570785700E-02  0.115352742669E-02
  0.122556838235E-02  0.130209204600E-02  0.138337577946E-02  0.146971395559E-02  0.156141898734E-02
  0.165882241745E-02  0.176227607267E-02  0.187215328581E-02  0.198885018963E-02  0.211278708663E-02
  0.224440989904E-02  0.238419170316E-02  0.253263435332E-02  0.269027019979E-02  0.285766390639E-02
  0.303541437281E-02  0.322415676765E-02  0.342456467803E-02  0.363735238222E-02  0.386327725157E-02
  0.410314228912E-02  0.435779881160E-02  0.462814928284E-02  0.491515030611E-02  0.521981578385E-02
  0.554322025343E-02  0.588650240763E-02  0.625086880961E-02  0.663759781181E-02  0.704804368872E-02
  0.748364099484E-02  0.794590915748E-02  0.843645731705E-02  0.895698942556E-02  0.950930961565E-02
  0.100953278533E-01  0.107170658861E-01  0.113766635009E-01  0.120763851046E-01  0.128186266416E-01
  0.136059228624E-01  0.144409549583E-01  0.153265585765E-01  0.162657322302E-01  0.172616461211E-01
  0.183176513872E-01  0.194372897925E-01  0.206243038743E-01  0.218826475632E-01  0.232164972909E-01
  0.246302636011E-01  0.261286032777E-01  0.277164320051E-01  0.293989375739E-01  0.311815936432E-01
  0.330701740746E-01  0.350707678441E-01  0.371897945453E-01  0.394340204890E-01  0.418105754040E-01
  0.443269697467E-01  0.469911126159E-01  0.498113302737E-01  0.527963852673E-01  0.559554961426E-01
  0.592983577374E-01  0.628351620343E-01  0.665766195620E-01  0.705339812944E-01  0.747190610461E-01
  0.791442582858E-01  0.838225813587E-01  0.887676710248E-01  0.939938242705E-01  0.995160183126E-01
  0.105349934702E+00  0.111511983431E+00  0.118019326943E+00  0.124889903896E+00  0.132142452569E+00
  0.139796533724E+00  0.147872552780E+00  0.156391781074E+00  0.165376376027E+00  0.174849399952E+00
  0.184834837276E+00  0.195357609862E+00  0.206443590153E+00  0.218119611785E+00  0.230413477316E+00
  0.243353962671E+00  0.256970817891E+00  0.271294763709E+00  0.286357483495E+00  0.302191610014E+00
  0.318830706458E+00  0.336309241148E+00  0.354662555287E+00  0.373926823069E+00  0.394139003478E+00
  0.415336783001E+00  0.437558508511E+00  0.460843109485E+00  0.485230008756E+00  0.510759020889E+00
  0.537470237345E+00  0.565403897453E+00  0.594600244395E+00  0.625099365069E+00  0.656941013160E+00
  0.690164414236E+00  0.724808052229E+00  0.760909436140E+00  0.798504846459E+00  0.837629060264E+00
  0.878315054434E+00  0.920593686416E+00  0.964493351935E+00  0.101003961941E+01  0.105725484080E+01
  0.110615773899E+01  0.115676297176E+01  0.120908067294E+01  0.126311597140E+01  0.131886848887E+01
  0.137633181810E+01  0.143549298288E+01  0.149633188228E+01  0.155882072160E+01  0.162292343312E+01
  0.168859509021E+01  0.175578131908E+01  0.182441771261E+01  0.189442925190E+01  0.196572974121E+01
  0.203822126300E+01  0.211179366026E+01  0.218632405404E+01  0.226167640462E+01  0.233770112556E+01
  0.241423476017E+01  0.249109973095E+01  0.256810417249E+01  0.264504185891E+01  0.272169223770E+01
  0.279782058098E+01  0.287317826622E+01  0.294750319794E+01  0.302052038126E+01  0.309194265834E+01
  0.316147161750E+01  0.322879868398E+01  0.329360639986E+01  0.335556989951E+01  0.341435858459E+01
  0.346963800072E+01  0.352107191546E+01  0.356832459415E+01  0.361106326753E+01  0.364896078101E+01
  0.368169841240E+01  0.370896884034E+01  0.373047924212E+01  0.374595449491E+01  0.375514045000E+01
  0.375780724585E+01  0.375375262056E+01  0.374280518108E+01  0.372482758235E+01  0.369971956582E+01
  0.366742080477E+01  0.362791350065E+01  0.358122467419E+01  0.352742809383E+01  0.346664578542E+01
  0.339904906809E+01  0.332485906544E+01  0.324434664476E+01  0.315783174407E+01  0.306568205376E+01
  0.296831102944E+01  0.286617522329E+01  0.275977093367E+01  0.264963018647E+01  0.253631607696E+01
  0.242041751637E+01  0.230254344397E+01  0.218331658191E+01  0.206336682552E+01  0.194332437627E+01
  0.182381273964E+01  0.170544171357E+01  0.158880050898E+01  0.147445113992E+01  0.136292222218E+01
  0.125470331142E+01  0.115023989838E+01  0.104992915524E+01  0.954116491950E+00  0.863092930960E+00
  0.777093246636E+00  0.696294757196E+00  0.620816638371E+00  0.550719698884E+00  0.486006745858E+00
  0.426623917033E+00  0.372463504423E+00  0.323368663451E+00  0.279139964659E+00  0.239543195318E+00
  0.204317468720E+00  0.173182769535E+00  0.145846494454E+00  0.122009020997E+00  0.101368570371E+00
  0.836255979111E-01  0.684868027987E-01  0.556687341024E-01  0.449009230101E-01  0.359284741784E-01
  0.285140747574E-01  0.224394102838E-01  0.175060040752E-01  0.135355187642E-01  0.103695748809E-01
  0.786915263364E-02  0.591364976933E-02  0.439967124581E-02  0.323962579980E-02  0.236020086205E-02
  0.170078111719E-02  0.121186793030E-02  0.853547475325E-03  0.594045348017E-03  0.408395333890E-03
  0.277240370311E-03  0.185775025615E-03  0.122831331298E-03  0.801037316694E-04  0.515043219388E-04
  0.326363886311E-04  0.203724169086E-04  0.125220019327E-04  0.757527515406E-05  0.450830130131E-05
  0.263819761430E-05  0.151727715932E-05  0.857160605918E-06  0.475410303565E-06  0.258729670345E-06
  0.138086057402E-06  0.722314610159E-07  0.370096600223E-07  0.185629494615E-07  0.910845686849E-08
  0.436940952226E-08  0.204779353782E-08  0.936982076507E-09  0.418258591348E-09  0.182013624740E-09
  0.771569668921E-10  0.318357285543E-10  0.127752079609E-10  0.498159427524E-11  0.188598229330E-11
  0.692604025446E-12  0.246494315584E-12  0.849349193704E-13  0.283068968066E-13  0.911548357493E-14
  0.283327531106E-14  0.849071924741E-15  0.245050923468E-15  0.680327475072E-16  0.181470860207E-16
  0.464498000278E-17  0.113944347556E-17  0.267522527865E-18  0.600337636740E-19  0.128584722925E-19
  0.262490886242E-20  0.509945345871E-21  0.941350985564E-22  0.164858752089E-22  0.273462739426E-23
  0.428925577688E-24  0.635057769142E-25  0.885970233932E-26  0.116252745537E-26  0.143200576541E-27
  0.165271484844E-28  0.178357309896E-29  0.179607775786E-30  0.168412510742E-31  0.146718129219E-32
  0.118486592989E-33  0.884944603632E-35  0.609787577708E-36  0.386703975621E-37  0.225115334046E-38
  0.119981026466E-39  0.583876096058E-41  0.258709833632E-42  0.104072434120E-43
 kinetic energy-density
  0.532956018166E-01  0.540203856969E-01  0.547720725133E-01  0.555514721754E-01  0.563599445251E-01
  0.571986195198E-01  0.580687284981E-01  0.589718771247E-01  0.599093557332E-01  0.608828377130E-01
  0.618938244556E-01  0.629440654135E-01  0.640353821697E-01  0.651696582464E-01  0.663488774905E-01
  0.675751610302E-01  0.688506662078E-01  0.701777564928E-01  0.715588319379E-01  0.729964639909E-01
  0.744933405836E-01  0.760522916367E-01  0.776762900206E-01  0.793684721750E-01  0.811321158098E-01
  0.829707040860E-01  0.848878557921E-01  0.868874462016E-01  0.889734902702E-01  0.911502279551E-01
  0.934221862700E-01  0.957940243824E-01  0.982707663792E-01  0.100857651737E+00  0.103560187444E+00
  0.106384175812E+00  0.109335805687E+00  0.112421592746E+00  0.115648280065E+00  0.119023129031E+00
  0.122553757149E+00  0.126248183035E+00  0.130114928398E+00  0.134162922739E+00  0.138401590699E+00
  0.142841046045E+00  0.147491751605E+00  0.152364810923E+00  0.157472113068E+00  0.162826034994E+00
  0.168439847465E+00  0.174327369697E+00  0.180503326804E+00  0.186983294538E+00  0.193783659305E+00
  0.200921941351E+00  0.208416473348E+00  0.216286732714E+00  0.224553197643E+00  0.233237912666E+00
  0.242363616333E+00  0.251955029695E+00  0.262037712616E+00  0.272639209985E+00  0.283788105858E+00
  0.295515450067E+00  0.307853413531E+00  0.320836321703E+00  0.334500451319E+00  0.348884567174E+00
  0.364029207508E+00  0.379977558194E+00  0.396775368239E+00  0.414470994396E+00  0.433115792935E+00
  0.452764050608E+00  0.473473301846E+00  0.495304548609E+00  0.518322274007E+00  0.542595028522E+00
  0.568195239989E+00  0.595199888595E+00  0.623689875623E+00  0.653752244744E+00  0.685477807917E+00
  0.718963599636E+00  0.754312160163E+00  0.791632286577E+00  0.831039548316E+00  0.872655644004E+00
  0.916610380751E+00  0.963040642432E+00  0.101209231707E+01  0.106391913599E+01  0.111868441391E+01
  0.117656172327E+01  0.123773412039E+01  0.130239592539E+01  0.137075400042E+01  0.144302579483E+01
  0.151944359259E+01  0.160025189907E+01  0.168571156046E+01  0.177609758624E+01  0.187170219814E+01
  0.197283460186E+01  0.207982284413E+01  0.219301431683E+01  0.231277714911E+01  0.243950174308E+01
  0.257360080968E+01  0.271551315292E+01  0.286570178728E+01  0.302465897332E+01  0.319290504453E+01
  0.337099154365E+01  0.355950295500E+01  0.375905786268E+01  0.397031170957E+01  0.419395852035E+01
  0.443073352279E+01  0.468141517322E+01  0.494682569234E+01  0.522784040998E+01  0.552538011049E+01
  0.584042428695E+01  0.617400693146E+01  0.652722228433E+01  0.690123009595E+01  0.729725617644E+01
  0.771659798084E+01  0.816062648191E+01  0.863079430597E+01  0.912863531629E+01  0.965577393391E+01
  0.102139250593E+02  0.108049032111E+02  0.114306262181E+02  0.120931204334E+02  0.127945271836E+02
  0.135371079702E+02  0.143232537091E+02  0.151554870356E+02  0.160364726470E+02  0.169690241146E+02
  0.179561098836E+02  0.190008634973E+02  0.201065902870E+02  0.212767768955E+02  0.225150994037E+02
  0.238254348552E+02  0.252118675916E+02  0.266787031576E+02  0.282304756430E+02  0.298719611202E+02
  0.316081864983E+02  0.334444438524E+02  0.353863001032E+02  0.374396100069E+02  0.396105308565E+02
  0.419055325941E+02  0.443314111197E+02  0.468953089818E+02  0.496047162433E+02  0.524675006793E+02
  0.554919053794E+02  0.586865818270E+02  0.620605847008E+02  0.656234072449E+02  0.693849780237E+02
  0.733556888848E+02  0.775464052180E+02  0.819684758541E+02  0.866337584137E+02  0.915546219702E+02
  0.967439695080E+02  0.102215242406E+03  0.107982442141E+03  0.114060134977E+03  0.120463462567E+03
  0.127208152170E+03  0.134310526416E+03  0.141787504837E+03  0.149656610481E+03  0.157935969889E+03
  0.166644314206E+03  0.175800974162E+03  0.185425875427E+03  0.195539524070E+03  0.206162999706E+03
  0.217317931554E+03  0.229026478569E+03  0.241311303194E+03  0.254195534633E+03  0.267702733657E+03
  0.281856847267E+03  0.296682151643E+03  0.312203199816E+03  0.328444747811E+03  0.345431680989E+03
  0.363188930528E+03  0.381741367671E+03  0.401113721384E+03  0.421330432155E+03  0.442415541722E+03
  0.464392563948E+03  0.487284288107E+03  0.511112682662E+03  0.535898640335E+03  0.561661843927E+03
  0.588420533443E+03  0.616191274816E+03  0.644988758614E+03  0.674825503508E+03  0.705711635918E+03
  0.737654570303E+03  0.770658751022E+03  0.804725319729E+03  0.839851806320E+03  0.876031801192E+03
  0.913254611700E+03  0.951504910055E+03  0.990762390043E+03  0.103100138199E+04  0.107219052991E+04
  0.111429239501E+04  0.115726311000E+04  0.120105205271E+04  0.124560147184E+04  0.129084620111E+04
  0.133671333892E+04  0.138312198887E+04  0.142998301218E+04  0.147719882965E+04  0.152466326091E+04
  0.157226141834E+04  0.161986965692E+04  0.166735558530E+04  0.171457815746E+04  0.176138781893E+04
  0.180762678020E+04  0.185312932957E+04  0.189772227765E+04  0.194122550659E+04  0.198345259586E+04
  0.202421159936E+04  0.206330590340E+04  0.210053523112E+04  0.213569673869E+04  0.216858625130E+04
  0.219899959727E+04  0.222673405825E+04  0.225158993160E+04  0.227337217208E+04  0.229189213725E+04
  0.230696938827E+04  0.231843356250E+04  0.232612628154E+04  0.232990307487E+04  0.232963531104E+04
  0.232521210123E+04  0.231654215080E+04  0.230355553635E+04  0.228620537857E+04  0.226446937804E+04
  0.223835119114E+04  0.220788160410E+04  0.217311949915E+04  0.213415255150E+04  0.209109766407E+04
  0.204410108872E+04  0.199333823016E+04  0.193901309964E+04  0.188135741465E+04  0.182062932185E+04
  0.175711174858E+04  0.169111036934E+04  0.162295120115E+04  0.155297783234E+04  0.148154830538E+04
  0.140903167764E+04  0.133580429574E+04  0.126224582597E+04  0.118873506881E+04  0.111564579838E+04
  0.104334219264E+04  0.972174745875E+03  0.902475981982E+03  0.834556503087E+03  0.768701333998E+03
  0.705166688100E+03  0.644177276681E+03  0.585924311829E+03  0.530564393391E+03  0.478219503649E+03
  0.428978304822E+03  0.382898750342E+03  0.340011595749E+03  0.300323789143E+03  0.263820298158E+03
  0.230463266265E+03  0.200188731432E+03  0.172902844863E+03  0.148480362608E+03  0.126767390515E+03
  0.107588271134E+03  0.907544509340E+02  0.760726014124E+02  0.633504173764E+02  0.524001100278E+02
  0.430404409857E+02  0.350980933202E+02  0.284087988168E+02  0.228183342407E+02  0.181833598331E+02
  0.143720451124E+02  0.112644434343E+02  0.875260472780E+01  0.674043771869E+01  0.514334866793E+01
  0.388769191896E+01  0.291007157106E+01  0.215653420764E+01  0.158169104647E+01  0.114780501202E+01
  0.823874182651E+00  0.584738416366E+00  0.410230805826E+00  0.284390385677E+00  0.194747361572E+00
  0.131687353972E+00  0.878969298237E-01  0.578891466977E-01  0.376050505208E-01  0.240850450603E-01
  0.152027567245E-01  0.945336875532E-02  0.578828890297E-02  0.348832620364E-02  0.206816388365E-02
  0.120571579456E-02  0.690846457071E-03  0.388841118991E-03  0.214875647520E-03  0.116517050159E-03
  0.619632707151E-04  0.322975259184E-04  0.164904971043E-04  0.824250313206E-05  0.403058697483E-05
  0.192697287548E-05  0.900091241875E-06  0.410485221495E-06  0.182639890725E-06  0.792242716096E-07
  0.334774763100E-07  0.137700619677E-07  0.550875937537E-08  0.214161338764E-08  0.808389172263E-09
  0.296007327267E-09  0.105047209884E-09  0.360953111724E-10  0.119969672164E-10  0.385302974212E-11
  0.119449508471E-11  0.357061532784E-12  0.102798855720E-12  0.284717196428E-13  0.757698632475E-14
  0.193507159880E-14  0.473651026669E-15  0.110970240171E-15  0.248512956769E-16  0.531221576853E-17
  0.108232492613E-17  0.209868384496E-18  0.386701998848E-19  0.676018309427E-20  0.111939955651E-20
  0.175277897752E-21  0.259079652323E-22  0.360852459185E-23  0.472736231684E-24  0.581405804574E-25
  0.669983991758E-26  0.721940658852E-27  0.725924142978E-28  0.679683361753E-29  0.591278568799E-30
  0.476829056869E-31  0.355633725492E-32  0.244718079417E-33  0.154979052009E-34  0.900972305673E-36
  0.479550994136E-37  0.233056503359E-38  0.103127060877E-39  0.414298796570E-41
 mkinetic energy-density pseudized
  0.100410759564E-06  0.106733819873E-06  0.113455055553E-06  0.120599540478E-06  0.128193927473E-06
  0.136266547744E-06  0.144847516567E-06  0.153968845636E-06  0.163664562481E-06  0.173970837415E-06
  0.184926118462E-06  0.196571274796E-06  0.208949749198E-06  0.222107720129E-06  0.236094273994E-06
  0.250961588264E-06  0.266765126128E-06  0.283563843397E-06  0.301420408445E-06  0.320401435993E-06
  0.340577735622E-06  0.362024575924E-06  0.384821965306E-06  0.409054950452E-06  0.434813933605E-06
  0.462195009808E-06  0.491300325395E-06  0.522238459051E-06  0.555124826869E-06  0.590082112917E-06
  0.627240726913E-06  0.666739290724E-06  0.708725155505E-06  0.753354951393E-06  0.800795171827E-06
  0.851222794653E-06  0.904825942355E-06  0.961804583844E-06  0.102237128046E-05  0.108675197893E-05
  0.115518685429E-05  0.122793120583E-05  0.130525640954E-05  0.138745093048E-05  0.147482139887E-05
  0.156769375405E-05  0.166641446034E-05  0.177135179961E-05  0.188289724510E-05  0.200146692187E-05
  0.212750315915E-05  0.226147614047E-05  0.240388565770E-05  0.255526297553E-05  0.271617281336E-05
  0.288721545204E-05  0.306902897319E-05  0.326229163962E-05  0.346772442557E-05  0.368609370638E-05
  0.391821411739E-05  0.416495159304E-05  0.442722659721E-05  0.470601755704E-05  0.500236451297E-05
  0.531737299864E-05  0.565221816508E-05  0.600814916465E-05  0.638649381102E-05  0.678866353255E-05
  0.721615863768E-05  0.767057391184E-05  0.815360456677E-05  0.866705256451E-05  0.921283333965E-05
  0.979298294483E-05  0.104096656462E-04  0.110651819972E-04  0.117619774207E-04  0.125026513317E-04
  0.132899668343E-04  0.141268610295E-04  0.150164559717E-04  0.159620703156E-04  0.169672316964E-04
  0.180356898892E-04  0.191714307975E-04  0.203786913225E-04  0.216619751681E-04  0.230260696422E-04
  0.244760635151E-04  0.260173660025E-04  0.276557269444E-04  0.293972582540E-04  0.312484567177E-04
  0.332162282303E-04  0.353079135565E-04  0.375313157148E-04  0.398947290850E-04  0.424069703492E-04
  0.450774113805E-04  0.479160142032E-04  0.509333681537E-04  0.541407293814E-04  0.575500628371E-04
  0.611740869050E-04  0.650263208446E-04  0.691211352204E-04  0.734738055060E-04  0.781005690640E-04
  0.830186857133E-04  0.882465021091E-04  0.938035201777E-04  0.997104698584E-04  0.105989386427E-03
  0.112663692684E-03  0.119758286324E-03  0.127299632796E-03  0.135315864021E-03  0.143836883312E-03
  0.152894476910E-03  0.162522432536E-03  0.172756665407E-03  0.183635352184E-03  0.195199073354E-03
  0.207490964573E-03  0.220556877536E-03  0.234445550970E-03  0.249208792398E-03  0.264901671331E-03
  0.281582724631E-03  0.299314174792E-03  0.318162161960E-03  0.338196990555E-03  0.359493391413E-03
  0.382130800424E-03  0.406193654700E-03  0.431771707383E-03  0.458960362255E-03  0.487861029408E-03
  0.518581503278E-03  0.551236364467E-03  0.585947406843E-03  0.622844091499E-03  0.662064029264E-03
  0.703753493560E-03  0.748067965509E-03  0.795172713317E-03  0.845243408082E-03  0.898466778316E-03
  0.955041305614E-03  0.101517796404E-02  0.107910100599E-02  0.114704879742E-02  0.121927470557E-02
  0.129604804244E-02  0.137765506751E-02  0.146440005350E-02  0.155660641893E-02  0.165461793189E-02
  0.175879998931E-02  0.186954097650E-02  0.198725371200E-02  0.211237698307E-02  0.224537717744E-02
  0.238675001736E-02  0.253702240230E-02  0.269675436720E-02  0.286654116322E-02  0.304701546893E-02
  0.323884973974E-02  0.344275870446E-02  0.365950201789E-02  0.388988707929E-02  0.413477202690E-02
  0.439506891954E-02  0.467174711673E-02  0.496583686975E-02  0.527843313647E-02  0.561069963399E-02
  0.596387314354E-02  0.633926808328E-02  0.673828136529E-02  0.716239755441E-02  0.761319434717E-02
  0.809234839049E-02  0.860164146082E-02  0.914296702568E-02  0.971833721072E-02  0.103298901970E-01
  0.109798980741E-01  0.116707751775E-01  0.124050869373E-01  0.131855592716E-01  0.140150885547E-01
  0.148967521951E-01  0.158338198599E-01  0.168297653831E-01  0.178882793974E-01  0.190132827337E-01
  0.202089406299E-01  0.214796777987E-01  0.228301944016E-01  0.242654829817E-01  0.257908464095E-01
  0.274119168979E-01  0.291346761474E-01  0.309654766817E-01  0.329110644413E-01  0.349786027006E-01
  0.371756973808E-01  0.395104238323E-01  0.419913551612E-01  0.446275921816E-01  0.474287950734E-01
  0.504052168305E-01  0.535677385870E-01  0.569279069082E-01  0.604979731396E-01  0.642909349028E-01
  0.683205798347E-01  0.726015316603E-01  0.771492986960E-01  0.819803248719E-01  0.871120433679E-01
  0.925629329471E-01  0.983525770741E-01  0.104501725893E+00  0.111032361136E+00  0.117967764028E+00
  0.125332586227E+00  0.133152923850E+00  0.141456394587E+00  0.150272217913E+00  0.159631298361E+00
  0.169566311810E+00  0.180111794687E+00  0.191304235953E+00  0.203182171709E+00  0.215786282170E+00
  0.229159490725E+00  0.243347064714E+00  0.258396717474E+00  0.274358711106E+00  0.291285959305E+00
  0.309234129499E+00  0.328261743349E+00  0.348430274564E+00  0.369804242758E+00  0.392451301893E+00
  0.416442321641E+00  0.441851459689E+00  0.468756222793E+00  0.497237514008E+00  0.527379663195E+00
  0.559270437499E+00  0.593001028044E+00  0.628666008619E+00  0.666363261574E+00  0.706193865567E+00
  0.748261939138E+00  0.792674433406E+00  0.839540866390E+00  0.888972990656E+00  0.941084385064E+00
  0.995989960489E+00  0.105380536834E+01  0.111464629965E+01  0.117862766145E+01  0.124586261600E+01
  0.131646146717E+01  0.139053037740E+01  0.146816989742E+01  0.154947328975E+01  0.163452462653E+01
  0.172339664098E+01  0.181614831193E+01  0.191282216026E+01  0.201344123677E+01  0.211800578182E+01
  0.222648953869E+01  0.233883570542E+01  0.245495251332E+01  0.257470842558E+01  0.269792695618E+01
  0.282438111770E+01  0.295378751787E+01  0.308580013820E+01  0.322000384472E+01  0.335590770130E+01
  0.349293818002E+01  0.363043239213E+01  0.376763149632E+01  0.390367448028E+01  0.403759255536E+01
  0.416830445465E+01  0.429461297972E+01  0.441520320200E+01  0.452864278932E+01  0.463338499497E+01
  0.472777491459E+01  0.481005968023E+01  0.487840331855E+01  0.493090704366E+01  0.496563577825E+01
  0.498065168912E+01  0.497405547243E+01  0.494403601735E+01  0.488892889423E+01  0.480728383811E+01
  0.469794100587E+01  0.456011525306E+01  0.439348697936E+01  0.419829720669E+01  0.397544346205E+01
  0.372657172700E+01  0.345415818855E+01  0.316157280462E+01  0.285311483121E+01  0.253400853738E+01
  0.221034550007E+01  0.188895832936E+01  0.157720971191E+01  0.128268065290E+01  0.101274322140E+01
  0.774006539286E+00  0.571630863939E+00  0.408514120613E+00  0.284368854948E+00  0.194747361572E+00
  0.131687353972E+00  0.878969298237E-01  0.578891466977E-01  0.376050505208E-01  0.240850450603E-01
  0.152027567245E-01  0.945336875532E-02  0.578828890297E-02  0.348832620364E-02  0.206816388365E-02
  0.120571579456E-02  0.690846457071E-03  0.388841118991E-03  0.214875647520E-03  0.116517050159E-03
  0.619632707151E-04  0.322975259184E-04  0.164904971043E-04  0.824250313206E-05  0.403058697483E-05
  0.192697287548E-05  0.900091241875E-06  0.410485221495E-06  0.182639890725E-06  0.792242716096E-07
  0.334774763100E-07  0.137700619677E-07  0.550875937537E-08  0.214161338764E-08  0.808389172263E-09
  0.296007327267E-09  0.105047209884E-09  0.360953111724E-10  0.119969672164E-10  0.385302974212E-11
  0.119449508471E-11  0.357061532784E-12  0.102798855720E-12  0.284717196428E-13  0.757698632475E-14
  0.193507159880E-14  0.473651026669E-15  0.110970240171E-15  0.248512956769E-16  0.531221576853E-17
  0.108232492613E-17  0.209868384496E-18  0.386701998848E-19  0.676018309427E-20  0.111939955651E-20
  0.175277897752E-21  0.259079652323E-22  0.360852459185E-23  0.472736231684E-24  0.581405804574E-25
  0.669983991758E-26  0.721940658852E-27  0.725924142978E-28  0.679683361753E-29  0.591278568799E-30
  0.476829056869E-31  0.355633725492E-32  0.244718079417E-33  0.154979052009E-34  0.900972305673E-36
  0.479550994136E-37  0.233056503359E-38  0.103127060877E-39  0.414298796570E-41
 local pseudopotential core
 -0.165004244424E+03 -0.165003358173E+03 -0.165002498577E+03 -0.165001664832E+03 -0.165000856163E+03
 -0.165000071815E+03 -0.164999311057E+03 -0.164998573180E+03 -0.164997857496E+03 -0.164997163337E+03
 -0.164996490057E+03 -0.164995837028E+03 -0.164995203640E+03 -0.164994589304E+03 -0.164993993447E+03
 -0.164993415513E+03 -0.164992854963E+03 -0.164992311276E+03 -0.164991783943E+03 -0.164991272475E+03
 -0.164990776394E+03 -0.164990295237E+03 -0.164989828556E+03 -0.164989375916E+03 -0.164988936896E+03
 -0.164988511086E+03 -0.164988098090E+03 -0.164987697522E+03 -0.164987309010E+03 -0.164986932191E+03
 -0.164986566715E+03 -0.164986212240E+03 -0.164985868438E+03 -0.164985534987E+03 -0.164985211577E+03
 -0.164984897907E+03 -0.164984593685E+03 -0.164984298628E+03 -0.164984012461E+03 -0.164983734918E+03
 -0.164983465741E+03 -0.164983204679E+03 -0.164982951490E+03 -0.164982705937E+03 -0.164982467794E+03
 -0.164982236838E+03 -0.164982012855E+03 -0.164981795638E+03 -0.164981584984E+03 -0.164981380698E+03
 -0.164981182591E+03 -0.164980990480E+03 -0.164980804185E+03 -0.164980623536E+03 -0.164980448363E+03
 -0.164980278507E+03 -0.164980113810E+03 -0.164979954120E+03 -0.164979799289E+03 -0.164979649176E+03
 -0.164979503643E+03 -0.164979362555E+03 -0.164979225783E+03 -0.164979093202E+03 -0.164978964692E+03
 -0.164978840134E+03 -0.164978719416E+03 -0.164978602428E+03 -0.164978489064E+03 -0.164978379222E+03
 -0.164978272803E+03 -0.164978169711E+03 -0.164978069855E+03 -0.164977973146E+03 -0.164977879498E+03
 -0.164977788828E+03 -0.164977701058E+03 -0.164977616110E+03 -0.164977533913E+03 -0.164977454395E+03
 -0.164977377488E+03 -0.164977303129E+03 -0.164977231255E+03 -0.164977161807E+03 -0.164977094729E+03
 -0.164977029967E+03 -0.164976967471E+03 -0.164976907192E+03 -0.164976849086E+03 -0.164976793108E+03
 -0.164976739220E+03 -0.164976687384E+03 -0.164976637566E+03 -0.164976589734E+03 -0.164976543858E+03
 -0.164976499912E+03 -0.164976457874E+03 -0.164976417723E+03 -0.164976379441E+03 -0.164976343013E+03
 -0.164976308428E+03 -0.164976275679E+03 -0.164976244758E+03 -0.164976215666E+03 -0.164976188403E+03
 -0.164976162975E+03 -0.164976139390E+03 -0.164976117660E+03 -0.164976097803E+03 -0.164976079838E+03
 -0.164976063790E+03 -0.164976049688E+03 -0.164976037567E+03 -0.164976027463E+03 -0.164976019422E+03
 -0.164976013490E+03 -0.164976009724E+03 -0.164976008182E+03 -0.164976008930E+03 -0.164976012042E+03
 -0.164976017596E+03 -0.164976025679E+03 -0.164976036383E+03 -0.164976049812E+03 -0.164976066074E+03
 -0.164976085288E+03 -0.164976107582E+03 -0.164976133094E+03 -0.164976161973E+03 -0.164976194376E+03
 -0.164976230475E+03 -0.164976270452E+03 -0.164976314504E+03 -0.164976362840E+03 -0.164976415685E+03
 -0.164976473278E+03 -0.164976535876E+03 -0.164976603752E+03 -0.164976677199E+03 -0.164976756528E+03
 -0.164976842072E+03 -0.164976934185E+03 -0.164977033246E+03 -0.164977139657E+03 -0.164977253848E+03
 -0.164977376276E+03 -0.164977507428E+03 -0.164977647823E+03 -0.164977798014E+03 -0.164977958588E+03
 -0.164978130171E+03 -0.164978313429E+03 -0.164978509071E+03 -0.164978717852E+03 -0.164978940573E+03
 -0.164979178088E+03 -0.164979431306E+03 -0.164979701192E+03 -0.164979988774E+03 -0.164980295144E+03
 -0.164980621465E+03 -0.164980968972E+03 -0.164981338980E+03 -0.164981732886E+03 -0.164982152177E+03
 -0.164982598431E+03 -0.164983073328E+03 -0.164983578656E+03 -0.164984116312E+03 -0.164984688315E+03
 -0.164985296811E+03 -0.164985944082E+03 -0.164986632553E+03 -0.164987364803E+03 -0.164988143570E+03
 -0.164988971770E+03 -0.164989852499E+03 -0.164990789047E+03 -0.164991784915E+03 -0.164992843820E+03
 -0.164993969716E+03 -0.164995166803E+03 -0.164996439546E+03 -0.164997792692E+03 -0.164999231284E+03
 -0.165000760682E+03 -0.165002386584E+03 -0.165004115043E+03 -0.165005952494E+03 -0.165007905774E+03
 -0.165009982149E+03 -0.165012189341E+03 -0.165014535555E+03 -0.165017029508E+03 -0.165019680465E+03
 -0.165022498270E+03 -0.165025493381E+03 -0.165028676911E+03 -0.165032060666E+03 -0.165035657190E+03
 -0.165039479807E+03 -0.165043542674E+03 -0.165047860829E+03 -0.165052450246E+03 -0.165057327893E+03
 -0.165062511792E+03 -0.165068021084E+03 -0.165073876099E+03 -0.165080098425E+03 -0.165086710987E+03
 -0.165093738129E+03 -0.165101205698E+03 -0.165109141135E+03 -0.165117573573E+03 -0.165126533937E+03
 -0.165136055051E+03 -0.165146171753E+03 -0.165156921015E+03 -0.165168342065E+03 -0.165180476529E+03
 -0.165193368563E+03 -0.165207065005E+03 -0.165221615532E+03 -0.165237072824E+03 -0.165253492732E+03
 -0.165270934468E+03 -0.165289460789E+03 -0.165309138199E+03 -0.165330037159E+03 -0.165352232306E+03
 -0.165375802682E+03 -0.165400831975E+03 -0.165427408767E+03 -0.165455626795E+03 -0.165485585219E+03
 -0.165517388909E+03 -0.165551148725E+03 -0.165586981827E+03 -0.165625011976E+03 -0.165665369855E+03
 -0.165708193392E+03 -0.165753628094E+03 -0.165801827376E+03 -0.165852952907E+03 -0.165907174947E+03
 -0.165964672689E+03 -0.166025634591E+03 -0.166090258708E+03 -0.166158753008E+03 -0.166231335674E+03
 -0.166308235384E+03 -0.166389691567E+03 -0.166475954620E+03 -0.166567286084E+03 -0.166663958775E+03
 -0.166766256840E+03 -0.166874475750E+03 -0.166988922197E+03 -0.167109913891E+03 -0.167237779232E+03
 -0.167372856841E+03 -0.167515494926E+03 -0.167666050455E+03 -0.167824888114E+03 -0.167992379005E+03
 -0.168168899066E+03 -0.168354827150E+03 -0.168550542745E+03 -0.168756423258E+03 -0.168972840824E+03
 -0.169200158580E+03 -0.169438726324E+03 -0.169688875497E+03 -0.169950913398E+03 -0.170225116555E+03
 -0.170511723140E+03 -0.170810924339E+03 -0.171122854555E+03 -0.171447580331E+03 -0.171785087864E+03
 -0.172135268975E+03 -0.172497905401E+03 -0.172872651264E+03 -0.173259013576E+03 -0.173656330632E+03
 -0.174063748161E+03 -0.174480193108E+03 -0.174904344934E+03 -0.175334604340E+03 -0.175769059382E+03
 -0.176205448944E+03 -0.176641123627E+03 -0.177073004160E+03 -0.177497537542E+03 -0.177910651204E+03
 -0.178307705624E+03 -0.178683445942E+03 -0.179031953306E+03 -0.179346596820E+03 -0.179619987192E+03
 -0.179843933349E+03 -0.180009403527E+03 -0.180106492567E+03 -0.180124397383E+03 -0.180051402856E+03
 -0.179874880725E+03 -0.179581304408E+03 -0.179156283190E+03 -0.178584619856E+03 -0.177850396658E+03
 -0.176937095610E+03 -0.175827760477E+03 -0.174505209438E+03 -0.172952309346E+03 -0.171152324490E+03
 -0.169089354646E+03 -0.166748878707E+03 -0.164118420607E+03 -0.161188353137E+03 -0.157952851550E+03
 -0.154411001467E+03 -0.150568053357E+03 -0.146436797076E+03 -0.142039003665E+03 -0.137406846693E+03
 -0.132584172757E+03 -0.127627442925E+03 -0.122606120941E+03 -0.117589907284E+03 -0.112726741148E+03
 -0.108094812155E+03 -0.103777737508E+03 -0.998826617547E+02 -0.965476713691E+02 -0.938102996382E+02
 -0.917157821100E+02 -0.898884371475E+02 -0.871819483159E+02 -0.845601435058E+02 -0.820171752170E+02
 -0.795506968878E+02 -0.771583848845E+02 -0.748380158296E+02 -0.725874265142E+02 -0.704045180368E+02
 -0.682872558192E+02 -0.662336652992E+02 -0.642418314589E+02 -0.623098977547E+02 -0.604360625478E+02
 -0.586185786743E+02 -0.568557515310E+02 -0.551459443917E+02 -0.534875419826E+02 -0.518790192614E+02
 -0.503188691640E+02 -0.488056370908E+02 -0.473379120796E+02 -0.459143256122E+02 -0.445335503413E+02
 -0.431942988167E+02 -0.418953223016E+02 -0.406354097034E+02 -0.394133861703E+02 -0.382281123756E+02
 -0.370784831047E+02 -0.359634264601E+02 -0.348819027684E+02 -0.338329035808E+02 -0.328154508071E+02
 -0.318285957569E+02 -0.308714182678E+02 -0.299430258505E+02 -0.290425528561E+02 -0.281691596662E+02
 -0.273220319126E+02 -0.265003797177E+02 -0.257034369598E+02 -0.249304605550E+02 -0.241807297676E+02
 -0.234535455361E+02 -0.227482298217E+02 -0.220641249765E+02 -0.214005931296E+02 -0.207570155925E+02
 -0.201327922825E+02 -0.195273411631E+02 -0.189400977008E+02 -0.183705143396E+02 -0.178180599897E+02
 -0.172822195327E+02 -0.167624933412E+02 -0.162583968132E+02 -0.157694599197E+02 -0.152952267671E+02
 -0.148352551716E+02 -0.143891162472E+02 -0.139563940057E+02 -0.135366849690E+02
 pspotential valence only
 -0.106303122089E+03 -0.106302235812E+03 -0.106301376189E+03 -0.106300542414E+03 -0.106299733715E+03
 -0.106298949334E+03 -0.106298188542E+03 -0.106297450627E+03 -0.106296734904E+03 -0.106296040703E+03
 -0.106295367378E+03 -0.106294714301E+03 -0.106294080863E+03 -0.106293466474E+03 -0.106292870560E+03
 -0.106292292565E+03 -0.106291731952E+03 -0.106291188196E+03 -0.106290660791E+03 -0.106290149245E+03
 -0.106289653082E+03 -0.106289171838E+03 -0.106288705064E+03 -0.106288252326E+03 -0.106287813201E+03
 -0.106287387280E+03 -0.106286974165E+03 -0.106286573472E+03 -0.106286184826E+03 -0.106285807865E+03
 -0.106285442238E+03 -0.106285087603E+03 -0.106284743629E+03 -0.106284409997E+03 -0.106284086394E+03
 -0.106283772520E+03 -0.106283468080E+03 -0.106283172791E+03 -0.106282886378E+03 -0.106282608573E+03
 -0.106282339117E+03 -0.106282077760E+03 -0.106281824256E+03 -0.106281578369E+03 -0.106281339871E+03
 -0.106281108537E+03 -0.106280884153E+03 -0.106280666509E+03 -0.106280455402E+03 -0.106280250634E+03
 -0.106280052015E+03 -0.106279859358E+03 -0.106279672485E+03 -0.106279491220E+03 -0.106279315393E+03
 -0.106279144842E+03 -0.106278979405E+03 -0.106278818929E+03 -0.106278663264E+03 -0.106278512263E+03
 -0.106278365785E+03 -0.106278223694E+03 -0.106278085856E+03 -0.106277952142E+03 -0.106277822427E+03
 -0.106277696589E+03 -0.106277574509E+03 -0.106277456074E+03 -0.106277341172E+03 -0.106277229695E+03
 -0.106277121537E+03 -0.106277016598E+03 -0.106276914778E+03 -0.106276815981E+03 -0.106276720114E+03
 -0.106276627085E+03 -0.106276536808E+03 -0.106276449196E+03 -0.106276364165E+03 -0.106276281635E+03
 -0.106276201528E+03 -0.106276123766E+03 -0.106276048275E+03 -0.106275974982E+03 -0.106275903818E+03
 -0.106275834712E+03 -0.106275767598E+03 -0.106275702411E+03 -0.106275639087E+03 -0.106275577564E+03
 -0.106275517781E+03 -0.106275459678E+03 -0.106275403199E+03 -0.106275348286E+03 -0.106275294883E+03
 -0.106275242938E+03 -0.106275192395E+03 -0.106275143204E+03 -0.106275095313E+03 -0.106275048671E+03
 -0.106275003229E+03 -0.106274958939E+03 -0.106274915751E+03 -0.106274873618E+03 -0.106274832494E+03
 -0.106274792331E+03 -0.106274753084E+03 -0.106274714706E+03 -0.106274677152E+03 -0.106274640376E+03
 -0.106274604332E+03 -0.106274568976E+03 -0.106274534261E+03 -0.106274500141E+03 -0.106274466571E+03
 -0.106274433504E+03 -0.106274400893E+03 -0.106274368690E+03 -0.106274336846E+03 -0.106274305314E+03
 -0.106274274042E+03 -0.106274242980E+03 -0.106274212075E+03 -0.106274181273E+03 -0.106274150520E+03
 -0.106274119759E+03 -0.106274088930E+03 -0.106274057975E+03 -0.106274026830E+03 -0.106273995430E+03
 -0.106273963707E+03 -0.106273931593E+03 -0.106273899014E+03 -0.106273865893E+03 -0.106273832152E+03
 -0.106273797707E+03 -0.106273762471E+03 -0.106273726353E+03 -0.106273689257E+03 -0.106273651082E+03
 -0.106273611723E+03 -0.106273571069E+03 -0.106273529002E+03 -0.106273485399E+03 -0.106273440130E+03
 -0.106273393057E+03 -0.106273344036E+03 -0.106273292913E+03 -0.106273239525E+03 -0.106273183703E+03
 -0.106273125263E+03 -0.106273064016E+03 -0.106272999758E+03 -0.106272932273E+03 -0.106272861334E+03
 -0.106272786700E+03 -0.106272708114E+03 -0.106272625305E+03 -0.106272537986E+03 -0.106272445851E+03
 -0.106272348577E+03 -0.106272245820E+03 -0.106272137215E+03 -0.106272022376E+03 -0.106271900892E+03
 -0.106271772326E+03 -0.106271636217E+03 -0.106271492071E+03 -0.106271339368E+03 -0.106271177553E+03
 -0.106271006036E+03 -0.106270824193E+03 -0.106270631359E+03 -0.106270426828E+03 -0.106270209850E+03
 -0.106269979630E+03 -0.106269735319E+03 -0.106269476020E+03 -0.106269200776E+03 -0.106268908573E+03
 -0.106268598331E+03 -0.106268268904E+03 -0.106267919074E+03 -0.106267547546E+03 -0.106267152944E+03
 -0.106266733807E+03 -0.106266288580E+03 -0.106265815613E+03 -0.106265313151E+03 -0.106264779328E+03
 -0.106264212162E+03 -0.106263609547E+03 -0.106262969245E+03 -0.106262288875E+03 -0.106261565909E+03
 -0.106260797659E+03 -0.106259981269E+03 -0.106259113703E+03 -0.106258191735E+03 -0.106257211935E+03
 -0.106256170658E+03 -0.106255064031E+03 -0.106253887938E+03 -0.106252638003E+03 -0.106251309576E+03
 -0.106249897715E+03 -0.106248397168E+03 -0.106246802353E+03 -0.106245107338E+03 -0.106243305817E+03
 -0.106241391091E+03 -0.106239356039E+03 -0.106237193094E+03 -0.106234894213E+03 -0.106232450852E+03
 -0.106229853927E+03 -0.106227093789E+03 -0.106224160182E+03 -0.106221042207E+03 -0.106217728286E+03
 -0.106214206111E+03 -0.106210462610E+03 -0.106206483889E+03 -0.106202255186E+03 -0.106197760819E+03
 -0.106192984123E+03 -0.106187907396E+03 -0.106182511830E+03 -0.106176777442E+03 -0.106170683007E+03
 -0.106164205977E+03 -0.106157322400E+03 -0.106150006835E+03 -0.106142232260E+03 -0.106133969974E+03
 -0.106125189497E+03 -0.106115858460E+03 -0.106105942488E+03 -0.106095405084E+03 -0.106084207492E+03
 -0.106072308566E+03 -0.106059664626E+03 -0.106046229303E+03 -0.106031953378E+03 -0.106016784614E+03
 -0.106000667572E+03 -0.105983543427E+03 -0.105965349759E+03 -0.105946020349E+03 -0.105925484953E+03
 -0.105903669064E+03 -0.105880493668E+03 -0.105855874981E+03 -0.105829724173E+03 -0.105801947082E+03
 -0.105772443907E+03 -0.105741108886E+03 -0.105707829967E+03 -0.105672488446E+03 -0.105634958605E+03
 -0.105595107317E+03 -0.105552793638E+03 -0.105507868384E+03 -0.105460173675E+03 -0.105409542468E+03
 -0.105355798061E+03 -0.105298753575E+03 -0.105238211408E+03 -0.105173962662E+03 -0.105105786541E+03
 -0.105033449714E+03 -0.104956705647E+03 -0.104875293897E+03 -0.104788939355E+03 -0.104697351458E+03
 -0.104600223338E+03 -0.104497230918E+03 -0.104388031952E+03 -0.104272264988E+03 -0.104149548263E+03
 -0.104019478514E+03 -0.103881629704E+03 -0.103735551654E+03 -0.103580768588E+03 -0.103416777574E+03
 -0.103243046894E+03 -0.103059014324E+03 -0.102864085376E+03 -0.102657631516E+03 -0.102438988420E+03
 -0.102207454340E+03 -0.101962288667E+03 -0.101702710831E+03 -0.101427899687E+03 -0.101136993587E+03
 -0.100829091375E+03 -0.100503254583E+03 -0.100158511131E+03 -0.997938608607E+02 -0.994082832553E+02
 -0.990007476479E+02 -0.985702261972E+02 -0.981157097973E+02 -0.976362269457E+02 -0.971308653939E+02
 -0.965987961477E+02 -0.960392990882E+02 -0.954517891591E+02 -0.948358417436E+02 -0.941912155722E+02
 -0.935178712915E+02 -0.928159837396E+02 -0.920859460221E+02 -0.913283636965E+02 -0.905440377304E+02
 -0.897339353790E+02 -0.888991486788E+02 -0.880408408430E+02 -0.871601814333E+02 -0.862582717777E+02
 -0.853360627582E+02 -0.843942678785E+02 -0.834332755628E+02 -0.824530660263E+02 -0.814531398594E+02
 -0.804324677250E+02 -0.793894733698E+02 -0.783220659274E+02 -0.772153990766E+02 -0.761215686041E+02
 -0.750147444636E+02 -0.738710469758E+02 -0.726929012451E+02 -0.715239891908E+02 -0.703260079690E+02
 -0.690950451185E+02 -0.678383299575E+02 -0.665830513997E+02 -0.653236791265E+02 -0.640590656940E+02
 -0.627913868676E+02 -0.615227227132E+02 -0.602550215233E+02 -0.589900761191E+02 -0.577295002498E+02
 -0.564747132155E+02 -0.552269326439E+02 -0.539871781594E+02 -0.527562866405E+02 -0.515349396867E+02
 -0.503237019290E+02 -0.491230679775E+02 -0.479335146096E+02 -0.467555482868E+02 -0.455897587322E+02
 -0.444368476562E+02 -0.432976556180E+02 -0.421731693520E+02 -0.410645145245E+02 -0.399729343717E+02
 -0.388997564336E+02 -0.378463502098E+02 -0.368140787624E+02 -0.358042472639E+02 -0.348180513137E+02
 -0.338565277674E+02 -0.329205107111E+02 -0.320105952759E+02 -0.311271118111E+02 -0.302701126510E+02
 -0.294393729592E+02 -0.286344060614E+02 -0.278544923014E+02 -0.270987190485E+02 -0.263660283296E+02
 -0.256552678991E+02 -0.249652415141E+02 -0.242947547304E+02 -0.236426534972E+02 -0.230078539946E+02
 -0.223893632855E+02 -0.217862912838E+02 -0.211978551883E+02 -0.206233778781E+02 -0.200622818571E+02
 -0.195140802427E+02 -0.189783660815E+02 -0.184548010177E+02 -0.179431040713E+02 -0.174430410447E+02
 -0.169544148739E+02 -0.164770570862E+02 -0.160108204113E+02 -0.155555725167E+02 -0.151111907893E+02
 -0.146775580634E+02 -0.142545591814E+02 -0.138420782774E+02 -0.134399966805E+02
 core charge-density (pseudized)
  0.204833760988E-09  0.217732540260E-09  0.231443580678E-09  0.246018031901E-09  0.261510264580E-09
  0.277978073193E-09  0.295482891647E-09  0.314090022461E-09  0.333868880380E-09  0.354893251331E-09
  0.377241567681E-09  0.400997200838E-09  0.426248772265E-09  0.453090484095E-09  0.481622470547E-09
  0.511951171486E-09  0.544189729503E-09  0.578458411994E-09  0.614885059827E-09  0.653605564256E-09
  0.694764373868E-09  0.738515033458E-09  0.785020756831E-09  0.834455035682E-09  0.887002286811E-09
  0.942858540098E-09  0.100223216981E-08  0.106534467192E-08  0.113243149046E-08  0.120374289580E-08
  0.127954491833E-08  0.136012034088E-08  0.144576975365E-08  0.153681267559E-08  0.163358874637E-08
  0.173645899343E-08  0.184580717876E-08  0.196204123062E-08  0.208559476527E-08  0.221692870461E-08
  0.235653299568E-08  0.250492843841E-08  0.266266862850E-08  0.283034202260E-08  0.300857413361E-08
  0.319802986416E-08  0.339941598705E-08  0.361348378188E-08  0.384103183777E-08  0.408290903247E-08
  0.434001769917E-08  0.461331699266E-08  0.490382646750E-08  0.521262988148E-08  0.554087923866E-08
  0.588979908691E-08  0.626069108614E-08  0.665493886417E-08  0.707401317840E-08  0.751947740253E-08
  0.799299335872E-08  0.849632751709E-08  0.903135758556E-08  0.960007951469E-08  0.102046149436E-07
  0.108472191148E-07  0.115302892874E-07  0.122563736802E-07  0.130281809775E-07  0.138485904345E-07
  0.147206626177E-07  0.156476508230E-07  0.166330132116E-07  0.176804257109E-07  0.187937957276E-07
  0.199772767242E-07  0.212352837133E-07  0.225725097281E-07  0.239939433294E-07  0.255048872153E-07
  0.271109780029E-07  0.288182072558E-07  0.306329438348E-07  0.325619576573E-07  0.346124449519E-07
  0.367920551035E-07  0.391089191892E-07  0.415716803106E-07  0.441895258363E-07  0.469722216747E-07
  0.499301487049E-07  0.530743415019E-07  0.564165294994E-07  0.599691807459E-07  0.637455484148E-07
  0.677597202438E-07  0.720266710871E-07  0.765623187774E-07  0.813835835039E-07  0.865084509310E-07
  0.919560392896E-07  0.977466706943E-07  0.103901946950E-06  0.110444830134E-06  0.117399728248E-06
  0.124792586265E-06  0.132650982912E-06  0.141004233544E-06  0.149883499490E-06  0.159321904296E-06
  0.169354657273E-06  0.180019184837E-06  0.191355270105E-06  0.203405201292E-06  0.216213929445E-06
  0.229829236106E-06  0.244301911535E-06  0.259685944153E-06  0.276038721906E-06  0.293421246315E-06
  0.311898359994E-06  0.331538988491E-06  0.352416397360E-06  0.374608465409E-06  0.398197975151E-06
  0.423272921538E-06  0.449926840129E-06  0.478259155915E-06  0.508375554098E-06  0.540388374209E-06
  0.574417029029E-06  0.610588449878E-06  0.649037559928E-06  0.689907777300E-06  0.733351549824E-06
  0.779530923446E-06  0.828618146407E-06  0.880796311432E-06  0.936260038327E-06  0.995216199521E-06
  0.105788469125E-05  0.112449925327E-05  0.119530834010E-05  0.127057604709E-05  0.135058309472E-05
  0.143562787484E-05  0.152602756264E-05  0.162211929855E-05  0.172426144452E-05  0.183283491919E-05
  0.194824461701E-05  0.207092091662E-05  0.220132128390E-05  0.233993197591E-05  0.248726985170E-05
  0.264388429705E-05  0.281035927001E-05  0.298731547486E-05  0.317541267271E-05  0.337535213699E-05
  0.358787926318E-05  0.381378634221E-05  0.405391550799E-05  0.430916186963E-05  0.458047684025E-05
  0.486887167437E-05  0.517542122704E-05  0.550126794846E-05  0.584762612882E-05  0.621578640896E-05
  0.660712057325E-05  0.702308664241E-05  0.746523428485E-05  0.793521056620E-05  0.843476605816E-05
  0.896576132887E-05  0.953017383829E-05  0.101301052639E-04  0.107677892831E-04  0.114455998402E-04
  0.121660599287E-04  0.129318509197E-04  0.137458224702E-04  0.146110030468E-04  0.155306111032E-04
  0.165080669502E-04  0.175470053610E-04  0.186512889571E-04  0.198250224213E-04  0.210725675876E-04
  0.223985594629E-04  0.238079232339E-04  0.253058923208E-04  0.268980275383E-04  0.285902374316E-04
  0.303887998570E-04  0.323003848792E-04  0.343320790649E-04  0.364914112537E-04  0.387863798923E-04
  0.412254820232E-04  0.438177440230E-04  0.465727541920E-04  0.495006972981E-04  0.526123911885E-04
  0.559193255830E-04  0.594337031725E-04  0.631684831470E-04  0.671374272899E-04  0.713551487734E-04
  0.758371638014E-04  0.805999462506E-04  0.856609854638E-04  0.910388473586E-04  0.967532390178E-04
  0.102825076934E-03  0.109276559082E-03  0.116131241011E-03  0.123414116123E-03  0.131151700345E-03
  0.139372121372E-03  0.148105212677E-03  0.157382612478E-03  0.167237867854E-03  0.177706544187E-03
  0.188826340119E-03  0.200637208188E-03  0.213181481307E-03  0.226504005228E-03  0.240652277118E-03
  0.255676590342E-03  0.271630185543E-03  0.288569408038E-03  0.306553871534E-03  0.325646628112E-03
  0.345914344362E-03  0.367427483485E-03  0.390260493098E-03  0.414491998377E-03  0.440205000081E-03
  0.467487076837E-03  0.496430590963E-03  0.527132896897E-03  0.559696551138E-03  0.594229522365E-03
  0.630845400156E-03  0.669663600441E-03  0.710809565511E-03  0.754414956011E-03  0.800617831971E-03
  0.849562819430E-03  0.901401258700E-03  0.956291329738E-03  0.101439814943E-02  0.107589383488E-02
  0.114095752591E-02  0.120977535924E-02  0.128254038567E-02  0.135945242046E-02  0.144071781616E-02
  0.152654914546E-02  0.161716478051E-02  0.171278835332E-02  0.181364808048E-02  0.191997593325E-02
  0.203200663254E-02  0.214997644578E-02  0.227412176103E-02  0.240467741110E-02  0.254187471809E-02
  0.268593922680E-02  0.283708809280E-02  0.299552708882E-02  0.316144719115E-02  0.333502070576E-02
  0.351639689260E-02  0.370569704539E-02  0.390300898425E-02  0.410838091892E-02  0.432181464266E-02
  0.454325801976E-02  0.477259673526E-02  0.500964528281E-02  0.525413717688E-02  0.550571438930E-02
  0.576391602746E-02  0.602816629393E-02  0.629776179504E-02  0.657185829972E-02  0.684945709145E-02
  0.712939110520E-02  0.741031110003E-02  0.769067218600E-02  0.796872110328E-02  0.824248474170E-02
  0.850976049040E-02  0.876810912050E-02  0.901485102661E-02  0.924706678488E-02  0.946160312189E-02
  0.965508552687E-02  0.982393887125E-02  0.996441751700E-02  0.100726464851E-01  0.101446753037E-01
  0.101765461411E-01  0.101643777276E-01  0.101044663549E-01  0.999340487214E-02  0.982822003951E-02
  0.960652780613E-02  0.932670499552E-02  0.898807446839E-02  0.859109903310E-02  0.813757715395E-02
  0.763083084197E-02  0.707587300432E-02  0.647953802170E-02  0.585055551864E-02  0.519954337144E-02
  0.453889224859E-02  0.388251081731E-02  0.324539875667E-02  0.264301465870E-02  0.209040874325E-02
  0.160109723525E-02  0.118566761062E-02  0.850123176431E-03  0.594003070571E-03  0.408395333890E-03
  0.277240370311E-03  0.185775025615E-03  0.122831331298E-03  0.801037316694E-04  0.515043219388E-04
  0.326363886311E-04  0.203724169086E-04  0.125220019327E-04  0.757527515406E-05  0.450830130131E-05
  0.263819761430E-05  0.151727715932E-05  0.857160605918E-06  0.475410303565E-06  0.258729670345E-06
  0.138086057402E-06  0.722314610159E-07  0.370096600223E-07  0.185629494615E-07  0.910845686849E-08
  0.436940952226E-08  0.204779353782E-08  0.936982076507E-09  0.418258591348E-09  0.182013624740E-09
  0.771569668921E-10  0.318357285543E-10  0.127752079609E-10  0.498159427524E-11  0.188598229330E-11
  0.692604025446E-12  0.246494315584E-12  0.849349193704E-13  0.283068968066E-13  0.911548357493E-14
  0.283327531106E-14  0.849071924741E-15  0.245050923468E-15  0.680327475072E-16  0.181470860207E-16
  0.464498000278E-17  0.113944347556E-17  0.267522527865E-18  0.600337636740E-19  0.128584722925E-19
  0.262490886242E-20  0.509945345871E-21  0.941350985564E-22  0.164858752089E-22  0.273462739426E-23
  0.428925577688E-24  0.635057769142E-25  0.885970233932E-26  0.116252745537E-26  0.143200576541E-27
  0.165271484844E-28  0.178357309896E-29  0.179607775786E-30  0.168412510742E-31  0.146718129219E-32
  0.118486592989E-33  0.884944603632E-35  0.609787577708E-36  0.386703975621E-37  0.225115334046E-38
  0.119981026466E-39  0.583876096058E-41  0.258709833632E-42  0.104072434120E-43
 pseudo wavefunction
  0.121052327870E-03  0.124805592280E-03  0.128675227799E-03  0.132664842549E-03  0.136778156521E-03
  0.141019005048E-03  0.145391342378E-03  0.149899245361E-03  0.154546917251E-03  0.159338691626E-03
  0.164279036427E-03  0.169372558125E-03  0.174624006016E-03  0.180038276650E-03  0.185620418396E-03
  0.191375636148E-03  0.197309296180E-03  0.203426931149E-03  0.209734245254E-03  0.216237119553E-03
  0.222941617450E-03  0.229853990345E-03  0.236980683465E-03  0.244328341873E-03  0.251903816665E-03
  0.259714171356E-03  0.267766688468E-03  0.276068876320E-03  0.284628476027E-03  0.293453468722E-03
  0.302552082994E-03  0.311932802561E-03  0.321604374182E-03  0.331575815811E-03  0.341856425009E-03
  0.352455787606E-03  0.363383786647E-03  0.374650611601E-03  0.386266767867E-03  0.398243086564E-03
  0.410590734634E-03  0.423321225254E-03  0.436446428569E-03  0.449978582760E-03  0.463930305459E-03
  0.478314605507E-03  0.493144895092E-03  0.508435002246E-03  0.524199183745E-03  0.540452138399E-03
  0.557209020760E-03  0.574485455247E-03  0.592297550721E-03  0.610661915500E-03  0.629595672848E-03
  0.649116476938E-03  0.669242529316E-03  0.689992595870E-03  0.711386024328E-03  0.733442762299E-03
  0.756183375870E-03  0.779629068785E-03  0.803801702211E-03  0.828723815127E-03  0.854418645336E-03
  0.880910151131E-03  0.908223033637E-03  0.936382759839E-03  0.965415586330E-03  0.995348583791E-03
  0.102620966223E-02  0.105802759702E-02  0.109083205568E-02  0.112465362563E-02  0.115952384259E-02
  0.119547522010E-02  0.123254127975E-02  0.127075658247E-02  0.131015676076E-02  0.135077855189E-02
  0.139265983219E-02  0.143583965232E-02  0.148035827370E-02  0.152625720606E-02  0.157357924612E-02
  0.162236851751E-02  0.167267051191E-02  0.172453213142E-02  0.177800173238E-02  0.183312917035E-02
  0.188996584666E-02  0.194856475632E-02  0.200898053742E-02  0.207126952207E-02  0.213548978892E-02
  0.220170121731E-02  0.226996554310E-02  0.234034641621E-02  0.241290945998E-02  0.248772233235E-02
  0.256485478889E-02  0.264437874790E-02  0.272636835739E-02  0.281090006426E-02  0.289805268553E-02
  0.298790748181E-02  0.308054823308E-02  0.317606131676E-02  0.327453578824E-02  0.337606346392E-02
  0.348073900673E-02  0.358866001443E-02  0.369992711055E-02  0.381464403820E-02  0.393291775672E-02
  0.405485854143E-02  0.418058008637E-02  0.431019961025E-02  0.444383796575E-02  0.458161975207E-02
  0.472367343111E-02  0.487013144713E-02  0.502113035022E-02  0.517681092346E-02  0.533731831417E-02
  0.550280216910E-02  0.567341677388E-02  0.584932119672E-02  0.603067943663E-02  0.621766057616E-02
  0.641043893893E-02  0.660919425193E-02  0.681411181298E-02  0.702538266325E-02  0.724320376516E-02
  0.746777818577E-02  0.769931528587E-02  0.793803091486E-02  0.818414761168E-02  0.843789481194E-02
  0.869950906143E-02  0.896923423628E-02  0.924732176981E-02  0.953403088649E-02  0.982962884302E-02
  0.101343911769E-01  0.104486019627E-01  0.107725540759E-01  0.111065494657E-01  0.114508994350E-01
  0.118059249300E-01  0.121719568383E-01  0.125493362962E-01  0.129384150054E-01  0.133395555595E-01
  0.137531317805E-01  0.141795290656E-01  0.146191447447E-01  0.150723884485E-01  0.155396824885E-01
  0.160214622481E-01  0.165181765857E-01  0.170302882501E-01  0.175582743089E-01  0.181026265896E-01
  0.186638521341E-01  0.192424736672E-01  0.198390300789E-01  0.204540769221E-01  0.210881869244E-01
  0.217419505159E-01  0.224159763731E-01  0.231108919784E-01  0.238273441969E-01  0.245659998709E-01
  0.253275464312E-01  0.261126925272E-01  0.269221686757E-01  0.277567279289E-01  0.286171465622E-01
  0.295042247822E-01  0.304187874551E-01  0.313616848575E-01  0.323337934479E-01  0.333360166616E-01
  0.343692857274E-01  0.354345605092E-01  0.365328303709E-01  0.376651150654E-01  0.388324656502E-01
  0.400359654276E-01  0.412767309116E-01  0.425559128214E-01  0.438746971026E-01  0.452343059760E-01
  0.466359990148E-01  0.480810742511E-01  0.495708693107E-01  0.511067625785E-01  0.526901743944E-01
  0.543225682781E-01  0.560054521868E-01  0.577403798021E-01  0.595289518497E-01  0.613728174499E-01
  0.632736754994E-01  0.652332760851E-01  0.672534219295E-01  0.693359698664E-01  0.714828323486E-01
  0.736959789856E-01  0.759774381107E-01  0.783292983779E-01  0.807537103867E-01  0.832528883333E-01
  0.858291116884E-01  0.884847268978E-01  0.912221491060E-01  0.940438638988E-01  0.969524290636E-01
  0.999504763637E-01  0.103040713324E+00  0.106225925021E+00  0.109508975883E+00  0.112892811477E+00
  0.116380460297E+00  0.119975035535E+00  0.123679736829E+00  0.127497851990E+00  0.131432758681E+00
  0.135487926058E+00  0.139666916348E+00  0.143973386362E+00  0.148411088922E+00  0.152983874192E+00
  0.157695690894E+00  0.162550587400E+00  0.167552712660E+00  0.172706316973E+00  0.178015752551E+00
  0.183485473863E+00  0.189120037733E+00  0.194924103148E+00  0.200902430756E+00  0.207059882003E+00
  0.213401417876E+00  0.219932097209E+00  0.226657074488E+00  0.233581597119E+00  0.240711002088E+00
  0.248050711960E+00  0.255606230125E+00  0.263383135250E+00  0.271387074823E+00  0.279623757716E+00
  0.288098945666E+00  0.296818443580E+00  0.305788088527E+00  0.315013737329E+00  0.324501252591E+00
  0.334256487054E+00  0.344285266096E+00  0.354593368251E+00  0.365186503546E+00  0.376070289494E+00
  0.387250224539E+00  0.398731658753E+00  0.410519761567E+00  0.422619486316E+00  0.435035531346E+00
  0.447772297459E+00  0.460833841416E+00  0.474223825255E+00  0.487945461146E+00  0.502001451520E+00
  0.516393924184E+00  0.531124362185E+00  0.546193528129E+00  0.561601382738E+00  0.577346997402E+00
  0.593428460536E+00  0.609842777569E+00  0.626585764467E+00  0.643651934714E+00  0.661034379768E+00
  0.678724643107E+00  0.696712588051E+00  0.714986259699E+00  0.733531741458E+00  0.752333006798E+00
  0.771371767086E+00  0.790627316531E+00  0.810076375587E+00  0.829692934367E+00  0.849448097982E+00
  0.869309936047E+00  0.889243338920E+00  0.909209883695E+00  0.929167713284E+00  0.949071432400E+00
  0.968872024595E+00  0.988516794899E+00  0.100794934290E+01  0.102710957137E+01  0.104593373563E+01
  0.106435453873E+01  0.108230127751E+01  0.109970004362E+01  0.111647398306E+01  0.113254361616E+01
  0.114782721819E+01  0.116224125794E+01  0.117570088856E+01  0.118812048038E+01  0.119941418045E+01
  0.120949647692E+01  0.121828273910E+01  0.122568969528E+01  0.123163580054E+01  0.123604143621E+01
  0.123882887141E+01  0.123992190545E+01  0.123924509966E+01  0.123672249782E+01  0.123227572920E+01
  0.122582138717E+01  0.121726758367E+01  0.120650959674E+01  0.119342455942E+01  0.117785650663E+01
  0.115980407415E+01  0.113935785798E+01  0.111664160819E+01  0.109179088502E+01  0.106495196316E+01
  0.103628065212E+01  0.100594104689E+01  0.974104222815E+00  0.940946884623E+00  0.906649984072E+00
  0.871397319939E+00  0.835374121422E+00  0.798765638307E+00  0.761755737310E+00  0.724525517943E+00
  0.687251956735E+00  0.650106590034E+00  0.613254247144E+00  0.576851847156E+00  0.541047274872E+00
  0.505978353121E+00  0.471771929957E+00  0.438543099423E+00  0.406394573568E+00  0.375416220430E+00
  0.345684777895E+00  0.317263749229E+00  0.290203477998E+00  0.264541394999E+00  0.240302423582E+00
  0.217499525102E+00  0.196134362947E+00  0.176198061828E+00  0.157672038784E+00  0.140528883444E+00
  0.124733267246E+00  0.110242864211E+00  0.970092692067E-01  0.849789030078E-01  0.740938966625E-01
  0.642929502896E-01  0.555121633424E-01  0.476858343660E-01  0.407472283747E-01  0.346293092883E-01
  0.292654336472E-01  0.245900004226E-01  0.205390504894E-01  0.170508085666E-01  0.140661603432E-01
  0.115290581912E-01  0.938685027015E-02  0.759052980389E-02  0.609490365565E-02  0.485868180901E-02
  0.384449176653E-02  0.301882402021E-02  0.235191649745E-02  0.181758716229E-02  0.139302472135E-02
  0.105854765809E-02  0.797341638674E-03  0.595184763144E-03  0.440169255722E-03  0.322427082540E-03
  0.233865738804E-03  0.167919139971E-03  0.119317253081E-03  0.838768739820E-04
 ae wavefunction
 -0.597520735656E-03 -0.616014833516E-03 -0.635081119710E-03 -0.654737283031E-03 -0.675001558229E-03
 -0.695892742789E-03 -0.717430214272E-03 -0.739633948112E-03 -0.762524536013E-03 -0.786123204893E-03
 -0.810451836374E-03 -0.835532986931E-03 -0.861389908572E-03 -0.888046570224E-03 -0.915527679723E-03
 -0.943858706490E-03 -0.973065904891E-03 -0.100317633831E-02 -0.103421790396E-02 -0.106621935841E-02
 -0.109921034397E-02 -0.113322141574E-02 -0.116828406964E-02 -0.120443077116E-02 -0.124169498502E-02
 -0.128011120577E-02 -0.131971498924E-02 -0.136054298498E-02 -0.140263296969E-02 -0.144602388164E-02
 -0.149075585607E-02 -0.153687026180E-02 -0.158440973876E-02 -0.163341823680E-02 -0.168394105554E-02
 -0.173602488552E-02 -0.178971785052E-02 -0.184506955110E-02 -0.190213110956E-02 -0.196095521618E-02
 -0.202159617672E-02 -0.208410996161E-02 -0.214855425628E-02 -0.221498851321E-02 -0.228347400544E-02
 -0.235407388162E-02 -0.242685322282E-02 -0.250187910081E-02 -0.257922063826E-02 -0.265894907056E-02
 -0.274113780956E-02 -0.282586250905E-02 -0.291320113230E-02 -0.300323402146E-02 -0.309604396902E-02
 -0.319171629130E-02 -0.329033890421E-02 -0.339200240092E-02 -0.349680013216E-02 -0.360482828849E-02
 -0.371618598495E-02 -0.383097534858E-02 -0.394930160766E-02 -0.407127318425E-02 -0.419700178895E-02
 -0.432660251835E-02 -0.446019395534E-02 -0.459789827220E-02 -0.473984133668E-02 -0.488615282074E-02
 -0.503696631265E-02 -0.519241943205E-02 -0.535265394823E-02 -0.551781590145E-02 -0.568805572804E-02
 -0.586352838838E-02 -0.604439349869E-02 -0.623081546636E-02 -0.642296362871E-02 -0.662101239568E-02
 -0.682514139614E-02 -0.703553562825E-02 -0.725238561349E-02 -0.747588755514E-02 -0.770624350027E-02
 -0.794366150648E-02 -0.818835581264E-02 -0.844054701391E-02 -0.870046224119E-02 -0.896833534525E-02
 -0.924440708505E-02 -0.952892532113E-02 -0.982214521332E-02 -0.101243294231E-01 -0.104357483216E-01
 -0.107566802015E-01 -0.110874114939E-01 -0.114282369916E-01 -0.117794600753E-01 -0.121413929463E-01
 -0.125143568642E-01 -0.128986823892E-01 -0.132947096298E-01 -0.137027884960E-01 -0.141232789571E-01
 -0.145565513055E-01 -0.150029864247E-01 -0.154629760632E-01 -0.159369231134E-01 -0.164252418953E-01
 -0.169283584453E-01 -0.174467108106E-01 -0.179807493472E-01 -0.185309370238E-01 -0.190977497300E-01
 -0.196816765884E-01 -0.202832202720E-01 -0.209028973251E-01 -0.215412384881E-01 -0.221987890263E-01
 -0.228761090618E-01 -0.235737739088E-01 -0.242923744114E-01 -0.250325172839E-01 -0.257948254530E-01
 -0.265799384020E-01 -0.273885125151E-01 -0.282212214235E-01 -0.290787563503E-01 -0.299618264551E-01
 -0.308711591773E-01 -0.318075005778E-01 -0.327716156756E-01 -0.337642887841E-01 -0.347863238386E-01
 -0.358385447208E-01 -0.369217955756E-01 -0.380369411190E-01 -0.391848669375E-01 -0.403664797757E-01
 -0.415827078128E-01 -0.428345009239E-01 -0.441228309265E-01 -0.454486918090E-01 -0.468130999400E-01
 -0.482170942559E-01 -0.496617364254E-01 -0.511481109857E-01 -0.526773254533E-01 -0.542505103996E-01
 -0.558688194954E-01 -0.575334295151E-01 -0.592455403026E-01 -0.610063746911E-01 -0.628171783757E-01
 -0.646792197341E-01 -0.665937895912E-01 -0.685622009228E-01 -0.705857884945E-01 -0.726659084303E-01
 -0.748039377061E-01 -0.770012735604E-01 -0.792593328232E-01 -0.815795511431E-01 -0.839633821262E-01
 -0.864122963562E-01 -0.889277803131E-01 -0.915113351615E-01 -0.941644754127E-01 -0.968887274514E-01
 -0.996856279129E-01 -0.102556721905E+00 -0.105503561068E+00 -0.108527701450E+00 -0.111630701213E+00
 -0.114814118121E+00 -0.118079506835E+00 -0.121428415983E+00 -0.124862384991E+00 -0.128382940679E+00
 -0.131991593587E+00 -0.135689834031E+00 -0.139479127873E+00 -0.143360911987E+00 -0.147336589402E+00
 -0.151407524116E+00 -0.155575035559E+00 -0.159840392683E+00 -0.164204807674E+00 -0.168669429259E+00
 -0.173235335590E+00 -0.177903526696E+00 -0.182674916475E+00 -0.187550324209E+00 -0.192530465591E+00
 -0.197615943236E+00 -0.202807236663E+00 -0.208104691727E+00 -0.213508509486E+00 -0.219018734481E+00
 -0.224635242419E+00 -0.230357727232E+00 -0.236185687513E+00 -0.242118412285E+00 -0.248154966137E+00
 -0.254294173660E+00 -0.260534603230E+00 -0.266874550063E+00 -0.273312018617E+00 -0.279844704268E+00
 -0.286469974289E+00 -0.293184848148E+00 -0.299985977106E+00 -0.306869623139E+00 -0.313831637201E+00
 -0.320867436840E+00 -0.327971983207E+00 -0.335139757462E+00 -0.342364736653E+00 -0.349640369077E+00
 -0.356959549196E+00 -0.364314592165E+00 -0.371697208025E+00 -0.379098475673E+00 -0.386508816654E+00
 -0.393917968905E+00 -0.401314960554E+00 -0.408688083878E+00 -0.416024869573E+00 -0.423312061481E+00
 -0.430535591913E+00 -0.437680557768E+00 -0.444731197617E+00 -0.451670869970E+00 -0.458482032932E+00
 -0.465146225483E+00 -0.471644050653E+00 -0.477955160836E+00 -0.484058245525E+00 -0.489931021807E+00
 -0.495550227880E+00 -0.500891619967E+00 -0.505929972970E+00 -0.510639085206E+00 -0.514991787638E+00
 -0.518959957972E+00 -0.522514540044E+00 -0.525625568897E+00 -0.528262201999E+00 -0.530392757028E+00
 -0.531984756669E+00 -0.533004980871E+00 -0.533419527022E+00 -0.533193878477E+00 -0.532292981882E+00
 -0.530681333744E+00 -0.528323076625E+00 -0.525182105402E+00 -0.521222183927E+00 -0.516407072438E+00
 -0.510700666027E+00 -0.504067144395E+00 -0.496471133100E+00 -0.487877876417E+00 -0.478253421844E+00
 -0.467564816227E+00 -0.455780313340E+00 -0.442869592659E+00 -0.428803988939E+00 -0.413556732056E+00
 -0.397103196421E+00 -0.379421159124E+00 -0.360491065758E+00 -0.340296302740E+00 -0.318823474741E+00
 -0.296062685658E+00 -0.272007821446E+00 -0.246656832924E+00 -0.220012016624E+00 -0.192080291620E+00
 -0.162873470240E+00 -0.132408520544E+00 -0.100707818388E+00 -0.677993868968E-01 -0.337171209731E-01
  0.149900576967E-02  0.378027548167E-01  0.751414614252E-01  0.113455903799E+00  0.152680210798E+00
  0.192741819712E+00  0.233561500390E+00  0.275053467797E+00  0.317125610135E+00  0.359679860058E+00
  0.402612723968E+00  0.445815947707E+00  0.489177227908E+00  0.532580787409E+00  0.575907567207E+00
  0.619034825511E+00  0.661835134723E+00  0.704175089366E+00  0.745914316330E+00  0.786905396657E+00
  0.826994972398E+00  0.866025784080E+00  0.903839035595E+00  0.940276533184E+00  0.975182363599E+00
  0.100840416890E+01  0.103979420101E+01  0.106921031291E+01  0.109651698211E+01  0.112158639435E+01
  0.114429957538E+01  0.116454754301E+01  0.118223243730E+01  0.119726859536E+01  0.120958353549E+01
  0.121911882836E+01  0.122583083506E+01  0.122969129806E+01  0.123068778041E+01  0.122882394348E+01
  0.122411966562E+01  0.121661099837E+01  0.120634996724E+01  0.119340421646E+01  0.117785650663E+01
  0.115980407415E+01  0.113935785798E+01  0.111664160819E+01  0.109179088502E+01  0.106495196316E+01
  0.103628065212E+01  0.100594104689E+01  0.974104222815E+00  0.940946884623E+00  0.906649984072E+00
  0.871397319939E+00  0.835374121422E+00  0.798765638307E+00  0.761755737310E+00  0.724525517943E+00
  0.687251956735E+00  0.650106590034E+00  0.613254247144E+00  0.576851847156E+00  0.541047274872E+00
  0.505978353121E+00  0.471771929957E+00  0.438543099423E+00  0.406394573568E+00  0.375416220430E+00
  0.345684777895E+00  0.317263749229E+00  0.290203477998E+00  0.264541394999E+00  0.240302423582E+00
  0.217499525102E+00  0.196134362947E+00  0.176198061828E+00  0.157672038784E+00  0.140528883444E+00
  0.124733267246E+00  0.110242864211E+00  0.970092692067E-01  0.849789030078E-01  0.740938966625E-01
  0.642929502896E-01  0.555121633424E-01  0.476858343660E-01  0.407472283747E-01  0.346293092883E-01
  0.292654336472E-01  0.245900004226E-01  0.205390504894E-01  0.170508085666E-01  0.140661603432E-01
  0.115290581912E-01  0.938685027015E-02  0.759052980389E-02  0.609490365565E-02  0.485868180901E-02
  0.384449176653E-02  0.301882402021E-02  0.235191649745E-02  0.181758716229E-02  0.139302472135E-02
  0.105854765809E-02  0.797341638674E-03  0.595184763144E-03  0.440169255722E-03  0.322427082540E-03
  0.233865738804E-03  0.167919139971E-03  0.119317253081E-03  0.838768739820E-04
 pseudo wavefunction
  0.149287264532E-03  0.153915961780E-03  0.158688173198E-03  0.163608348488E-03  0.168681075314E-03
  0.173911083583E-03  0.179303249855E-03  0.184862601887E-03  0.190594323325E-03  0.196503758534E-03
  0.202596417584E-03  0.208877981386E-03  0.215354306989E-03  0.222031433042E-03  0.228915585423E-03
  0.236013183046E-03  0.243330843847E-03  0.250875390949E-03  0.258653859033E-03  0.266673500887E-03
  0.274941794179E-03  0.283466448421E-03  0.292255412161E-03  0.301316880396E-03  0.310659302208E-03
  0.320291388649E-03  0.330222120856E-03  0.340460758433E-03  0.351016848076E-03  0.361900232483E-03
  0.373121059525E-03  0.384689791712E-03  0.396617215947E-03  0.408914453584E-03  0.421592970797E-03
  0.434664589272E-03  0.448141497230E-03  0.462036260792E-03  0.476361835694E-03  0.491131579368E-03
  0.506359263398E-03  0.522059086358E-03  0.538245687053E-03  0.554934158169E-03  0.572140060344E-03
  0.589879436677E-03  0.608168827689E-03  0.627025286742E-03  0.646466395943E-03  0.666510282537E-03
  0.687175635806E-03  0.708481724502E-03  0.730448414804E-03  0.753096188850E-03  0.776446163831E-03
  0.800520111679E-03  0.825340479372E-03  0.850930409858E-03  0.877313763640E-03  0.904515141018E-03
  0.932559905031E-03  0.961474205102E-03  0.991285001422E-03  0.102202009009E-02  0.105370812901E-02
  0.108637866466E-02  0.112006215959E-02  0.115479002084E-02  0.119059462924E-02  0.122750936958E-02
  0.126556866178E-02  0.130480799290E-02  0.134526395033E-02  0.138697425581E-02  0.142997780067E-02
  0.147431468206E-02  0.152002624034E-02  0.156715509763E-02  0.161574519755E-02  0.166584184616E-02
  0.171749175427E-02  0.177074308093E-02  0.182564547836E-02  0.188225013823E-02  0.194060983941E-02
  0.200077899716E-02  0.206281371386E-02  0.212677183135E-02  0.219271298481E-02  0.226069865839E-02
  0.233079224255E-02  0.240305909312E-02  0.247756659225E-02  0.255438421125E-02  0.263358357532E-02
  0.271523853038E-02  0.279942521185E-02  0.288622211568E-02  0.297571017153E-02  0.306797281818E-02
  0.316309608136E-02  0.326116865390E-02  0.336228197847E-02  0.346653033279E-02  0.357401091750E-02
  0.368482394682E-02  0.379907274193E-02  0.391686382730E-02  0.403830702998E-02  0.416351558199E-02
  0.429260622584E-02  0.442569932337E-02  0.456291896793E-02  0.470439310005E-02  0.485025362665E-02
  0.500063654406E-02  0.515568206466E-02  0.531553474766E-02  0.548034363374E-02  0.565026238400E-02
  0.582544942312E-02  0.600606808699E-02  0.619228677492E-02  0.638427910654E-02  0.658222408359E-02
  0.678630625665E-02  0.699671589712E-02  0.721364917445E-02  0.743730833887E-02  0.766790190983E-02
  0.790564487017E-02  0.815075886637E-02  0.840347241498E-02  0.866402111537E-02  0.893264786919E-02
  0.920960310647E-02  0.949514501878E-02  0.978953979957E-02  0.100930618920E-01  0.104059942442E-01
  0.107286285730E-01  0.110612656346E-01  0.114042155053E-01  0.117577978692E-01  0.121223423159E-01
  0.124981886470E-01  0.128856871918E-01  0.132851991333E-01  0.136970968437E-01  0.141217642303E-01
  0.145595970926E-01  0.150110034893E-01  0.154764041181E-01  0.159562327052E-01  0.164509364089E-01
  0.169609762337E-01  0.174868274583E-01  0.180289800763E-01  0.185879392504E-01  0.191642257800E-01
  0.197583765845E-01  0.203709451995E-01  0.210025022895E-01  0.216536361758E-01  0.223249533801E-01
  0.230170791853E-01  0.237306582125E-01  0.244663550163E-01  0.252248546976E-01  0.260068635351E-01
  0.268131096356E-01  0.276443436041E-01  0.285013392343E-01  0.293848942191E-01  0.302958308829E-01
  0.312349969356E-01  0.322032662490E-01  0.332015396567E-01  0.342307457764E-01  0.352918418582E-01
  0.363858146567E-01  0.375136813289E-01  0.386764903586E-01  0.398753225072E-01  0.411112917930E-01
  0.423855464971E-01  0.436992702002E-01  0.450536828471E-01  0.464500418430E-01  0.478896431795E-01
  0.493738225928E-01  0.509039567541E-01  0.524814644929E-01  0.541078080533E-01  0.557844943854E-01
  0.575130764706E-01  0.592951546825E-01  0.611323781834E-01  0.630264463582E-01  0.649791102833E-01
  0.669921742344E-01  0.690674972310E-01  0.712069946190E-01  0.734126396913E-01  0.756864653468E-01
  0.780305657876E-01  0.804470982541E-01  0.829382847987E-01  0.855064140965E-01  0.881538432937E-01
  0.908829998922E-01  0.936963836702E-01  0.965965686370E-01  0.995862050217E-01  0.102668021293E+00
  0.105844826210E+00  0.109119510899E+00  0.112495050956E+00  0.115974508577E+00  0.119561034692E+00
  0.123257871137E+00  0.127068352813E+00  0.130995909866E+00  0.135044069864E+00  0.139216459963E+00
  0.143516809065E+00  0.147948949948E+00  0.152516821374E+00  0.157224470150E+00  0.162076053138E+00
  0.167075839203E+00  0.172228211081E+00  0.177537667157E+00  0.183008823127E+00  0.188646413536E+00
  0.194455293162E+00  0.200440438234E+00  0.206606947444E+00  0.212960042735E+00  0.219505069837E+00
  0.226247498509E+00  0.233192922453E+00  0.240347058861E+00  0.247715747551E+00  0.255304949640E+00
  0.263120745703E+00  0.271169333359E+00  0.279457024220E+00  0.287990240131E+00  0.296775508635E+00
  0.305819457566E+00  0.315128808687E+00  0.324710370283E+00  0.334571028585E+00  0.344717737927E+00
  0.355157509503E+00  0.365897398589E+00  0.376944490085E+00  0.388305882222E+00  0.399988668265E+00
  0.411999916020E+00  0.424346644969E+00  0.437035800798E+00  0.450074227120E+00  0.463468634134E+00
  0.477225563977E+00  0.491351352496E+00  0.505852087151E+00  0.520733560756E+00  0.536001220738E+00
  0.551660113580E+00  0.567714824115E+00  0.584169409298E+00  0.601027326118E+00  0.618291353241E+00
  0.635963506045E+00  0.654044944641E+00  0.672535874521E+00  0.691435439472E+00  0.710741606410E+00
  0.730451041819E+00  0.750558979520E+00  0.771059079534E+00  0.791943277882E+00  0.813201627221E+00
  0.834822128345E+00  0.856790552660E+00  0.879090255907E+00  0.901701983576E+00  0.924603668626E+00
  0.947770222372E+00  0.971173319653E+00  0.994781179674E+00  0.101855834427E+01  0.104246545568E+01
  0.106645903633E+01  0.109049127353E+01  0.111450981256E+01  0.113845756190E+01  0.116227251507E+01
  0.118588759387E+01  0.120923051836E+01  0.123222370938E+01  0.125478422949E+01  0.127682376876E+01
  0.129824868171E+01  0.131896008123E+01  0.133885399537E+01  0.135782159136E+01  0.137574947023E+01
  0.139252003308E+01  0.140801191769E+01  0.142210050005E+01  0.143465845156E+01  0.144555633627E+01
  0.145466322656E+01  0.146184730715E+01  0.146697642856E+01  0.146991856085E+01  0.147054208773E+01
  0.146871586950E+01  0.146430899267E+01  0.145719011414E+01  0.144722630064E+01  0.143428126144E+01
  0.141821287573E+01  0.139886992933E+01  0.137608800034E+01  0.134968447568E+01  0.131945933684E+01
  0.128534070443E+01  0.124740983238E+01  0.120576700504E+01  0.116052357955E+01  0.111180014787E+01
  0.105972450117E+01  0.100442939748E+01  0.946050130165E+00  0.884721888104E+00  0.820576899290E+00
  0.000000000000E+00  0.000000000000E+00  0.000000000000E+00  0.000000000000E+00  0.000000000000E+00
  0.000000000000E+00  0.000000000000E+00  0.000000000000E+00  0.000000000000E+00  0.000000000000E+00
  0.000000000000E+00  0.000000000000E+00  0.000000000000E+00  0.000000000000E+00  0.000000000000E+00
  0.000000000000E+00  0.000000000000E+00  0.000000000000E+00  0.000000000000E+00  0.000000000000E+00
  0.000000000000E+00  0.000000000000E+00  0.000000000000E+00  0.000000000000E+00  0.000000000000E+00
  0.000000000000E+00  0.000000000000E+00  0.000000000000E+00  0.000000000000E+00  0.000000000000E+00
  0.000000000000E+00  0.000000000000E+00  0.000000000000E+00  0.000000000000E+00  0.000000000000E+00
  0.000000000000E+00  0.000000000000E+00  0.000000000000E+00  0.000000000000E+00  0.000000000000E+00
  0.000000000000E+00  0.000000000000E+00  0.000000000000E+00  0.000000000000E+00  0.000000000000E+00
  0.000000000000E+00  0.000000000000E+00  0.000000000000E+00  0.000000000000E+00  0.000000000000E+00
  0.000000000000E+00  0.000000000000E+00  0.000000000000E+00  0.000000000000E+00  0.000000000000E+00
  0.000000000000E+00  0.000000000000E+00  0.000000000000E+00  0.000000000000E+00
 ae wavefunction
 -0.729083209672E-03 -0.751649349047E-03 -0.774913661521E-03 -0.798897730612E-03 -0.823623806010E-03
 -0.849114824039E-03 -0.875394428824E-03 -0.902486994000E-03 -0.930417645165E-03 -0.959212282990E-03
 -0.988897607008E-03 -0.101950114019E-02 -0.105105125418E-02 -0.108357719540E-02 -0.111710911187E-02
 -0.115167808088E-02 -0.118731613750E-02 -0.122405630395E-02 -0.126193261985E-02 -0.130098017343E-02
 -0.134123513362E-02 -0.138273478321E-02 -0.142551755287E-02 -0.146962305637E-02 -0.151509212672E-02
 -0.156196685348E-02 -0.161029062118E-02 -0.166010814891E-02 -0.171146553104E-02 -0.176441027929E-02
 -0.181899136591E-02 -0.187525926833E-02 -0.193326601494E-02 -0.199306523250E-02 -0.205471219474E-02
 -0.211826387252E-02 -0.218377898553E-02 -0.225131805543E-02 -0.232094346064E-02 -0.239271949281E-02
 -0.246671241477E-02 -0.254299052053E-02 -0.262162419674E-02 -0.270268598615E-02 -0.278625065290E-02
 -0.287239524978E-02 -0.296119918739E-02 -0.305274430542E-02 -0.314711494598E-02 -0.324439802910E-02
 -0.334468313047E-02 -0.344806256137E-02 -0.355463145104E-02 -0.366448783139E-02 -0.377773272419E-02
 -0.389447023074E-02 -0.401480762428E-02 -0.413885544482E-02 -0.426672759708E-02 -0.439854145087E-02
 -0.453441794442E-02 -0.467448169108E-02 -0.481886108836E-02 -0.496768843069E-02 -0.512110002511E-02
 -0.527923631020E-02 -0.544224197844E-02 -0.561026610201E-02 -0.578346226222E-02 -0.596198868220E-02
 -0.614600836369E-02 -0.633568922741E-02 -0.653120425741E-02 -0.673273164906E-02 -0.694045496172E-02
 -0.715456327495E-02 -0.737525134920E-02 -0.760271979106E-02 -0.783717522243E-02 -0.807883045482E-02
 -0.832790466767E-02 -0.858462359194E-02 -0.884921969804E-02 -0.912193238914E-02 -0.940300819892E-02
 -0.969270099491E-02 -0.999127218693E-02 -0.102989909406E-01 -0.106161343962E-01 -0.109429878936E-01
 -0.112798452017E-01 -0.116270087547E-01 -0.119847898932E-01 -0.123535091110E-01 -0.127334963091E-01
 -0.131250910542E-01 -0.135286428434E-01 -0.139445113762E-01 -0.143730668309E-01 -0.148146901489E-01
 -0.152697733236E-01 -0.157387196972E-01 -0.162219442622E-01 -0.167198739708E-01 -0.172329480492E-01
 -0.177616183193E-01 -0.183063495261E-01 -0.188676196719E-01 -0.194459203559E-01 -0.200417571213E-01
 -0.206556498073E-01 -0.212881329077E-01 -0.219397559354E-01 -0.226110837929E-01 -0.233026971479E-01
 -0.240151928150E-01 -0.247491841418E-01 -0.255053014013E-01 -0.262841921881E-01 -0.270865218190E-01
 -0.279129737386E-01 -0.287642499279E-01 -0.296410713168E-01 -0.305441781989E-01 -0.314743306494E-01
 -0.324323089447E-01 -0.334189139825E-01 -0.344349677042E-01 -0.354813135155E-01 -0.365588167066E-01
 -0.376683648719E-01 -0.388108683252E-01 -0.399872605123E-01 -0.411984984191E-01 -0.424455629728E-01
 -0.437294594372E-01 -0.450512177983E-01 -0.464118931412E-01 -0.478125660136E-01 -0.492543427782E-01
 -0.507383559486E-01 -0.522657645086E-01 -0.538377542120E-01 -0.554555378617E-01 -0.571203555650E-01
 -0.588334749612E-01 -0.605961914223E-01 -0.624098282198E-01 -0.642757366573E-01 -0.661952961646E-01
 -0.681699143494E-01 -0.702010270034E-01 -0.722900980589E-01 -0.744386194909E-01 -0.766481111602E-01
 -0.789201205948E-01 -0.812562227004E-01 -0.836580193989E-01 -0.861271391862E-01 -0.886652366046E-01
 -0.912739916234E-01 -0.939551089186E-01 -0.967103170521E-01 -0.995413675274E-01 -0.102450033736E+00
 -0.105438109762E+00 -0.108507409056E+00 -0.111659762960E+00 -0.114897019067E+00 -0.118221039424E+00
 -0.121633698546E+00 -0.125136881245E+00 -0.128732480257E+00 -0.132422393652E+00 -0.136208522016E+00
 -0.140092765397E+00 -0.144077019991E+00 -0.148163174563E+00 -0.152353106573E+00 -0.156648678015E+00
 -0.161051730929E+00 -0.165564082581E+00 -0.170187520290E+00 -0.174923795884E+00 -0.179774619772E+00
 -0.184741654598E+00 -0.189826508473E+00 -0.195030727753E+00 -0.200355789352E+00 -0.205803092555E+00
 -0.211373950326E+00 -0.217069580074E+00 -0.222891093865E+00 -0.228839488046E+00 -0.234915632273E+00
 -0.241120257908E+00 -0.247453945770E+00 -0.253917113206E+00 -0.260510000481E+00 -0.267232656439E+00
 -0.274084923439E+00 -0.281066421524E+00 -0.288176531826E+00 -0.295414379162E+00 -0.302778813841E+00
 -0.310268392619E+00 -0.317881358857E+00 -0.325615621784E+00 -0.333468734958E+00 -0.341437873827E+00
 -0.349519812458E+00 -0.357710899405E+00 -0.366007032731E+00 -0.374403634195E+00 -0.382895622627E+00
 -0.391477386514E+00 -0.400142755825E+00 -0.408884973111E+00 -0.417696663935E+00 -0.426569806678E+00
 -0.435495701786E+00 -0.444464940534E+00 -0.453467373376E+00 -0.462492078017E+00 -0.471527327247E+00
 -0.480560556724E+00 -0.489578332797E+00 -0.498566320532E+00 -0.507509252095E+00 -0.516390895690E+00
 -0.525194025220E+00 -0.533900390901E+00 -0.542490691058E+00 -0.550944545351E+00 -0.559240469687E+00
 -0.567355853129E+00 -0.575266937086E+00 -0.582948797138E+00 -0.590375327807E+00 -0.597519230696E+00
 -0.604352006335E+00 -0.610843950174E+00 -0.616964153158E+00 -0.622680507307E+00 -0.627959716804E+00
 -0.632767315053E+00 -0.637067688231E+00 -0.640824105833E+00 -0.643998758765E+00 -0.646552805515E+00
 -0.648446426958E+00 -0.649638890362E+00 -0.650088623143E+00 -0.649753296946E+00 -0.648589922589E+00
 -0.646554956437E+00 -0.643604418705E+00 -0.639694024230E+00 -0.634779326152E+00 -0.628815872969E+00
 -0.621759379341E+00 -0.613565910987E+00 -0.604192083920E+00 -0.593595278243E+00 -0.581733866539E+00
 -0.568567456902E+00 -0.554057150415E+00 -0.538165812829E+00 -0.520858359985E+00 -0.502102056395E+00
 -0.481866826162E+00 -0.460125575274E+00 -0.436854524052E+00 -0.412033548341E+00 -0.385646527818E+00
 -0.357681699570E+00 -0.328132014912E+00 -0.296995497246E+00 -0.264275598616E+00 -0.229981552527E+00
 -0.194128720504E+00 -0.156738929856E+00 -0.117840800045E+00 -0.774700550017E-01 -0.356698185526E-01
  0.750911024754E-02  0.520080057472E-01  0.977599933650E-01  0.144689863247E+00  0.192713929836E+00
  0.241739951578E+00  0.291667130880E+00  0.342386221450E+00  0.393779776391E+00  0.445722570672E+00
  0.498082216023E+00  0.550719940917E+00  0.603491423401E+00  0.656247453193E+00  0.708834119610E+00
  0.761092270402E+00  0.812856234173E+00  0.863952194816E+00  0.914196945933E+00  0.963397771203E+00
  0.101135378135E+01  0.105785839028E+01  0.110270218821E+01  0.114567553457E+01  0.118657058572E+01
  0.122518283076E+01  0.126131236081E+01  0.129476506425E+01  0.132535386370E+01  0.135290002854E+01
  0.137723454665E+01  0.139819951999E+01  0.141564953178E+01  0.142945294282E+01  0.143949307283E+01
  0.144566923794E+01  0.144789761826E+01  0.144611193653E+01  0.144026393971E+01  0.143032366936E+01
  0.141627952013E+01  0.139813807923E+01  0.137592375061E+01  0.134967815869E+01  0.131945933684E+01
  0.128534070443E+01  0.124740983238E+01  0.120576700504E+01  0.116052357955E+01  0.111180014787E+01
  0.105972450117E+01  0.100442939748E+01  0.946050130165E+00  0.884721888104E+00  0.820576899290E+00
  0.000000000000E+00  0.000000000000E+00  0.000000000000E+00  0.000000000000E+00  0.000000000000E+00
  0.000000000000E+00  0.000000000000E+00  0.000000000000E+00  0.000000000000E+00  0.000000000000E+00
  0.000000000000E+00  0.000000000000E+00  0.000000000000E+00  0.000000000000E+00  0.000000000000E+00
  0.000000000000E+00  0.000000000000E+00  0.000000000000E+00  0.000000000000E+00  0.000000000000E+00
  0.000000000000E+00  0.000000000000E+00  0.000000000000E+00  0.000000000000E+00  0.000000000000E+00
  0.000000000000E+00  0.000000000000E+00  0.000000000000E+00  0.000000000000E+00  0.000000000000E+00
  0.000000000000E+00  0.000000000000E+00  0.000000000000E+00  0.000000000000E+00  0.000000000000E+00
  0.000000000000E+00  0.000000000000E+00  0.000000000000E+00  0.000000000000E+00  0.000000000000E+00
  0.000000000000E+00  0.000000000000E+00  0.000000000000E+00  0.000000000000E+00  0.000000000000E+00
  0.000000000000E+00  0.000000000000E+00  0.000000000000E+00  0.000000000000E+00  0.000000000000E+00
  0.000000000000E+00  0.000000000000E+00  0.000000000000E+00  0.000000000000E+00  0.000000000000E+00
  0.000000000000E+00  0.000000000000E+00  0.000000000000E+00  0.000000000000E+00
 pseudo wavefunction
  0.752962851338E-08  0.800378382909E-08  0.850779762486E-08  0.904355014707E-08  0.961304004488E-08
  0.102183918263E-07  0.108618637836E-07  0.115458564183E-07  0.122729213959E-07  0.130457710654E-07
  0.138672885778E-07  0.147405386413E-07  0.156687789550E-07  0.166554723617E-07  0.177042997658E-07
  0.188191738657E-07  0.200042537499E-07  0.212639604127E-07  0.226029932469E-07  0.240263475753E-07
  0.255393332859E-07  0.271475946404E-07  0.288571313308E-07  0.306743208613E-07  0.326059423397E-07
  0.346592017675E-07  0.368417589220E-07  0.391617559314E-07  0.416278476496E-07  0.442492339433E-07
  0.470356940127E-07  0.499976228729E-07  0.531460701333E-07  0.564927812186E-07  0.600502411854E-07
  0.638317212987E-07  0.678513285403E-07  0.721240582361E-07  0.766658499964E-07  0.814936471796E-07
  0.866254600999E-07  0.920804332158E-07  0.978789165489E-07  0.104042541601E-06  0.110594302052E-06
  0.117558639535E-06  0.124961534824E-06  0.132830604748E-06  0.141195205224E-06  0.150086540765E-06
  0.159537780893E-06  0.169584183878E-06  0.180263228271E-06  0.191614752717E-06  0.203681104579E-06
  0.216507297913E-06  0.230141181394E-06  0.244633616822E-06  0.260038668859E-06  0.276413806721E-06
  0.293820118571E-06  0.312322539407E-06  0.331990093307E-06  0.352896150925E-06  0.375118703202E-06
  0.398740652316E-06  0.423850120948E-06  0.450540781032E-06  0.478912203194E-06  0.509070228209E-06
  0.541127361841E-06  0.575203194548E-06  0.611424847622E-06  0.649927447412E-06  0.690854629421E-06
  0.734359074141E-06  0.780603076629E-06  0.829759151956E-06  0.882010678775E-06  0.937552583418E-06
  0.996592067075E-06  0.105934937876E-05  0.112605863695E-05  0.119696870298E-05  0.127234410940E-05
  0.135246604682E-05  0.143763341293E-05  0.152816392748E-05  0.162439531757E-05  0.172668657755E-05
  0.183541930821E-05  0.195099914035E-05  0.207385724800E-05  0.220445195690E-05  0.234327045426E-05
  0.249083060620E-05  0.264768288965E-05  0.281441244589E-05  0.299164126337E-05  0.318003049803E-05
  0.338028293970E-05  0.359314563383E-05  0.381941266828E-05  0.405992813561E-05  0.431558928194E-05
  0.458734985400E-05  0.487622365701E-05  0.518328833658E-05  0.550968939878E-05  0.585664448326E-05
  0.622544790550E-05  0.661747548514E-05  0.703418967816E-05  0.747714503240E-05  0.794799398652E-05
  0.844849303406E-05  0.898050927570E-05  0.954602738406E-05  0.101471570070E-04  0.107861406373E-04
  0.114653619773E-04  0.121873548308E-04  0.129548125549E-04  0.137705981058E-04  0.146377547190E-04
  0.155595172602E-04  0.165393242918E-04  0.175808308991E-04  0.186879223234E-04  0.198647284542E-04
  0.211156392335E-04  0.224453210296E-04  0.238587340425E-04  0.253611508040E-04  0.269581758435E-04
  0.286557665915E-04  0.304602555983E-04  0.323783741530E-04  0.344172773874E-04  0.365845709617E-04
  0.388883394291E-04  0.413371763863E-04  0.439402165215E-04  0.467071696797E-04  0.496483570721E-04
  0.527747497643E-04  0.560980095870E-04  0.596305326213E-04  0.633854954205E-04  0.673769041407E-04
  0.716196467630E-04  0.761295486016E-04  0.809234313048E-04  0.860191755674E-04  0.914357877897E-04
  0.971934709289E-04  0.103313699808E-03  0.109819301163E-03  0.116734538721E-03  0.124085203634E-03
  0.131898710597E-03  0.140204200010E-03  0.149032646567E-03  0.158416974664E-03  0.168392181075E-03
  0.178995465325E-03  0.190266368270E-03  0.202246919371E-03  0.214981793240E-03  0.228518476005E-03
  0.242907442134E-03  0.258202342363E-03  0.274460203425E-03  0.291741640318E-03  0.310111081902E-03
  0.329637010647E-03  0.350392217433E-03  0.372454072332E-03  0.395904812367E-03  0.420831847325E-03
  0.447328084730E-03  0.475492275189E-03  0.505429379367E-03  0.537250957953E-03  0.571075586029E-03
  0.607029293384E-03  0.645246032361E-03  0.685868174971E-03  0.729047041071E-03  0.774943459544E-03
  0.823728364518E-03  0.875583428796E-03  0.930701736798E-03  0.989288499449E-03  0.105156181360E-02
  0.111775346874E-02  0.118810980387E-02  0.126289261762E-02  0.134238013500E-02  0.142686803396E-02
  0.151667053577E-02  0.161212156280E-02  0.171357596801E-02  0.182141084035E-02  0.193602689077E-02
  0.205784992367E-02  0.218733239885E-02  0.232495508959E-02  0.247122884236E-02  0.262669644437E-02
  0.279193460540E-02  0.296755606047E-02  0.315421180068E-02  0.335259343959E-02  0.356343572315E-02
  0.378751919136E-02  0.402567300056E-02  0.427877791545E-02  0.454776948057E-02  0.483364138134E-02
  0.513744900526E-02  0.546031321451E-02  0.580342434142E-02  0.616804641918E-02  0.655552166023E-02
  0.696727519576E-02  0.740482008993E-02  0.786976264307E-02  0.836380799867E-02  0.888876606936E-02
  0.944655779765E-02  0.100392217675E-01  0.106689211832E-01  0.113379512331E-01  0.120487468535E-01
  0.128038909128E-01  0.136061228308E-01  0.144583476517E-01  0.153636455878E-01  0.163252820509E-01
  0.173467181874E-01  0.184316219323E-01  0.195838795979E-01  0.208076080081E-01  0.221071671919E-01
  0.234871736439E-01  0.249525141583E-01  0.265083602409E-01  0.281601830977E-01  0.299137691953E-01
  0.317752363827E-01  0.337510505586E-01  0.358480428594E-01  0.380734273362E-01  0.404348190776E-01
  0.429402527258E-01  0.455982013193E-01  0.484175953790E-01  0.514078421419E-01  0.545788448223E-01
  0.579410217613E-01  0.615053253010E-01  0.652832601886E-01  0.692869012881E-01  0.735289103389E-01
  0.780225514620E-01  0.827817050708E-01  0.878208797933E-01  0.931552219576E-01  0.988005221340E-01
  0.104773218159E+00  0.111090393991E+00  0.117769773676E+00  0.124829709599E+00  0.132289164118E+00
  0.140167683573E+00  0.148485363532E+00  0.157262804061E+00  0.166521053630E+00  0.176281540194E+00
  0.186565987799E+00  0.197396316976E+00  0.208794527011E+00  0.220782558075E+00  0.233382131038E+00
  0.246614562713E+00  0.260500554136E+00  0.275059949431E+00  0.290311462788E+00  0.306272371026E+00
  0.322958169336E+00  0.340382187887E+00  0.358555167210E+00  0.377484790611E+00  0.397175172321E+00
  0.417626300715E+00  0.438833436755E+00  0.460786468826E+00  0.483469226458E+00  0.506858756987E+00
  0.530924571142E+00  0.555627865829E+00  0.580920735077E+00  0.606745383251E+00  0.633033358197E+00
  0.659704826035E+00  0.686667913813E+00  0.713818151091E+00  0.741038046749E+00  0.768196842684E+00
  0.795150491427E+00  0.821741909815E+00  0.847801565250E+00  0.873148454352E+00  0.897591535317E+00
  0.920931674213E+00  0.942964160922E+00  0.963481841234E+00  0.982278896578E+00  0.999155280437E+00
  0.101392178922E+01  0.102640570369E+01  0.103645688320E+01  0.104395412861E+01  0.104881154868E+01
  0.105098457118E+01  0.105047513348E+01  0.104733547273E+01  0.104166981827E+01  0.103363317739E+01
  0.102342631388E+01  0.101128596374E+01  0.997469337787E+00  0.982232054452E+00  0.965798862161E+00
  0.948326885685E+00  0.929857740007E+00  0.910376756217E+00  0.889931211092E+00  0.868589370191E+00
  0.846422628036E+00  0.823505139034E+00  0.799913440677E+00  0.775726063270E+00  0.751023120951E+00
  0.725885884100E+00  0.700396329094E+00  0.674636663409E+00  0.648688827398E+00  0.622633975262E+00
  0.596551942503E+00  0.570520709495E+00  0.544615874674E+00  0.518910149643E+00  0.493472911778E+00
  0.468369782982E+00  0.443662310964E+00  0.419407716199E+00  0.395658728409E+00  0.372463509394E+00
  0.349865656830E+00  0.327904278897E+00  0.306614125743E+00  0.286025761031E+00  0.266165755436E+00
  0.247056883897E+00  0.228718309732E+00  0.211165741379E+00  0.194411551281E+00  0.178464851218E+00
  0.163331523679E+00  0.149014214350E+00  0.135512295736E+00  0.122821815920E+00  0.110935448851E+00
  0.998424632451E-01  0.895287259382E-01  0.799767528162E-01  0.711658164898E-01  0.630721153715E-01
  0.556690042113E-01  0.489272819610E-01  0.428155293760E-01  0.373004862242E-01  0.323474563917E-01
  0.279207285099E-01  0.239839998444E-01  0.205007919343E-01  0.174348476788E-01  0.147505010870E-01
  0.124130125945E-01  0.103888646037E-01  0.864601362694E-02  0.715409704532E-02  0.588459398879E-02
  0.481094116769E-02  0.390860561887E-02  0.315511726518E-02  0.253006492169E-02
 ae wavefunction
  0.638386639213E-07  0.677120666098E-07  0.717878072451E-07  0.760781595650E-07  0.805960733267E-07
  0.853552170595E-07  0.903700209180E-07  0.956557259439E-07  0.101228432636E-06  0.107105154623E-06
  0.113303874994E-06  0.119843604950E-06  0.126744448329E-06  0.134027667299E-06  0.141715753807E-06
  0.149832504786E-06  0.158403101771E-06  0.167454195758E-06  0.177013996743E-06  0.187112369092E-06
  0.197780932571E-06  0.209053169575E-06  0.220964538952E-06  0.233552596751E-06  0.246857124576E-06
  0.260920265372E-06  0.275786668376E-06  0.291503641820E-06  0.308121317188E-06  0.325692819370E-06
  0.344274454503E-06  0.363925900032E-06  0.384710416104E-06  0.406695062606E-06  0.429950934185E-06
  0.454553407675E-06  0.480582404730E-06  0.508122674102E-06  0.537264086497E-06  0.568101949333E-06
  0.600737346455E-06  0.635277488782E-06  0.671836096954E-06  0.710533799931E-06  0.751498565118E-06
  0.794866149769E-06  0.840780581229E-06  0.889394672333E-06  0.940870563053E-06  0.995380297324E-06
  0.105310643829E-05  0.111424271959E-05  0.117899473638E-05  0.124758068441E-05  0.132023213453E-05
  0.139719487448E-05  0.147872977789E-05  0.156511375485E-05  0.165664073353E-05  0.175362272646E-05
  0.185639095844E-05  0.196529704647E-05  0.208071428133E-05  0.220303897134E-05  0.233269186659E-05
  0.247011968932E-05  0.261579674643E-05  0.277022664920E-05  0.293394412301E-05  0.310751696496E-05
  0.329154809020E-05  0.348667772084E-05  0.369358570339E-05  0.391299399082E-05  0.414566924952E-05
  0.439242565064E-05  0.465412783273E-05  0.493169403578E-05  0.522609944888E-05  0.553837975004E-05
  0.586963488180E-05  0.622103304819E-05  0.659381496692E-05  0.698929839120E-05  0.740888290003E-05
  0.785405501000E-05  0.832639356092E-05  0.882757549223E-05  0.935938194569E-05  0.992370473951E-05
  0.105225532852E-04  0.111580618774E-04  0.118324974816E-04  0.125482680106E-04  0.133079310509E-04
  0.141142032120E-04  0.149699700161E-04  0.158782963774E-04  0.168424377945E-04  0.178658521586E-04
  0.189522123829E-04  0.201054197150E-04  0.213296179680E-04  0.226292085552E-04  0.240088665173E-04
  0.254735574787E-04  0.270285557122E-04  0.286794632690E-04  0.304322303255E-04  0.322931767720E-04
  0.342690151097E-04  0.363668748141E-04  0.385943281325E-04  0.409594175222E-04  0.434706847497E-04
  0.461372017751E-04  0.489686035594E-04  0.519751228551E-04  0.551676271443E-04  0.585576578449E-04
  0.621574719050E-04  0.659800859751E-04  0.700393231841E-04  0.743498629370E-04  0.789272935765E-04
  0.837881683782E-04  0.889500649094E-04  0.944316479659E-04  0.100252736399E-03  0.106434373973E-03
  0.112998904506E-03  0.119970051544E-03  0.127373002932E-03  0.135234500388E-03  0.143582934591E-03
  0.152448445901E-03  0.161863031201E-03  0.171860657139E-03  0.182477380168E-03  0.193751473770E-03
  0.205723563284E-03  0.218436768816E-03  0.231936856629E-03  0.246272399559E-03  0.261494946963E-03
  0.277659204731E-03  0.294823225954E-03  0.313048612853E-03  0.332400730601E-03  0.352948933708E-03
  0.374766805714E-03  0.397932412867E-03  0.422528572659E-03  0.448643137946E-03  0.476369297630E-03
  0.505805894698E-03  0.537057762678E-03  0.570236081455E-03  0.605458753500E-03  0.642850801677E-03
  0.682544789705E-03  0.724681266542E-03  0.769409235969E-03  0.816886652643E-03  0.867280946102E-03
  0.920769574046E-03  0.977540606618E-03  0.103779334296E-02  0.110173896205E-02  0.116960120927E-02
  0.124161712057E-02  0.131803778622E-02  0.139912915586E-02  0.148517288705E-02  0.157646723931E-02
  0.167332801580E-02  0.177608955496E-02  0.188510577427E-02  0.200075126869E-02  0.212342246608E-02
  0.225353884217E-02  0.239154419773E-02  0.253790800048E-02  0.269312679454E-02  0.285772568023E-02
  0.303225986681E-02  0.321731630138E-02  0.341351537651E-02  0.362151271972E-02  0.384200106773E-02
  0.407571222831E-02  0.432341913284E-02  0.458593798242E-02  0.486413049033E-02  0.515890622389E-02
  0.547122504814E-02  0.580209967435E-02  0.615259831549E-02  0.652384745141E-02  0.691703470557E-02
  0.733341183551E-02  0.777429783849E-02  0.824108217425E-02  0.873522810494E-02  0.925827615420E-02
  0.981184768427E-02  0.103976485921E-01  0.110174731224E-01  0.116732077973E-01  0.123668354595E-01
  0.131004394267E-01  0.138762077531E-01  0.146964375933E-01  0.155635396630E-01  0.164800427894E-01
  0.174485985435E-01  0.184719859442E-01  0.195531162243E-01  0.206950376447E-01  0.219009403439E-01
  0.231741612054E-01  0.245181887267E-01  0.259366678676E-01  0.274334048580E-01  0.290123719384E-01
  0.306777120064E-01  0.324337431404E-01  0.342849629649E-01  0.362360528249E-01  0.382918817266E-01
  0.404575100058E-01  0.427381926739E-01  0.451393823953E-01  0.476667320408E-01  0.503260967601E-01
  0.531235355113E-01  0.560653119826E-01  0.591578948356E-01  0.624079571946E-01  0.658223753055E-01
  0.694082262783E-01  0.731727848255E-01  0.771235189069E-01  0.812680841787E-01  0.856143171503E-01
  0.901702269413E-01  0.949439855302E-01  0.999439163813E-01  0.105178481335E+00  0.110656265641E+00
  0.116385961018E+00  0.122376346613E+00  0.128636267742E+00  0.135174612283E+00  0.142000284618E+00
  0.149122176983E+00  0.156549138135E+00  0.164289939223E+00  0.172353236755E+00  0.180747532597E+00
  0.189481130902E+00  0.198562091940E+00  0.207998182760E+00  0.217796824688E+00  0.227965037650E+00
  0.238509381351E+00  0.249435893385E+00  0.260750024335E+00  0.272456570018E+00  0.284559600997E+00
  0.297062389561E+00  0.309967334388E+00  0.323275883101E+00  0.336988453007E+00  0.351104350257E+00
  0.365621687697E+00  0.380537301687E+00  0.395846668118E+00  0.411543817854E+00  0.427621251850E+00
  0.444069856154E+00  0.460878817099E+00  0.478035537116E+00  0.495525551829E+00  0.513332449523E+00
  0.531437794737E+00  0.549821058757E+00  0.568459561218E+00  0.587328429214E+00  0.606400583216E+00
  0.625646762959E+00  0.645035611035E+00  0.664533836135E+00  0.684106478844E+00  0.703717295005E+00
  0.723329245581E+00  0.742905028245E+00  0.762407504096E+00  0.781799788848E+00  0.801044754676E+00
  0.820103805368E+00  0.838935067712E+00  0.857491488133E+00  0.875719531092E+00  0.893559049238E+00
  0.910944425185E+00  0.927806520797E+00  0.944074705985E+00  0.959678418621E+00  0.974548107157E+00
  0.988615705671E+00  0.100181488244E+01  0.101408124227E+01  0.102535258245E+01  0.103556923040E+01
  0.104467445198E+01  0.105261490827E+01  0.105934112745E+01  0.106480796926E+01  0.106897505848E+01
  0.107180717579E+01  0.107327459614E+01  0.107335336887E+01  0.107202554107E+01  0.106927932012E+01
  0.106510918010E+01  0.105951591109E+01  0.105250661755E+01  0.104409466464E+01  0.103429957814E+01
  0.102314690268E+01  0.101066801918E+01  0.996899929019E+00  0.981885007088E+00  0.965670729847E+00
  0.948309381061E+00  0.929857740007E+00  0.910376756217E+00  0.889931211092E+00  0.868589370191E+00
  0.846422628036E+00  0.823505139034E+00  0.799913440677E+00  0.775726063270E+00  0.751023120951E+00
  0.725885884100E+00  0.700396329094E+00  0.674636663409E+00  0.648688827398E+00  0.622633975262E+00
  0.596551942503E+00  0.570520709495E+00  0.544615874674E+00  0.518910149643E+00  0.493472911778E+00
  0.468369782982E+00  0.443662310964E+00  0.419407716199E+00  0.395658728409E+00  0.372463509394E+00
  0.349865656830E+00  0.327904278897E+00  0.306614125743E+00  0.286025761031E+00  0.266165755436E+00
  0.247056883897E+00  0.228718309732E+00  0.211165741379E+00  0.194411551281E+00  0.178464851218E+00
  0.163331523679E+00  0.149014214350E+00  0.135512295736E+00  0.122821815920E+00  0.110935448851E+00
  0.998424632451E-01  0.895287259382E-01  0.799767528162E-01  0.711658164898E-01  0.630721153715E-01
  0.556690042113E-01  0.489272819610E-01  0.428155293760E-01  0.373004862242E-01  0.323474563917E-01
  0.279207285099E-01  0.239839998444E-01  0.205007919343E-01  0.174348476788E-01  0.147505010870E-01
  0.124130125945E-01  0.103888646037E-01  0.864601362694E-02  0.715409704532E-02  0.588459398879E-02
  0.481094116769E-02  0.390860561887E-02  0.315511726518E-02  0.253006492169E-02
 pseudo wavefunction
  0.122159959323E-07  0.129852608960E-07  0.138029679667E-07  0.146721676378E-07  0.155961024983E-07
  0.165782193291E-07  0.176221819618E-07  0.187318849465E-07  0.199114680805E-07  0.211653318523E-07
  0.224981538578E-07  0.239149062500E-07  0.254208742880E-07  0.270216760541E-07  0.287232834119E-07
  0.305320442849E-07  0.324547063376E-07  0.344984421482E-07  0.366708759658E-07  0.389801121532E-07
  0.414347654207E-07  0.440439929637E-07  0.468175286238E-07  0.497657192013E-07  0.528995630546E-07
  0.562307511302E-07  0.597717105759E-07  0.635356511009E-07  0.675366142557E-07  0.717895258138E-07
  0.763102514540E-07  0.811156559473E-07  0.862236660718E-07  0.916533374895E-07  0.974249258342E-07
  0.103559962276E-06  0.110081333844E-06  0.117013368808E-06  0.124381927435E-06  0.132214498465E-06
  0.140540301654E-06  0.149390396783E-06  0.158797799528E-06  0.168797604625E-06  0.179427116792E-06
  0.190725989899E-06  0.202736374894E-06  0.215503077050E-06  0.229073723116E-06  0.243498938988E-06
  0.258832538570E-06  0.275131724531E-06  0.292457301701E-06  0.310873903906E-06  0.330450235085E-06
  0.351259325598E-06  0.373378804661E-06  0.396891189951E-06  0.421884195439E-06  0.448451058609E-06
  0.476690888286E-06  0.506709034362E-06  0.538617480810E-06  0.572535263445E-06  0.608588913986E-06
  0.646912932093E-06  0.687650287116E-06  0.730952951452E-06  0.776982467480E-06  0.825910550196E-06
  0.877919727809E-06  0.933204022660E-06  0.991969675029E-06  0.105443591252E-05  0.112083576790E-05
  0.119141694841E-05  0.126644275988E-05  0.134619308896E-05  0.143096544727E-05  0.152107608124E-05
  0.161686115190E-05  0.171867798891E-05  0.182690642362E-05  0.194195020597E-05  0.206423851074E-05
  0.219422753854E-05  0.233240221772E-05  0.247927801332E-05  0.263540285007E-05  0.280135915640E-05
  0.297776603716E-05  0.316528158320E-05  0.336460532634E-05  0.357648084899E-05  0.380169855802E-05
  0.404109863336E-05  0.429557416229E-05  0.456607447097E-05  0.485360866594E-05  0.515924939849E-05
  0.548413686611E-05  0.582948306592E-05  0.619657631592E-05  0.658678606095E-05  0.700156798128E-05
  0.744246942284E-05  0.791113516942E-05  0.840931357835E-05  0.893886310246E-05  0.950175922282E-05
  0.101001018179E-04  0.107361229967E-04  0.114121954256E-04  0.121308411785E-04  0.128947411453E-04
  0.137067450324E-04  0.145698819923E-04  0.154873719236E-04  0.164626374814E-04  0.174993168448E-04
  0.186012772877E-04  0.197726296042E-04  0.210177434427E-04  0.223412636044E-04  0.237481273695E-04
  0.252435829126E-04  0.268332088787E-04  0.285229351914E-04  0.303190651709E-04  0.322282990445E-04
  0.342577589378E-04  0.364150154380E-04  0.387081158313E-04  0.411456141157E-04  0.437366029054E-04
  0.464907473417E-04  0.494183211397E-04  0.525302449040E-04  0.558381268553E-04  0.593543061216E-04
  0.630918987537E-04  0.670648466372E-04  0.712879694824E-04  0.757770200873E-04  0.805487430773E-04
  0.856209373428E-04  0.910125224049E-04  0.967436089578E-04  0.102835573850E-03  0.109311139784E-03
  0.116194460027E-03  0.123511208460E-03  0.131288675280E-03  0.139555868730E-03  0.148343623228E-03
  0.157684714298E-03  0.167613980720E-03  0.178168454378E-03  0.189387498257E-03  0.201312953131E-03
  0.213989293461E-03  0.227463793104E-03  0.241786701434E-03  0.257011430532E-03  0.273194754140E-03
  0.290397019119E-03  0.308682370189E-03  0.328118988792E-03  0.348779346953E-03  0.370740477085E-03
  0.394084258733E-03  0.418897723326E-03  0.445273378047E-03  0.473309550032E-03  0.503110752160E-03
  0.534788071792E-03  0.568459583879E-03  0.604250789975E-03  0.642295084757E-03  0.682734251781E-03
  0.725718990286E-03  0.771409474978E-03  0.819975950858E-03  0.871599365263E-03  0.926472039429E-03
  0.984798382042E-03  0.104679564737E-02  0.111269474074E-02  0.118274107429E-02  0.125719547615E-02
  0.133633515618E-02  0.142045473205E-02  0.150986731912E-02  0.160490568806E-02  0.170592349462E-02
  0.181329658563E-02  0.192742438613E-02  0.204873137252E-02  0.217766863696E-02  0.231471554855E-02
  0.246038151726E-02  0.261520786666E-02  0.277976982222E-02  0.295467862202E-02  0.314058375718E-02
  0.333817534992E-02  0.354818667728E-02  0.377139684937E-02  0.400863365104E-02  0.426077655678E-02
  0.452875992904E-02  0.481357641049E-02  0.511628052166E-02  0.543799247574E-02  0.577990222302E-02
  0.614327373805E-02  0.652944956331E-02  0.693985562371E-02  0.737600632707E-02  0.783950996638E-02
  0.833207444028E-02  0.885551330903E-02  0.941175220386E-02  0.100028356084E-01  0.106309340313E-01
  0.112983515908E-01  0.120075340312E-01  0.127610771926E-01  0.135617359570E-01  0.144124336921E-01
  0.153162722158E-01  0.162765423064E-01  0.172967347795E-01  0.183805521583E-01  0.195319209585E-01
  0.207550046135E-01  0.220542170616E-01  0.234342370183E-01  0.249000229550E-01  0.264568288041E-01
  0.281102204089E-01  0.298660927343E-01  0.317306878513E-01  0.337106137045E-01  0.358128636693E-01
  0.380448368978E-01  0.404143594481E-01  0.429297061841E-01  0.455996234250E-01  0.484333523121E-01
  0.514406528512E-01  0.546318285750E-01  0.580177517529E-01  0.616098890606E-01  0.654203276001E-01
  0.694618011375E-01  0.737477164010E-01  0.782921792489E-01  0.831100204872E-01  0.882168210746E-01
  0.936289364111E-01  0.993635193567E-01  0.105438541573E+00  0.111872812720E+00  0.118685996964E+00
  0.125898626196E+00  0.133532109242E+00  0.141608736300E+00  0.150151677673E+00  0.159184975828E+00
  0.168733529608E+00  0.178823069353E+00  0.189480121499E+00  0.200731961076E+00  0.212606550354E+00
  0.225132461697E+00  0.238338782499E+00  0.252254999845E+00  0.266910862366E+00  0.282336216478E+00
  0.298560814030E+00  0.315614088098E+00  0.333524893493E+00  0.352321208309E+00  0.372029792642E+00
  0.392675800489E+00  0.414282340660E+00  0.436869982528E+00  0.460456202415E+00  0.485054766544E+00
  0.510675046706E+00  0.537321265177E+00  0.564991665958E+00  0.593677610242E+00  0.623362594997E+00
  0.654021194942E+00  0.685617929901E+00  0.718106061631E+00  0.751426326820E+00  0.785505616075E+00
  0.820255612394E+00  0.855571406957E+00  0.891330115034E+00  0.927389520477E+00  0.963586783565E+00
  0.999737253968E+00  0.103563343802E+01  0.107104417745E+01  0.110571410459E+01  0.113936344714E+01
  0.117168826254E+01  0.120236118802E+01  0.123103279665E+01  0.125733365034E+01  0.128087713836E+01
  0.130126318110E+01  0.131808286432E+01  0.133092404516E+01  0.133937793767E+01  0.134304664057E+01
  0.134155151095E+01  0.133454221566E+01  0.132170620523E+01  0.130277825597E+01  0.127754961625E+01
  0.124587617929E+01  0.120768499456E+01  0.116297833630E+01  0.111183448711E+01  0.105440438882E+01
  0.990903389592E+00  0.921597505581E+00  0.846783953274E+00  0.766766228250E+00  0.681824737259E+00
  0.592184950507E+00  0.497986573192E+00  0.399311932267E+00  0.296297038202E+00  0.189115717116E+00
  0.000000000000E+00  0.000000000000E+00  0.000000000000E+00  0.000000000000E+00  0.000000000000E+00
  0.000000000000E+00  0.000000000000E+00  0.000000000000E+00  0.000000000000E+00  0.000000000000E+00
  0.000000000000E+00  0.000000000000E+00  0.000000000000E+00  0.000000000000E+00  0.000000000000E+00
  0.000000000000E+00  0.000000000000E+00  0.000000000000E+00  0.000000000000E+00  0.000000000000E+00
  0.000000000000E+00  0.000000000000E+00  0.000000000000E+00  0.000000000000E+00  0.000000000000E+00
  0.000000000000E+00  0.000000000000E+00  0.000000000000E+00  0.000000000000E+00  0.000000000000E+00
  0.000000000000E+00  0.000000000000E+00  0.000000000000E+00  0.000000000000E+00  0.000000000000E+00
  0.000000000000E+00  0.000000000000E+00  0.000000000000E+00  0.000000000000E+00  0.000000000000E+00
  0.000000000000E+00  0.000000000000E+00  0.000000000000E+00  0.000000000000E+00  0.000000000000E+00
  0.000000000000E+00  0.000000000000E+00  0.000000000000E+00  0.000000000000E+00  0.000000000000E+00
  0.000000000000E+00  0.000000000000E+00  0.000000000000E+00  0.000000000000E+00  0.000000000000E+00
  0.000000000000E+00  0.000000000000E+00  0.000000000000E+00  0.000000000000E+00
 ae wavefunction
  0.105938862008E-06  0.112366699779E-06  0.119130313309E-06  0.126250070647E-06  0.133747461684E-06
  0.141645169102E-06  0.149967139484E-06  0.158738665069E-06  0.167986464347E-06  0.177738771134E-06
  0.188025428049E-06  0.198877983841E-06  0.210329800478E-06  0.222416162149E-06  0.235174393849E-06
  0.248643986170E-06  0.262866727427E-06  0.277886844486E-06  0.293751151342E-06  0.310509207392E-06
  0.328213485094E-06  0.346919547905E-06  0.366686239167E-06  0.387575882507E-06  0.409654494811E-06
  0.432992011580E-06  0.457662527464E-06  0.483744549670E-06  0.511321270549E-06  0.540480849963E-06
  0.571316726995E-06  0.603927935371E-06  0.638419454243E-06  0.674902568380E-06  0.713495258166E-06
  0.754322610207E-06  0.797517253170E-06  0.843219826211E-06  0.891579468290E-06  0.942754340507E-06
  0.996912189846E-06  0.105423093108E-05  0.111489928177E-05  0.117911742371E-05  0.124709771673E-05
  0.131906544782E-05  0.139525962802E-05  0.147593384777E-05  0.156135717577E-05  0.165181511616E-05
  0.174761062957E-05  0.184906521387E-05  0.195652005094E-05  0.207033723318E-05  0.219090104874E-05
  0.231861937845E-05  0.245392513798E-05  0.259727785526E-05  0.274916529942E-05  0.291010525037E-05
  0.308064737041E-05  0.326137516243E-05  0.345290809660E-05  0.365590384034E-05  0.387106062183E-05
  0.409911976960E-05  0.434086838850E-05  0.459714221356E-05  0.486882861313E-05  0.515686983762E-05
  0.546226641521E-05  0.578608078447E-05  0.612944114001E-05  0.649354555140E-05  0.687966628946E-05
  0.728915445842E-05  0.772344491230E-05  0.818406145589E-05  0.867262240007E-05  0.919084643612E-05
  0.974055890121E-05  0.103236984114E-04  0.109423239180E-04  0.115986222114E-04  0.122949158706E-04
  0.130336717460E-04  0.138175098969E-04  0.146492131773E-04  0.155317373630E-04  0.164682218956E-04
  0.174620013609E-04  0.185166175856E-04  0.196358325618E-04  0.208236421810E-04  0.220842907154E-04
  0.234222863332E-04  0.248424175098E-04  0.263497704187E-04  0.279497475042E-04  0.296480870776E-04
  0.314508842750E-04  0.333646131489E-04  0.353961502845E-04  0.375527997493E-04  0.398423196899E-04
  0.422729504704E-04  0.448534446507E-04  0.475930987318E-04  0.505017869206E-04  0.535899969563E-04
  0.568688681067E-04  0.603502315992E-04  0.640466534300E-04  0.679714798974E-04  0.721388858913E-04
  0.765639261441E-04  0.812625896736E-04  0.862518575166E-04  0.915497640262E-04  0.971754619331E-04
  0.103149291369E-03  0.109492853170E-03  0.116229086497E-03  0.123382351476E-03  0.130978516582E-03
  0.139045051565E-03  0.147611125953E-03  0.156707713487E-03  0.166367703021E-03  0.176626016105E-03
  0.187519731675E-03  0.199088218267E-03  0.211373274356E-03  0.224419277002E-03  0.238273339632E-03
  0.252985479187E-03  0.268608793409E-03  0.285199648761E-03  0.302817879615E-03  0.321526999380E-03
  0.341394424216E-03  0.362491710199E-03  0.384894804514E-03  0.408684311659E-03  0.433945775445E-03
  0.460769977706E-03  0.489253254673E-03  0.519497832062E-03  0.551612179856E-03  0.585711387966E-03
  0.621917563948E-03  0.660360253938E-03  0.701176888225E-03  0.744513252695E-03  0.790523987729E-03
  0.839373115921E-03  0.891234600334E-03  0.946292934868E-03  0.100474376852E-02  0.106679456539E-02
  0.113266530233E-02  0.120258920621E-02  0.127681353303E-02  0.135560039092E-02  0.143922760947E-02
  0.152798965770E-02  0.162219861334E-02  0.172218518571E-02  0.182829979541E-02  0.194091371327E-02
  0.206042026166E-02  0.218723608141E-02  0.232180246721E-02  0.246458677512E-02  0.261608390551E-02
  0.277681786497E-02  0.294734341097E-02  0.312824778296E-02  0.332015252408E-02  0.352371539721E-02
  0.373963239976E-02  0.396863988145E-02  0.421151676937E-02  0.446908690483E-02  0.474222149663E-02
  0.503184169533E-02  0.533892129325E-02  0.566448955497E-02  0.600963418320E-02  0.637550442474E-02
  0.676331432146E-02  0.717434611104E-02  0.760995378246E-02  0.807156679048E-02  0.856069393424E-02
  0.907892740405E-02  0.962794700086E-02  0.102095245322E-01  0.108255283887E-01  0.114779283043E-01
  0.121688003037E-01  0.129003318384E-01  0.136748271161E-01  0.144947126209E-01  0.153625428293E-01
  0.162810061191E-01  0.172529308721E-01  0.182812917671E-01  0.193692162627E-01  0.205199912631E-01
  0.217370699637E-01  0.230240788682E-01  0.243848249691E-01  0.258233030819E-01  0.273437033191E-01
  0.289504186912E-01  0.306480528172E-01  0.324414277249E-01  0.343355917198E-01  0.363358272967E-01
  0.384476590669E-01  0.406768616675E-01  0.430294676191E-01  0.455117750924E-01  0.481303555385E-01
  0.508920611360E-01  0.538040320032E-01  0.568737031138E-01  0.601088108560E-01  0.635173991644E-01
  0.671078251495E-01  0.708887641427E-01  0.748692140698E-01  0.790584990574E-01  0.834662721690E-01
  0.881025171610E-01  0.929775491429E-01  0.981020140134E-01  0.103486886538E+00  0.109143466931E+00
  0.115083375780E+00  0.121318547169E+00  0.127861219812E+00  0.134723926039E+00  0.141919478435E+00
  0.149460953941E+00  0.157361675219E+00  0.165635189062E+00  0.174295241639E+00  0.183355750345E+00
  0.192830772025E+00  0.202734467344E+00  0.213081061052E+00  0.223884797920E+00  0.235159894083E+00
  0.246920483574E+00  0.259180559802E+00  0.271953911741E+00  0.285254054623E+00  0.299094154928E+00
  0.313486949475E+00  0.328444658451E+00  0.343978892248E+00  0.360100551978E+00  0.376819723600E+00
  0.394145565622E+00  0.412086190372E+00  0.430648538896E+00  0.449838249572E+00  0.469659520595E+00
  0.490114966509E+00  0.511205469030E+00  0.532930022426E+00  0.555285573750E+00  0.578266858238E+00
  0.601866230181E+00  0.626073489579E+00  0.650875704849E+00  0.676257031855E+00  0.702198529499E+00
  0.728677972163E+00  0.755669659376E+00  0.783144223321E+00  0.811068435218E+00  0.839405012297E+00
  0.868112428203E+00  0.897144731361E+00  0.926451378146E+00  0.955977091313E+00  0.985661758744E+00
  0.101544039383E+01  0.104524318597E+01  0.107499567619E+01  0.110461909401E+01  0.113403087830E+01
  0.116314536214E+01  0.119187451539E+01  0.122012850798E+01  0.124781572618E+01  0.127484184286E+01
  0.130110773747E+01  0.132650651292E+01  0.135092040451E+01  0.137421869061E+01  0.139625749315E+01
  0.141688159588E+01  0.143592751949E+01  0.145322669541E+01  0.146860788480E+01  0.148189862901E+01
  0.149292598354E+01  0.150151692213E+01  0.150749869569E+01  0.151069930143E+01  0.151094810413E+01
  0.150807659253E+01  0.150191923627E+01  0.149231439502E+01  0.147910524796E+01  0.146214071301E+01
  0.144127634372E+01  0.141637519574E+01  0.138730866226E+01  0.135395728860E+01  0.131621156959E+01
  0.127397274667E+01  0.122715361430E+01  0.117567935591E+01  0.111948842088E+01  0.105853346360E+01
  0.992782364505E+00  0.922219349511E+00  0.846846231605E+00  0.766683792470E+00  0.681773325778E+00
  0.592178359167E+00  0.497986573192E+00  0.399311932267E+00  0.296297038202E+00  0.189115717116E+00
  0.000000000000E+00  0.000000000000E+00  0.000000000000E+00  0.000000000000E+00  0.000000000000E+00
  0.000000000000E+00  0.000000000000E+00  0.000000000000E+00  0.000000000000E+00  0.000000000000E+00
  0.000000000000E+00  0.000000000000E+00  0.000000000000E+00  0.000000000000E+00  0.000000000000E+00
  0.000000000000E+00  0.000000000000E+00  0.000000000000E+00  0.000000000000E+00  0.000000000000E+00
  0.000000000000E+00  0.000000000000E+00  0.000000000000E+00  0.000000000000E+00  0.000000000000E+00
  0.000000000000E+00  0.000000000000E+00  0.000000000000E+00  0.000000000000E+00  0.000000000000E+00
  0.000000000000E+00  0.000000000000E+00  0.000000000000E+00  0.000000000000E+00  0.000000000000E+00
  0.000000000000E+00  0.000000000000E+00  0.000000000000E+00  0.000000000000E+00  0.000000000000E+00
  0.000000000000E+00  0.000000000000E+00  0.000000000000E+00  0.000000000000E+00  0.000000000000E+00
  0.000000000000E+00  0.000000000000E+00  0.000000000000E+00  0.000000000000E+00  0.000000000000E+00
  0.000000000000E+00  0.000000000000E+00  0.000000000000E+00  0.000000000000E+00  0.000000000000E+00
  0.000000000000E+00  0.000000000000E+00  0.000000000000E+00  0.000000000000E+00
 End of Dataset
  PAW_PBE Sr_sv 07Sep2000                
   10.0000000000000     
 parameters from PSCTR are:
   SHA256 =  a8389d3481648516ee67182ee030b298d280b37e29cbbf2d8595f040d757c710 Sr_sv/POTCAR
   COPYR  = (c) Copyright 07Sep2000 Georg Kresse
   COPYR  = This file is part of the software VASP. Any use, copying, and all other rights are regulated by the VASP license agreement.
   COPYR  = If you do not have a valid VASP license, you may not use, copy or distribute this file.
   VRHFIN =Sr: 4s4p5s
   LEXCH  = PE
   EATOM  =   843.0319 eV,   61.9611 Ry

   TITEL  = PAW_PBE Sr_sv 07Sep2000
   LULTRA =        F    use ultrasoft PP ?
   IUNSCR =        1    unscreen: 0-lin 1-nonlin 2-no
   RPACOR =    2.200    partial core radius
   POMASS =   87.620; ZVAL   =   10.000    mass and valenz
   RCORE  =    2.500    outmost cutoff radius
   RWIGS  =    4.040; RWIGS  =    2.138    wigner-seitz radius (au A)
   ENMAX  =  229.353; ENMIN  =  172.014 eV
   RCLOC  =    2.201    cutoff for local pot
   LCOR   =        T    correct aug charges
   LPAW   =        T    paw PP
   EAUG   =  366.804
   DEXC   =    0.000
   RMAX   =    2.547    core radius for proj-oper
   RAUG   =    1.300    factor for augmentation sphere
   RDEP   =    2.562    radius for radial grids
   RDEPT  =    2.128    core radius for aug-charge
 
   Atomic configuration
   10 entries
     n  l   j            E        occ.
     1  0  0.50    -15934.8930   2.0000
     2  0  0.50     -2157.6250   2.0000
     2  1  1.50     -1917.0034   6.0000
     3  0  0.50      -333.7288   2.0000
     3  1  1.50      -256.0992   6.0000
     3  2  2.50      -127.9971  10.0000
     4  0  0.50       -40.8953   2.0000
     5  0  0.50        -3.5257   1.9990
     4  1  1.50       -22.8179   6.0000
     4  2  1.50        -1.2815   0.0010
   Description
     l       E           TYP  RCUT    TYP  RCUT
     0    -40.8953213     23  2.480
     0     -3.5257161     23  2.480
     1    -22.8178632     23  2.500
     1    -24.1784458     23  2.500
     2     -1.2814598     23  2.500
     2      0.2279365     23  2.500
   Error from kinetic energy argument (eV)
   NDATA  =      100
   STEP   =   20.000   1.050
  168.      163.      160.      153.      150.      144.      137.      134.
  127.      121.      117.      111.      104.      97.6      91.3      85.2
  79.2      73.5      68.0      60.1      55.1      50.5      43.9      39.9
  36.1      30.9      26.3      23.5      19.7      16.4      13.6      11.1
  9.07      7.31      5.85      4.63      3.35      2.59      1.82      1.38
 0.942     0.634     0.422     0.281     0.189     0.130     0.928E-01 0.654E-01
 0.523E-01 0.415E-01 0.338E-01 0.287E-01 0.232E-01 0.184E-01 0.137E-01 0.107E-01
 0.841E-02 0.651E-02 0.528E-02 0.447E-02 0.387E-02 0.335E-02 0.285E-02 0.230E-02
 0.187E-02 0.147E-02 0.118E-02 0.984E-03 0.839E-03 0.745E-03 0.643E-03 0.539E-03
 0.438E-03 0.353E-03 0.285E-03 0.247E-03 0.217E-03 0.192E-03 0.160E-03 0.132E-03
 0.106E-03 0.888E-04 0.786E-04 0.696E-04 0.591E-04 0.481E-04 0.395E-04 0.340E-04
 0.306E-04 0.267E-04 0.218E-04 0.181E-04 0.158E-04 0.143E-04 0.122E-04 0.100E-04
 0.856E-05 0.784E-05 0.678E-05 0.561E-05
END of PSCTR-controll parameters
 local part
   75.5890395431569     
  0.18747190E+03  0.18742583E+03  0.18728767E+03  0.18705767E+03  0.18673622E+03
  0.18632390E+03  0.18582140E+03  0.18522959E+03  0.18454945E+03  0.18378213E+03
  0.18292888E+03  0.18199109E+03  0.18097028E+03  0.17986809E+03  0.17868625E+03
  0.17742664E+03  0.17609124E+03  0.17468211E+03  0.17320146E+03  0.17165158E+03
  0.17003485E+03  0.16835375E+03  0.16661084E+03  0.16480875E+03  0.16295020E+03
  0.16103795E+03  0.15907483E+03  0.15706369E+03  0.15500747E+03  0.15290908E+03
  0.15077151E+03  0.14859774E+03  0.14639076E+03  0.14415359E+03  0.14188924E+03
  0.13960071E+03  0.13729098E+03  0.13496305E+03  0.13261985E+03  0.13026431E+03
  0.12789931E+03  0.12552769E+03  0.12315224E+03  0.12077569E+03  0.11840072E+03
  0.11602995E+03  0.11366591E+03  0.11131107E+03  0.10896783E+03  0.10663850E+03
  0.10432532E+03  0.10203041E+03  0.99755839E+02  0.97503565E+02  0.95275456E+02
  0.93073282E+02  0.90898715E+02  0.88753328E+02  0.86638591E+02  0.84555875E+02
  0.82506447E+02  0.80491473E+02  0.78512017E+02  0.76569042E+02  0.74663412E+02
  0.72795889E+02  0.70967140E+02  0.69177734E+02  0.67428145E+02  0.65718756E+02
  0.64049856E+02  0.62421649E+02  0.60834249E+02  0.59287690E+02  0.57781923E+02
  0.56316824E+02  0.54892192E+02  0.53507759E+02  0.52163186E+02  0.50858072E+02
  0.49591958E+02  0.48364326E+02  0.47174606E+02  0.46022179E+02  0.44906381E+02
  0.43826505E+02  0.42781807E+02  0.41771509E+02  0.40794800E+02  0.39850845E+02
  0.38938784E+02  0.38057737E+02  0.37206808E+02  0.36385090E+02  0.35591663E+02
  0.34825604E+02  0.34085984E+02  0.33371875E+02  0.32682352E+02  0.32016492E+02
  0.31373382E+02  0.30752119E+02  0.30151809E+02  0.29571575E+02  0.29010555E+02
  0.28467905E+02  0.27942801E+02  0.27434440E+02  0.26942041E+02  0.26464848E+02
  0.26002129E+02  0.25553177E+02  0.25117313E+02  0.24693883E+02  0.24282262E+02
  0.23881852E+02  0.23492083E+02  0.23112413E+02  0.22742327E+02  0.22381338E+02
  0.22028988E+02  0.21684846E+02  0.21348506E+02  0.21019589E+02  0.20697743E+02
  0.20382640E+02  0.20073975E+02  0.19771469E+02  0.19474861E+02  0.19183916E+02
  0.18898417E+02  0.18618165E+02  0.18342982E+02  0.18072706E+02  0.17807192E+02
  0.17546308E+02  0.17289938E+02  0.17037979E+02  0.16790340E+02  0.16546940E+02
  0.16307707E+02  0.16072581E+02  0.15841507E+02  0.15614436E+02  0.15391328E+02
  0.15172146E+02  0.14956856E+02  0.14745430E+02  0.14537839E+02  0.14334059E+02
  0.14134065E+02  0.13937835E+02  0.13745345E+02  0.13556570E+02  0.13371486E+02
  0.13190066E+02  0.13012282E+02  0.12838103E+02  0.12667496E+02  0.12500425E+02
  0.12336852E+02  0.12176735E+02  0.12020030E+02  0.11866688E+02  0.11716659E+02
  0.11569889E+02  0.11426321E+02  0.11285895E+02  0.11148549E+02  0.11014218E+02
  0.10882834E+02  0.10754327E+02  0.10628625E+02  0.10505654E+02  0.10385338E+02
  0.10267601E+02  0.10152365E+02  0.10039550E+02  0.99290779E+01  0.98208685E+01
  0.97148424E+01  0.96109206E+01  0.95090245E+01  0.94090763E+01  0.93109993E+01
  0.92147183E+01  0.91201593E+01  0.90272502E+01  0.89359207E+01  0.88461028E+01
  0.87577305E+01  0.86707405E+01  0.85850722E+01  0.85006674E+01  0.84174710E+01
  0.83354309E+01  0.82544978E+01  0.81746255E+01  0.80957709E+01  0.80178939E+01
  0.79409574E+01  0.78649273E+01  0.77897725E+01  0.77154646E+01  0.76419783E+01
  0.75692910E+01  0.74973827E+01  0.74262361E+01  0.73558363E+01  0.72861708E+01
  0.72172295E+01  0.71490040E+01  0.70814882E+01  0.70146775E+01  0.69485690E+01
  0.68831612E+01  0.68184539E+01  0.67544479E+01  0.66911450E+01  0.66285479E+01
  0.65666599E+01  0.65054847E+01  0.64450265E+01  0.63852898E+01  0.63262791E+01
  0.62679989E+01  0.62104534E+01  0.61536468E+01  0.60975826E+01  0.60422640E+01
  0.59876934E+01  0.59338726E+01  0.58808028E+01  0.58284840E+01  0.57769158E+01
  0.57260966E+01  0.56760240E+01  0.56266947E+01  0.55781044E+01  0.55302478E+01
  0.54831188E+01  0.54367102E+01  0.53910138E+01  0.53460207E+01  0.53017208E+01
  0.52581033E+01  0.52151565E+01  0.51728681E+01  0.51312248E+01  0.50902129E+01
  0.50498182E+01  0.50100256E+01  0.49708202E+01  0.49321861E+01  0.48941075E+01
  0.48565684E+01  0.48195523E+01  0.47830429E+01  0.47470238E+01  0.47114785E+01
  0.46763909E+01  0.46417446E+01  0.46075240E+01  0.45737134E+01  0.45402976E+01
  0.45072620E+01  0.44745922E+01  0.44422746E+01  0.44102960E+01  0.43786439E+01
  0.43473064E+01  0.43162722E+01  0.42855307E+01  0.42550719E+01  0.42248866E+01
  0.41949663E+01  0.41653031E+01  0.41358899E+01  0.41067204E+01  0.40777889E+01
  0.40490905E+01  0.40206208E+01  0.39923763E+01  0.39643540E+01  0.39365516E+01
  0.39089672E+01  0.38815996E+01  0.38544479E+01  0.38275119E+01  0.38007916E+01
  0.37742874E+01  0.37480001E+01  0.37219309E+01  0.36960812E+01  0.36704524E+01
  0.36450465E+01  0.36198653E+01  0.35949110E+01  0.35701856E+01  0.35456912E+01
  0.35214298E+01  0.34974035E+01  0.34736142E+01  0.34500635E+01  0.34267531E+01
  0.34036844E+01  0.33808584E+01  0.33582763E+01  0.33359386E+01  0.33138458E+01
  0.32919982E+01  0.32703956E+01  0.32490376E+01  0.32279235E+01  0.32070522E+01
  0.31864222E+01  0.31660319E+01  0.31458792E+01  0.31259617E+01  0.31062768E+01
  0.30868214E+01  0.30675923E+01  0.30485860E+01  0.30297988E+01  0.30112267E+01
  0.29928655E+01  0.29747110E+01  0.29567585E+01  0.29390034E+01  0.29214408E+01
  0.29040659E+01  0.28868736E+01  0.28698588E+01  0.28530164E+01  0.28363413E+01
  0.28198282E+01  0.28034723E+01  0.27872684E+01  0.27712117E+01  0.27552974E+01
  0.27395208E+01  0.27238775E+01  0.27083629E+01  0.26929730E+01  0.26777037E+01
  0.26625511E+01  0.26475116E+01  0.26325818E+01  0.26177586E+01  0.26030388E+01
  0.25884200E+01  0.25738995E+01  0.25594753E+01  0.25451453E+01  0.25309080E+01
  0.25167619E+01  0.25027057E+01  0.24887385E+01  0.24748595E+01  0.24610682E+01
  0.24473642E+01  0.24337473E+01  0.24202176E+01  0.24067751E+01  0.23934203E+01
  0.23801536E+01  0.23669757E+01  0.23538873E+01  0.23408892E+01  0.23279825E+01
  0.23151680E+01  0.23024468E+01  0.22898201E+01  0.22772887E+01  0.22648538E+01
  0.22525165E+01  0.22402776E+01  0.22281382E+01  0.22160992E+01  0.22041614E+01
  0.21923255E+01  0.21805923E+01  0.21689624E+01  0.21574361E+01  0.21460139E+01
  0.21346960E+01  0.21234824E+01  0.21123732E+01  0.21013681E+01  0.20904667E+01
  0.20796684E+01  0.20689728E+01  0.20583789E+01  0.20478859E+01  0.20374927E+01
  0.20271980E+01  0.20170007E+01  0.20068993E+01  0.19968921E+01  0.19869777E+01
  0.19771542E+01  0.19674198E+01  0.19577726E+01  0.19482104E+01  0.19387313E+01
  0.19293330E+01  0.19200135E+01  0.19107705E+01  0.19016018E+01  0.18925053E+01
  0.18834787E+01  0.18745200E+01  0.18656268E+01  0.18567973E+01  0.18480292E+01
  0.18393207E+01  0.18306698E+01  0.18220745E+01  0.18135332E+01  0.18050442E+01
  0.17966057E+01  0.17882165E+01  0.17798750E+01  0.17715800E+01  0.17633304E+01
  0.17551253E+01  0.17469637E+01  0.17388448E+01  0.17307681E+01  0.17227330E+01
  0.17147392E+01  0.17067862E+01  0.16988739E+01  0.16910022E+01  0.16831712E+01
  0.16753809E+01  0.16676316E+01  0.16599236E+01  0.16522573E+01  0.16446331E+01
  0.16370516E+01  0.16295135E+01  0.16220192E+01  0.16145696E+01  0.16071652E+01
  0.15998069E+01  0.15924952E+01  0.15852310E+01  0.15780149E+01  0.15708475E+01
  0.15637297E+01  0.15566620E+01  0.15496451E+01  0.15426794E+01  0.15357656E+01
  0.15289042E+01  0.15220954E+01  0.15153396E+01  0.15086371E+01  0.15019880E+01
  0.14953925E+01  0.14888504E+01  0.14823616E+01  0.14759261E+01  0.14695435E+01
  0.14632134E+01  0.14569355E+01  0.14507092E+01  0.14445340E+01  0.14384091E+01
  0.14323339E+01  0.14263075E+01  0.14203291E+01  0.14143977E+01  0.14085123E+01
  0.14026717E+01  0.13968750E+01  0.13911209E+01  0.13854084E+01  0.13797361E+01
  0.13741029E+01  0.13685076E+01  0.13629490E+01  0.13574258E+01  0.13519370E+01
  0.13464814E+01  0.13410577E+01  0.13356649E+01  0.13303018E+01  0.13249676E+01
  0.13196610E+01  0.13143813E+01  0.13091274E+01  0.13038987E+01  0.12986943E+01
  0.12935136E+01  0.12883560E+01  0.12832209E+01  0.12781080E+01  0.12730168E+01
  0.12679471E+01  0.12628987E+01  0.12578713E+01  0.12528649E+01  0.12478795E+01
  0.12429150E+01  0.12379717E+01  0.12330497E+01  0.12281492E+01  0.12232706E+01
  0.12184141E+01  0.12135802E+01  0.12087694E+01  0.12039820E+01  0.11992186E+01
  0.11944797E+01  0.11897658E+01  0.11850774E+01  0.11804150E+01  0.11757792E+01
  0.11711705E+01  0.11665894E+01  0.11620363E+01  0.11575117E+01  0.11530161E+01
  0.11485499E+01  0.11441134E+01  0.11397071E+01  0.11353311E+01  0.11309857E+01
  0.11266710E+01  0.11223873E+01  0.11181344E+01  0.11139125E+01  0.11097215E+01
  0.11055613E+01  0.11014316E+01  0.10973322E+01  0.10932630E+01  0.10892235E+01
  0.10852134E+01  0.10812323E+01  0.10772797E+01  0.10733550E+01  0.10694576E+01
  0.10655871E+01  0.10617426E+01  0.10579236E+01  0.10541293E+01  0.10503590E+01
  0.10466120E+01  0.10428874E+01  0.10391847E+01  0.10355029E+01  0.10318415E+01
  0.10281996E+01  0.10245766E+01  0.10209717E+01  0.10173843E+01  0.10138137E+01
  0.10102593E+01  0.10067204E+01  0.10031966E+01  0.99968715E+00  0.99619173E+00
  0.99270986E+00  0.98924117E+00  0.98578532E+00  0.98234203E+00  0.97891109E+00
  0.97549230E+00  0.97208553E+00  0.96869071E+00  0.96530778E+00  0.96193675E+00
  0.95857765E+00  0.95523059E+00  0.95189568E+00  0.94857310E+00  0.94526305E+00
  0.94196580E+00  0.93868161E+00  0.93541080E+00  0.93215371E+00  0.92891068E+00
  0.92568208E+00  0.92246828E+00  0.91926966E+00  0.91608658E+00  0.91291942E+00
  0.90976854E+00  0.90663429E+00  0.90351702E+00  0.90041706E+00  0.89733472E+00
  0.89427030E+00  0.89122408E+00  0.88819629E+00  0.88518717E+00  0.88219689E+00
  0.87922559E+00  0.87627338E+00  0.87334032E+00  0.87042644E+00  0.86753171E+00
  0.86465607E+00  0.86179944E+00  0.85896168E+00  0.85614263E+00  0.85334209E+00
  0.85055982E+00  0.84779558E+00  0.84504907E+00  0.84231996E+00  0.83960790E+00
  0.83691250E+00  0.83423337E+00  0.83157006E+00  0.82892213E+00  0.82628911E+00
  0.82367054E+00  0.82106593E+00  0.81847482E+00  0.81589672E+00  0.81333118E+00
  0.81077774E+00  0.80823593E+00  0.80570534E+00  0.80318553E+00  0.80067609E+00
  0.79817663E+00  0.79568678E+00  0.79320617E+00  0.79073448E+00  0.78827142E+00
  0.78581671E+00  0.78337012E+00  0.78093146E+00  0.77850055E+00  0.77607727E+00
  0.77366153E+00  0.77125326E+00  0.76885242E+00  0.76645902E+00  0.76407308E+00
  0.76169463E+00  0.75932377E+00  0.75696057E+00  0.75460518E+00  0.75225773E+00
  0.74991839E+00  0.74758736E+00  0.74526485E+00  0.74295108E+00  0.74064630E+00
  0.73835076E+00  0.73606470E+00  0.73378838E+00  0.73152205E+00  0.72926596E+00
  0.72702035E+00  0.72478544E+00  0.72256145E+00  0.72034861E+00  0.71814709E+00
  0.71595710E+00  0.71377881E+00  0.71161237E+00  0.70945793E+00  0.70731559E+00
  0.70518545E+00  0.70306759E+00  0.70096204E+00  0.69886881E+00  0.69678790E+00
  0.69471925E+00  0.69266280E+00  0.69061846E+00  0.68858612E+00  0.68656565E+00
  0.68455689E+00  0.68255968E+00  0.68057383E+00  0.67859914E+00  0.67663538E+00
  0.67468232E+00  0.67273971E+00  0.67080727E+00  0.66888473E+00  0.66697179E+00
  0.66506816E+00  0.66317353E+00  0.66128762E+00  0.65941013E+00  0.65754076E+00
  0.65567923E+00  0.65382528E+00  0.65197863E+00  0.65013903E+00  0.64830624E+00
  0.64648002E+00  0.64466015E+00  0.64284643E+00  0.64103865E+00  0.63923664E+00
  0.63744024E+00  0.63564931E+00  0.63386372E+00  0.63208340E+00  0.63030825E+00
  0.62853824E+00  0.62677333E+00  0.62501352E+00  0.62325881E+00  0.62150923E+00
  0.61976482E+00  0.61802562E+00  0.61629171E+00  0.61456316E+00  0.61284006E+00
  0.61112253E+00  0.60941066E+00  0.60770460E+00  0.60600448E+00  0.60431045E+00
  0.60262266E+00  0.60094127E+00  0.59926643E+00  0.59759830E+00  0.59593703E+00
  0.59428276E+00  0.59263563E+00  0.59099577E+00  0.58936330E+00  0.58773833E+00
  0.58612098E+00  0.58451133E+00  0.58290947E+00  0.58131549E+00  0.57972945E+00
  0.57815141E+00  0.57658140E+00  0.57501944E+00  0.57346556E+00  0.57191973E+00
  0.57038194E+00  0.56885213E+00  0.56733024E+00  0.56581622E+00  0.56430996E+00
  0.56281138E+00  0.56132038E+00  0.55983683E+00  0.55836062E+00  0.55689163E+00
  0.55542970E+00  0.55397470E+00  0.55252647E+00  0.55108486E+00  0.54964968E+00
  0.54822077E+00  0.54679795E+00  0.54538104E+00  0.54396986E+00  0.54256425E+00
  0.54116404E+00  0.53976906E+00  0.53837916E+00  0.53699419E+00  0.53561402E+00
  0.53423850E+00  0.53286753E+00  0.53150096E+00  0.53013869E+00  0.52878062E+00
  0.52742665E+00  0.52607668E+00  0.52473065E+00  0.52338849E+00  0.52205015E+00
  0.52071560E+00  0.51938481E+00  0.51805778E+00  0.51673451E+00  0.51541500E+00
  0.51409928E+00  0.51278737E+00  0.51147930E+00  0.51017512E+00  0.50887486E+00
  0.50757858E+00  0.50628633E+00  0.50499818E+00  0.50371419E+00  0.50243443E+00
  0.50115900E+00  0.49988796E+00  0.49862141E+00  0.49735944E+00  0.49610212E+00
  0.49484954E+00  0.49360177E+00  0.49235889E+00  0.49112095E+00  0.48988803E+00
  0.48866018E+00  0.48743744E+00  0.48621987E+00  0.48500750E+00  0.48380039E+00
  0.48259855E+00  0.48140203E+00  0.48021084E+00  0.47902499E+00  0.47784448E+00
  0.47666932E+00  0.47549947E+00  0.47433492E+00  0.47317563E+00  0.47202157E+00
  0.47087266E+00  0.46972888E+00  0.46859015E+00  0.46745642E+00  0.46632762E+00
  0.46520369E+00  0.46408454E+00  0.46297011E+00  0.46186030E+00  0.46075504E+00
  0.45965424E+00  0.45855779E+00  0.45746560E+00  0.45637757E+00  0.45529360E+00
  0.45421360E+00  0.45313747E+00  0.45206511E+00  0.45099646E+00  0.44993141E+00
  0.44886990E+00  0.44781184E+00  0.44675717E+00  0.44570581E+00  0.44465770E+00
  0.44361278E+00  0.44257097E+00  0.44153222E+00  0.44049649E+00  0.43946371E+00
  0.43843386E+00  0.43740691E+00  0.43638283E+00  0.43536160E+00  0.43434322E+00
  0.43332768E+00  0.43231498E+00  0.43130513E+00  0.43029813E+00  0.42929398E+00
  0.42829271E+00  0.42729433E+00  0.42629885E+00  0.42530630E+00  0.42431670E+00
  0.42333009E+00  0.42234649E+00  0.42136596E+00  0.42038852E+00  0.41941424E+00
  0.41844314E+00  0.41747527E+00  0.41651067E+00  0.41554939E+00  0.41459145E+00
  0.41363689E+00  0.41268575E+00  0.41173805E+00  0.41079381E+00  0.40985308E+00
  0.40891588E+00  0.40798224E+00  0.40705217E+00  0.40612571E+00  0.40520288E+00
  0.40428368E+00  0.40336813E+00  0.40245623E+00  0.40154798E+00  0.40064337E+00
  0.39974238E+00  0.39884500E+00  0.39795121E+00  0.39706099E+00  0.39617431E+00
  0.39529115E+00  0.39441149E+00  0.39353528E+00  0.39266250E+00  0.39179311E+00
  0.39092707E+00  0.39006433E+00  0.38920485E+00  0.38834856E+00  0.38749541E+00
  0.38664534E+00  0.38579829E+00  0.38495421E+00  0.38411304E+00  0.38327472E+00
  0.38243920E+00  0.38160642E+00  0.38077633E+00  0.37994888E+00  0.37912402E+00
  0.37830169E+00  0.37748185E+00  0.37666443E+00  0.37584939E+00  0.37503668E+00
  0.37422625E+00  0.37341806E+00  0.37261207E+00  0.37180826E+00  0.37100658E+00
  0.37020702E+00  0.36940956E+00  0.36861418E+00  0.36782088E+00  0.36702963E+00
  0.36624042E+00  0.36545326E+00  0.36466813E+00  0.36388503E+00  0.36310397E+00
  0.36232494E+00  0.36154796E+00  0.36077305E+00  0.36000022E+00  0.35922950E+00
  0.35846091E+00  0.35769448E+00  0.35693024E+00  0.35616822E+00  0.35540846E+00
  0.35465097E+00  0.35389579E+00  0.35314294E+00  0.35239247E+00  0.35164438E+00
  0.35089873E+00  0.35015552E+00  0.34941481E+00  0.34867662E+00  0.34794098E+00
  0.34720792E+00  0.34647747E+00  0.34574966E+00  0.34502450E+00  0.34430200E+00
  0.34358219E+00  0.34286506E+00  0.34215062E+00  0.34143887E+00  0.34072981E+00
  0.34002343E+00  0.33931974E+00  0.33861871E+00  0.33792034E+00  0.33722462E+00
  0.33653154E+00  0.33584105E+00  0.33515315E+00  0.33446780E+00  0.33378497E+00
  0.33310460E+00  0.33242667E+00  0.33175112E+00  0.33107791E+00  0.33040699E+00
  0.32973832E+00  0.32907185E+00  0.32840753E+00  0.32774531E+00  0.32708515E+00
  0.32642700E+00  0.32577081E+00  0.32511653E+00  0.32446410E+00  0.32381348E+00
  0.32316461E+00  0.32251745E+00  0.32187194E+00  0.32122806E+00  0.32058575E+00
  0.31994499E+00  0.31930575E+00  0.31866800E+00  0.31803171E+00  0.31739688E+00
 gradient corrections used for XC
           5
 core charge-density (partial)
  0.56442351E-01  0.56421077E-01  0.56357299E-01  0.56251146E-01  0.56102835E-01
  0.55912667E-01  0.55681029E-01  0.55408391E-01  0.55095303E-01  0.54742399E-01
  0.54350388E-01  0.53920056E-01  0.53452263E-01  0.52947939E-01  0.52408083E-01
  0.51833759E-01  0.51226093E-01  0.50586268E-01  0.49915524E-01  0.49215149E-01
  0.48486482E-01  0.47730903E-01  0.46949831E-01  0.46144722E-01  0.45317063E-01
  0.44468365E-01  0.43600164E-01  0.42714014E-01  0.41811483E-01  0.40894146E-01
  0.39963588E-01  0.39021390E-01  0.38069135E-01  0.37108396E-01  0.36140735E-01
  0.35167700E-01  0.34190820E-01  0.33211601E-01  0.32231525E-01  0.31252043E-01
  0.30274574E-01  0.29300501E-01  0.28331170E-01  0.27367884E-01  0.26411905E-01
  0.25464445E-01  0.24526673E-01  0.23599703E-01  0.22684600E-01  0.21782376E-01
  0.20893987E-01  0.20020333E-01  0.19162259E-01  0.18320552E-01  0.17495939E-01
  0.16689091E-01  0.15900620E-01  0.15131080E-01  0.14380966E-01  0.13650715E-01
  0.12940708E-01  0.12251270E-01  0.11582668E-01  0.10935117E-01  0.10308777E-01
  0.97037575E-02  0.91201171E-02  0.85578648E-02  0.80169629E-02  0.74973281E-02
  0.69988334E-02  0.65213099E-02  0.60645494E-02  0.56283055E-02  0.52122968E-02
  0.48162079E-02  0.44396926E-02  0.40823754E-02  0.37438540E-02  0.34237016E-02
  0.31214689E-02  0.28366864E-02  0.25688664E-02  0.23175057E-02  0.20820870E-02
  0.18620815E-02  0.16569507E-02  0.14661485E-02  0.12891231E-02  0.11253188E-02
  0.97417775E-03  0.83514194E-03  0.70765457E-03  0.59116180E-03  0.48511414E-03
  0.38896797E-03  0.30218676E-03  0.22424243E-03  0.15461640E-03  0.92800743E-04
  0.38299143E-04 -0.93722166E-05 -0.50683832E-04 -0.86092155E-04 -0.11603895E-03
 -0.14095075E-03 -0.16123837E-03 -0.17729650E-03 -0.18950343E-03 -0.19822075E-03
 -0.20379323E-03 -0.20654872E-03 -0.20679805E-03 -0.20483516E-03 -0.20093710E-03
 -0.19536427E-03 -0.18836052E-03 -0.18015348E-03 -0.17095485E-03 -0.16096069E-03
 -0.15035186E-03 -0.13929441E-03 -0.12794004E-03 -0.11642655E-03 -0.10487840E-03
 -0.93407163E-04 -0.82112137E-04 -0.71080856E-04 -0.60389683E-04 -0.50104382E-04
 -0.40280708E-04 -0.30964995E-04 -0.22194739E-04 -0.13999197E-04 -0.63999563E-05
  0.58847855E-06  0.69581258E-05  0.12706968E-04  0.17838408E-04  0.22360744E-04
  0.26286649E-04  0.29632685E-04  0.32418816E-04  0.34667958E-04  0.36405536E-04
  0.37659071E-04  0.38457785E-04  0.38832227E-04  0.38813925E-04  0.38435059E-04
  0.37728158E-04  0.36725816E-04  0.35460437E-04  0.33963997E-04  0.32267832E-04
  0.30402447E-04  0.28397341E-04  0.26280863E-04  0.24080079E-04  0.21820665E-04
  0.19526809E-04  0.17221143E-04  0.14924685E-04  0.12656793E-04  0.10435148E-04
  0.82757330E-05  0.61928402E-05  0.41990826E-05  0.23054192E-05  0.52119006E-06
 -0.11458395E-05 -0.26894259E-05 -0.41047873E-05 -0.53885371E-05 -0.65386117E-05
 -0.75541941E-05 -0.84356326E-05 -0.91843580E-05 -0.98027973E-05 -0.10294286E-04
 -0.10662983E-04 -0.10913775E-04 -0.11052200E-04 -0.11084349E-04 -0.11016790E-04
 -0.10856481E-04 -0.10610689E-04 -0.10286915E-04 -0.98928204E-05 -0.94361520E-05
 -0.89246806E-05 -0.83661359E-05 -0.77681489E-05 -0.71381978E-05 -0.64835594E-05
 -0.58112638E-05 -0.51280549E-05 -0.44403547E-05 -0.37542328E-05 -0.30753800E-05
 -0.24090866E-05 -0.17602248E-05 -0.11332358E-05 -0.53212055E-06  0.39565931E-07
  0.57871574E-06  0.10826664E-05  0.15491958E-05  0.19765140E-05  0.23632521E-05
  0.27084493E-05  0.30115363E-05  0.32723182E-05  0.34909542E-05  0.36679368E-05
  0.38040689E-05  0.39004403E-05  0.39584031E-05  0.39795467E-05  0.39656720E-05
  0.39187658E-05  0.38409750E-05  0.37345810E-05  0.36019747E-05  0.34456316E-05
  0.32680877E-05  0.30719169E-05  0.28597082E-05  0.26340448E-05  0.23974840E-05
  0.21525388E-05  0.19016601E-05  0.16472209E-05  0.13915014E-05  0.11366764E-05
  0.88480294E-06  0.63781079E-06  0.39749335E-06  0.16550061E-06 -0.56666600E-07
 -0.26766094E-06 -0.46629146E-06 -0.65152518E-06 -0.82248739E-06 -0.97846072E-06
 -0.11188831E-05 -0.12433444E-05 -0.13515826E-05 -0.14434783E-05 -0.15190491E-05
 -0.15784427E-05 -0.16219294E-05 -0.16498946E-05 -0.16628297E-05 -0.16613239E-05
 -0.16460543E-05 -0.16177771E-05 -0.15773176E-05 -0.15255605E-05 -0.14634406E-05
 -0.13919326E-05 -0.13120422E-05 -0.12247964E-05 -0.11312346E-05 -0.10324000E-05
 -0.92933109E-06 -0.82305394E-06 -0.71457448E-06 -0.60487170E-06 -0.49489110E-06
 -0.38553883E-06 -0.27767629E-06 -0.17211539E-06 -0.69614330E-07  0.29125928E-07
  0.12346471E-06  0.21282398E-06  0.29669021E-06  0.37461556E-06  0.44621860E-06
  0.51118443E-06  0.56926432E-06  0.62027488E-06  0.66409665E-06  0.70067242E-06
  0.73000501E-06  0.75215476E-06  0.76723666E-06  0.77541716E-06  0.77691078E-06
  0.77197638E-06  0.76091340E-06  0.74405778E-06  0.72177789E-06  0.69447032E-06
  0.66255563E-06  0.62647410E-06  0.58668150E-06  0.54364492E-06  0.49783862E-06
  0.44974011E-06  0.39982623E-06  0.34856949E-06  0.29643453E-06  0.24387483E-06
  0.19132958E-06  0.13922080E-06  0.87950755E-07  0.37899555E-07 -0.10576954E-07
 -0.57149027E-07 -0.10151459E-06 -0.14340054E-06 -0.18256375E-06 -0.21879188E-06
 -0.25190377E-06 -0.28174979E-06 -0.30821172E-06 -0.33120253E-06 -0.35066592E-06
 -0.36657555E-06 -0.37893417E-06 -0.38777251E-06 -0.39314802E-06 -0.39514340E-06
 -0.39386505E-06 -0.38944139E-06 -0.38202099E-06 -0.37177077E-06 -0.35887396E-06
 -0.34352809E-06 -0.32594297E-06 -0.30633858E-06 -0.28494301E-06 -0.26199037E-06
 -0.23771878E-06 -0.21236834E-06 -0.18617922E-06 -0.15938977E-06 -0.13223472E-06
 -0.10494350E-06 -0.77738619E-07 -0.50834178E-07 -0.24434506E-07  0.12671042E-08
  0.26089513E-07  0.49864727E-07  0.72438755E-07  0.93672325E-07  0.11344147E-06
  0.13163795E-06  0.14816960E-06  0.16296046E-06  0.17595084E-06  0.18709723E-06
  0.19637211E-06  0.20376358E-06  0.20927500E-06  0.21292439E-06  0.21474385E-06
  0.21477880E-06  0.21308723E-06  0.20973880E-06  0.20481393E-06  0.19840281E-06
  0.19060441E-06  0.18152536E-06  0.17127896E-06  0.15998398E-06  0.14776365E-06
  0.13474451E-06  0.12105533E-06  0.10682602E-06  0.92186608E-07  0.77266230E-07
  0.62192122E-07  0.47088714E-07  0.32076748E-07  0.17272452E-07  0.27867808E-08
 -0.11275282E-07 -0.24815352E-07 -0.37742202E-07 -0.49972251E-07 -0.61429971E-07
 -0.72048231E-07 -0.81768553E-07 -0.90541302E-07 -0.98325800E-07 -0.10509037E-06
 -0.11081229E-06 -0.11547773E-06 -0.11908155E-06 -0.12162710E-06 -0.12312594E-06
 -0.12359747E-06 -0.12306858E-06 -0.12157321E-06 -0.11915185E-06 -0.11585104E-06
 -0.11172285E-06 -0.10682428E-06 -0.10121670E-06 -0.94965208E-07 -0.88138051E-07
 -0.80805978E-07 -0.73041624E-07 -0.64918892E-07 -0.56512341E-07 -0.47896587E-07
 -0.39145722E-07 -0.30332755E-07 -0.21529075E-07 -0.12803945E-07 -0.42240228E-08
  0.41470781E-08  0.12249197E-07  0.20025995E-07  0.27425280E-07  0.34399299E-07
  0.40904977E-07  0.46904121E-07  0.52363581E-07  0.57255361E-07  0.61556692E-07
  0.65250063E-07  0.68323210E-07  0.70769063E-07  0.72585656E-07  0.73776001E-07
  0.74347926E-07  0.74313881E-07  0.73690713E-07  0.72499415E-07  0.70764848E-07
  0.68515442E-07  0.65782880E-07  0.62601759E-07  0.59009245E-07  0.55044715E-07
  0.50749389E-07  0.46165964E-07  0.41338238E-07  0.36310746E-07  0.31128390E-07
  0.25836083E-07  0.20478401E-07  0.15099243E-07  0.97415141E-08  0.44468129E-08
 -0.74485259E-09 -0.57953343E-08 -0.10668591E-07 -0.15330911E-07 -0.19751116E-07
 -0.23900731E-07 -0.27754138E-07 -0.31288700E-07 -0.34484858E-07 -0.37326202E-07
 -0.39799517E-07 -0.41894803E-07 -0.43605270E-07 -0.44927307E-07 -0.45860427E-07
 -0.46407193E-07 -0.46573119E-07 -0.46366552E-07 -0.45798533E-07 -0.44882645E-07
 -0.43634844E-07 -0.42073271E-07 -0.40218062E-07 -0.38091135E-07 -0.35715981E-07
 -0.33117438E-07 -0.30321467E-07 -0.27354922E-07 -0.24245320E-07 -0.21020611E-07
 -0.17708949E-07 -0.14338471E-07 -0.10937079E-07 -0.75322266E-08 -0.41507225E-08
 -0.81853376E-09  0.24393923E-08  0.55992969E-08  0.86387652E-08  0.11536867E-07
  0.14274282E-07  0.16833412E-07  0.19198473E-07  0.21355578E-07  0.23292793E-07
  0.25000187E-07  0.26469858E-07  0.27695946E-07  0.28674631E-07  0.29404113E-07
  0.29884575E-07  0.30118139E-07  0.30108801E-07  0.29862353E-07  0.29386302E-07
  0.28689764E-07  0.27783361E-07  0.26679100E-07  0.25390250E-07  0.23931205E-07
  0.22317353E-07  0.20564928E-07  0.18690864E-07  0.16712655E-07  0.14648197E-07
  0.12515645E-07  0.10333267E-07  0.81192984E-08  0.58918006E-08  0.36685269E-08
  0.14667911E-08 -0.69665610E-09 -0.28057443E-08 -0.48451923E-08 -0.68006081E-08
 -0.86585806E-08 -0.10406761E-07 -0.12033934E-07 -0.13530081E-07 -0.14886426E-07
 -0.16095482E-07 -0.17151074E-07 -0.18048362E-07 -0.18783844E-07 -0.19355359E-07
 -0.19762068E-07 -0.20004435E-07 -0.20084192E-07 -0.20004299E-07 -0.19768894E-07
 -0.19383232E-07 -0.18853624E-07 -0.18187361E-07 -0.17392641E-07 -0.16478477E-07
 -0.15454620E-07 -0.14331458E-07 -0.13119928E-07 -0.11831416E-07 -0.10477660E-07
 -0.90706527E-08 -0.76225405E-08 -0.61455284E-08 -0.46517832E-08 -0.31533406E-08
 -0.16620144E-08 -0.18930997E-09  0.12536579E-08  0.26562433E-08  0.40083409E-08
  0.53004532E-08  0.65237511E-08  0.76701274E-08  0.87322451E-08  0.97035774E-08
  0.10578441E-07  0.11352023E-07  0.12020398E-07  0.12580543E-07  0.13030339E-07
  0.13368569E-07  0.13594910E-07  0.13709914E-07  0.13714990E-07  0.13612370E-07
  0.13405079E-07  0.13096892E-07  0.12692292E-07  0.12196418E-07  0.11615013E-07
  0.10954367E-07  0.10221259E-07  0.94228894E-08  0.85668214E-08  0.76609113E-08
  0.67132432E-08  0.57320614E-08  0.47257034E-08  0.37025336E-08  0.26708777E-08
  0.16389594E-08  0.61483863E-09 -0.39364746E-09 -0.13789407E-08 -0.23338149E-08
 -0.32514246E-08 -0.41253513E-08 -0.49496436E-08 -0.57188547E-08 -0.64280741E-08
 -0.70729551E-08 -0.76497368E-08 -0.81552624E-08 -0.85869907E-08 -0.89430044E-08
 -0.92220122E-08 -0.94233465E-08 -0.95469561E-08 -0.95933951E-08 -0.95638061E-08
 -0.94599001E-08 -0.92839320E-08 -0.90386729E-08 -0.87273783E-08 -0.83537532E-08
 -0.79219154E-08 -0.74363552E-08 -0.69018933E-08 -0.63236376E-08 -0.57069375E-08
 -0.50573386E-08 -0.43805354E-08 -0.36823245E-08 -0.29685582E-08 -0.22450976E-08
 -0.15177675E-08 -0.79231169E-09 -0.74350382E-10  0.63066115E-09  0.13174715E-08
  0.19810702E-08  0.26167212E-08  0.32199954E-08  0.37867980E-08  0.43133947E-08
  0.47964335E-08  0.52329633E-08  0.56204495E-08  0.59567858E-08  0.62403020E-08
  0.64697695E-08  0.66444020E-08  0.67638537E-08  0.68282136E-08  0.68379968E-08
  0.67941326E-08  0.66979497E-08  0.65511585E-08  0.63558309E-08  0.61143774E-08
  0.58295227E-08  0.55042782E-08  0.51419140E-08  0.47459286E-08  0.43200178E-08
  0.38680423E-08  0.33939951E-08  0.29019680E-08  0.23961184E-08  0.18806355E-08
  0.13597079E-08  0.83749074E-09  0.31807437E-09 -0.19454614E-09 -0.69650019E-09
 -0.11840694E-08 -0.16537134E-08 -0.21020946E-08 -0.25260998E-08 -0.29228603E-08
 -0.32897701E-08 -0.36245012E-08 -0.39250166E-08 -0.41895808E-08 -0.44167681E-08
 -0.46054680E-08 -0.47548884E-08 -0.48645558E-08 -0.49343135E-08 -0.49643174E-08
 -0.49550292E-08 -0.49072070E-08 -0.48218951E-08 -0.47004103E-08 -0.45443272E-08
 -0.43554612E-08 -0.41358508E-08 -0.38877375E-08 -0.36135452E-08 -0.33158582E-08
 -0.29973982E-08 -0.26610015E-08 -0.23095943E-08 -0.19461691E-08 -0.15737602E-08
 -0.11954195E-08 -0.81419273E-09 -0.43309569E-09 -0.55091817E-10  0.31693005E-09
  0.68017671E-09  0.10319705E-08  0.13697683E-08  0.16911783E-08  0.19939768E-08
  0.22761217E-08  0.25357659E-08  0.27712679E-08  0.29812010E-08  0.31643610E-08
  0.33197715E-08  0.34466877E-08  0.35445985E-08  0.36132261E-08  0.36525245E-08
  0.36626761E-08  0.36440862E-08  0.35973762E-08  0.35233756E-08  0.34231114E-08
  0.32977976E-08  0.31488222E-08  0.29777339E-08  0.27862272E-08  0.25761272E-08
  0.23493731E-08  0.21080014E-08  0.18541285E-08  0.15899331E-08  0.13176384E-08
  0.10394939E-08  0.75775796E-09  0.47467978E-09  0.19248250E-09 -0.86653744E-10
 -0.36060793E-09 -0.62733360E-09 -0.88487348E-09 -0.11313732E-08 -0.13650937E-08
 -0.15844235E-08 -0.17878882E-08 -0.19741604E-08 -0.21420672E-08 -0.22905970E-08
 -0.24189045E-08 -0.25263147E-08 -0.26123257E-08 -0.26766093E-08 -0.27190109E-08
 -0.27395482E-08 -0.27384081E-08 -0.27159425E-08 -0.26726632E-08 -0.26092352E-08
 -0.25264691E-08 -0.24253129E-08 -0.23068420E-08 -0.21722491E-08 -0.20228334E-08
 -0.18599883E-08 -0.16851896E-08 -0.14999827E-08 -0.13059695E-08 -0.11047952E-08
 -0.89813463E-09 -0.68767931E-09 -0.47512377E-09 -0.26215247E-09 -0.50427002E-10
  0.15842648E-09  0.36282923E-09  0.56126143E-09  0.75227299E-09  0.93449369E-09
  0.11066426E-08  0.12675364E-08  0.14160974E-08  0.15513599E-08  0.16724762E-08
  0.17787210E-08  0.18694955E-08  0.19443300E-08  0.20028854E-08  0.20449539E-08
  0.20704588E-08  0.20794529E-08  0.20721161E-08  0.20487521E-08  0.20097844E-08
  0.19557510E-08  0.18872984E-08  0.18051752E-08  0.17102248E-08  0.16033771E-08
  0.14856406E-08  0.13580926E-08  0.12218707E-08  0.10781625E-08  0.92819602E-09
  0.77322934E-09  0.61454060E-09  0.45341776E-09  0.29114850E-09  0.12901026E-09
 -0.31739470E-10 -0.18987258E-09 -0.34419939E-09 -0.49357731E-09 -0.63691895E-09
 -0.77319971E-09 -0.90146480E-09 -0.10208356E-08 -0.11305152E-08 -0.12297937E-08
 -0.13180519E-08 -0.13947653E-08 -0.14595064E-08 -0.15119468E-08 -0.15518581E-08
 -0.15791123E-08 -0.15936814E-08 -0.15956362E-08 -0.15851439E-08 -0.15624661E-08
 -0.15279548E-08 -0.14820487E-08 -0.14252684E-08 -0.13582112E-08 -0.12815456E-08
 -0.11960049E-08 -0.11023803E-08 -0.10015149E-08 -0.89429516E-09 -0.78164457E-09
 -0.66451528E-09 -0.54388058E-09 -0.42072705E-09 -0.29604672E-09 -0.17082934E-09
 -0.46054754E-10  0.77314538E-10  0.19834057E-09  0.31611680E-09  0.42977470E-09
  0.53848992E-09  0.64148803E-09  0.73804981E-09  0.82751604E-09  0.90929171E-09
  0.98284978E-09  0.10477343E-08  0.11035627E-08  0.11500283E-08  0.11869009E-08
  0.12140279E-08  0.12313346E-08  0.12388229E-08  0.12365713E-08  0.12247323E-08
  0.12035306E-08  0.11732603E-08  0.11342820E-08  0.10870183E-08  0.10319504E-08
  0.96961331E-09  0.90059089E-09  0.82551081E-09  0.74503900E-09  0.65987404E-09
  0.57074123E-09  0.47838669E-09  0.38357130E-09  0.28706455E-09  0.18963855E-09
  0.92061993E-10 -0.49057534E-11 -0.10052037E-09 -0.19405813E-09 -0.28482125E-09
 -0.37214288E-09 -0.45539189E-09 -0.53397721E-09 -0.60735193E-09 -0.67501685E-09
 -0.73652374E-09 -0.79147813E-09 -0.83954158E-09 -0.88043361E-09 -0.91393302E-09
 -0.93987887E-09 -0.95817087E-09 -0.96876934E-09 -0.97169474E-09 -0.96702667E-09
 -0.95490251E-09 -0.93551553E-09 -0.90911269E-09 -0.87599201E-09 -0.83649957E-09
 -0.79102621E-09 -0.74000393E-09 -0.68390197E-09 -0.62322271E-09 -0.55849735E-09
 -0.49028140E-09 -0.41915010E-09 -0.34569369E-09 -0.27051265E-09 -0.19421294E-09
 -0.11740121E-09 -0.40680138E-10  0.35356193E-10  0.11012678E-09  0.18306801E-09
  0.25363779E-09  0.32131948E-09  0.38562551E-09  0.44610082E-09  0.50232592E-09
  0.55391966E-09  0.60054175E-09  0.64189476E-09  0.67772594E-09  0.70782857E-09
  0.73204295E-09  0.75025705E-09  0.76240675E-09  0.76847572E-09  0.76849492E-09
  0.76254177E-09  0.75073895E-09  0.73325286E-09  0.71029179E-09  0.68210376E-09
  0.64897409E-09  0.61122274E-09  0.56920137E-09  0.52329024E-09  0.47389490E-09
  0.42144269E-09  0.36637925E-09  0.30916474E-09  0.25027019E-09  0.19017364E-09
  0.12935644E-09  0.68299408E-10  0.74791615E-11 -0.52635514E-10 -0.11158720E-09
 -0.16893324E-09 -0.22424897E-09 -0.27713076E-09 -0.32719891E-09 -0.37410025E-09
 -0.41751054E-09 -0.45713666E-09 -0.49271840E-09 -0.52403014E-09 -0.55088214E-09
 -0.57312154E-09 -0.59063310E-09 -0.60333963E-09 -0.61120207E-09 -0.61421939E-09
 -0.61242808E-09 -0.60590140E-09 -0.59474838E-09 -0.57911252E-09 -0.55917027E-09
 -0.53512924E-09 -0.50722623E-09 -0.47572504E-09 -0.44091407E-09 -0.40310382E-09
 -0.36262422E-09 -0.31982181E-09 -0.27505690E-09 -0.22870056E-09 -0.18113169E-09
 -0.13273394E-09 -0.83892698E-10 -0.34992119E-10  0.13587868E-10  0.61474424E-10
  0.10830460E-09  0.15372803E-09  0.19740947E-09  0.23903123E-09  0.27829540E-09
  0.31492591E-09  0.34867042E-09  0.37930197E-09  0.40662043E-09  0.43045374E-09
  0.45065887E-09  0.46712261E-09  0.47976207E-09  0.48852495E-09  0.49338961E-09
 kinetic energy density (partial)
  0.11158830E+02  0.11154654E+02  0.11142136E+02  0.11121301E+02  0.11092190E+02
  0.11054862E+02  0.11009393E+02  0.10955873E+02  0.10894411E+02  0.10825129E+02
  0.10748164E+02  0.10663671E+02  0.10571817E+02  0.10472782E+02  0.10366760E+02
  0.10253960E+02  0.10134600E+02  0.10008911E+02  0.98771336E+01  0.97395197E+01
  0.95963298E+01  0.94478329E+01  0.92943060E+01  0.91360328E+01  0.89733033E+01
  0.88064127E+01  0.86356607E+01  0.84613507E+01  0.82837889E+01  0.81032835E+01
  0.79201439E+01  0.77346798E+01  0.75472006E+01  0.73580141E+01  0.71674266E+01
  0.69757411E+01  0.67832576E+01  0.65902715E+01  0.63970733E+01  0.62039482E+01
  0.60111750E+01  0.58190258E+01  0.56277651E+01  0.54376498E+01  0.52489282E+01
  0.50618399E+01  0.48766151E+01  0.46934743E+01  0.45126280E+01  0.43342766E+01
  0.41586095E+01  0.39858056E+01  0.38160326E+01  0.36494472E+01  0.34861946E+01
  0.33264088E+01  0.31702124E+01  0.30177165E+01  0.28690210E+01  0.27242143E+01
  0.25833737E+01  0.24465656E+01  0.23138452E+01  0.21852572E+01  0.20608358E+01
  0.19406050E+01  0.18245789E+01  0.17127616E+01  0.16051483E+01  0.15017251E+01
  0.14024691E+01  0.13073496E+01  0.12163278E+01  0.11293572E+01  0.10463847E+01
  0.96735006E+00  0.89218702E+00  0.82082345E+00  0.75318181E+00  0.68917962E+00
  0.62872986E+00  0.57174141E+00  0.51811949E+00  0.46776603E+00  0.42058018E+00
  0.37645864E+00  0.33529608E+00  0.29698555E+00  0.26141885E+00  0.22848691E+00
  0.19808011E+00  0.17008868E+00  0.14440298E+00  0.12091384E+00  0.99512845E-01
  0.80092646E-01  0.62547192E-01  0.46772000E-01  0.32664385E-01  0.20123680E-01
  0.90514294E-02 -0.64842169E-03 -0.90693658E-02 -0.16302183E-01 -0.22434807E-01
 -0.27552213E-01 -0.31736316E-01 -0.35065886E-01 -0.37616482E-01 -0.39460397E-01
 -0.40666619E-01 -0.41300809E-01 -0.41425284E-01 -0.41099023E-01 -0.40377679E-01
 -0.39313600E-01 -0.37955873E-01 -0.36350360E-01 -0.34539761E-01 -0.32563673E-01
 -0.30458667E-01 -0.28258360E-01 -0.25993511E-01 -0.23692105E-01 -0.21379452E-01
 -0.19078293E-01 -0.16808900E-01 -0.14589191E-01 -0.12434836E-01 -0.10359377E-01
 -0.83743355E-02 -0.64893367E-02 -0.47122203E-02 -0.30491589E-02 -0.15047731E-02
 -0.82245798E-04  0.12165648E-02  0.23910148E-02  0.34415656E-02  0.43696789E-02
  0.51777136E-02  0.58688261E-02  0.64468752E-02  0.69163295E-02  0.72821794E-02
  0.75498533E-02  0.77251374E-02  0.78141011E-02  0.78230256E-02  0.77583376E-02
  0.76265477E-02  0.74341926E-02  0.71877830E-02  0.68937548E-02  0.65584257E-02
  0.61879553E-02  0.57883101E-02  0.53652326E-02  0.49242142E-02  0.44704718E-02
  0.40089291E-02  0.35442002E-02  0.30805776E-02  0.26220232E-02  0.21721621E-02
  0.17342797E-02  0.13113210E-02  0.90589312E-03  0.52026921E-03  0.15639537E-03
 -0.18410113E-03 -0.49990165E-03 -0.78998443E-03 -0.10536116E-02 -0.12903151E-02
 -0.14998810E-02 -0.16823342E-02 -0.18379212E-02 -0.19670930E-02 -0.20704881E-02
 -0.21489140E-02 -0.22033302E-02 -0.22348300E-02 -0.22446232E-02 -0.22340190E-02
 -0.22044089E-02 -0.21572506E-02 -0.20940522E-02 -0.20163571E-02 -0.19257294E-02
 -0.18237407E-02 -0.17119568E-02 -0.15919262E-02 -0.14651687E-02 -0.13331652E-02
 -0.11973489E-02 -0.10590963E-02 -0.91972064E-03 -0.78046476E-03 -0.64249598E-03
 -0.50690136E-03 -0.37468398E-03 -0.24676010E-03 -0.12395708E-03 -0.70121574E-05
  0.10342806E-03  0.20680736E-03  0.30265908E-03  0.39060452E-03  0.47035091E-03
  0.54168874E-03  0.60448870E-03  0.65869811E-03  0.70433699E-03  0.74149387E-03
  0.77032120E-03  0.79103063E-03  0.80388804E-03  0.80920849E-03  0.80735100E-03
  0.79871336E-03  0.78372687E-03  0.76285117E-03  0.73656904E-03  0.70538144E-03
  0.66980252E-03  0.63035494E-03  0.58756529E-03  0.54195972E-03  0.49405985E-03
  0.44437894E-03  0.39341819E-03  0.34166355E-03  0.28958257E-03  0.23762175E-03
  0.18620406E-03  0.13572683E-03  0.86559920E-04  0.39044193E-04 -0.65097062E-05
 -0.49822286E-04 -0.90645852E-04 -0.12876488E-03 -0.16399614E-03 -0.19618851E-03
 -0.22522264E-03 -0.25101032E-03 -0.27349368E-03 -0.29264414E-03 -0.30846128E-03
 -0.32097146E-03 -0.33022637E-03 -0.33630138E-03 -0.33929384E-03 -0.33932133E-03
 -0.33651971E-03 -0.33104127E-03 -0.32305272E-03 -0.31273325E-03 -0.30027252E-03
 -0.28586872E-03 -0.26972660E-03 -0.25205557E-03 -0.23306785E-03 -0.21297670E-03
 -0.19199465E-03 -0.17033190E-03 -0.14819480E-03 -0.12578434E-03 -0.10329487E-03
 -0.80912845E-04 -0.58815700E-04 -0.37170886E-04 -0.16134974E-04  0.41470957E-05
  0.23542640E-04  0.41931745E-04  0.59207654E-04  0.75277042E-04  0.90060167E-04
  0.10349092E-03  0.11551676E-03  0.12609855E-03  0.13521031E-03  0.14283886E-03
  0.14898337E-03  0.15365488E-03  0.15687571E-03  0.15867881E-03  0.15910707E-03
  0.15821258E-03  0.15605582E-03  0.15270488E-03  0.14823460E-03  0.14272572E-03
  0.13626396E-03  0.12893925E-03  0.12084474E-03  0.11207604E-03  0.10273031E-03
  0.92905477E-04  0.82699408E-04  0.72209174E-04  0.61530306E-04  0.50756116E-04
  0.39977050E-04  0.29280094E-04  0.18748227E-04  0.84599313E-05 -0.15112513E-05
 -0.11097103E-04 -0.20235058E-04 -0.28868479E-04 -0.36946867E-04 -0.44426032E-04
 -0.51268192E-04 -0.57442029E-04 -0.62922693E-04 -0.67691748E-04 -0.71737083E-04
 -0.75052767E-04 -0.77638864E-04 -0.79501216E-04 -0.80651181E-04 -0.81105339E-04
 -0.80885177E-04 -0.80016736E-04 -0.78530245E-04 -0.76459732E-04 -0.73842620E-04
 -0.70719314E-04 -0.67132775E-04 -0.63128098E-04 -0.58752077E-04 -0.54052787E-04
 -0.49079155E-04 -0.43880554E-04 -0.38506401E-04 -0.33005768E-04 -0.27427010E-04
 -0.21817418E-04 -0.16222883E-04 -0.10687589E-04 -0.52537248E-05  0.38772322E-07
  0.51524527E-05  0.10052560E-04  0.14707209E-04  0.19087539E-04  0.23167831E-04
  0.26925603E-04  0.30341680E-04  0.33400222E-04  0.36088746E-04  0.38398100E-04
  0.40322430E-04  0.41859111E-04  0.43008663E-04  0.43774639E-04  0.44163498E-04
  0.44184459E-04  0.43849338E-04  0.43172369E-04  0.42170015E-04  0.40860766E-04
  0.39264932E-04  0.37404418E-04  0.35302509E-04  0.32983642E-04  0.30473176E-04
  0.27797166E-04  0.24982140E-04  0.22054872E-04  0.19042173E-04  0.15970674E-04
  0.12866627E-04  0.97557139E-05  0.66628635E-05  0.36120801E-05  0.62628705E-06
 -0.22728186E-05 -0.50648964E-05 -0.77310785E-05 -0.10254071E-04 -0.12618239E-04
 -0.14809678E-04 -0.16816269E-04 -0.18627716E-04 -0.20235571E-04 -0.21633243E-04
 -0.22815996E-04 -0.23780923E-04 -0.24526917E-04 -0.25054625E-04 -0.25366389E-04
 -0.25466176E-04 -0.25359501E-04 -0.25053334E-04 -0.24556005E-04 -0.23877096E-04
 -0.23027331E-04 -0.22018461E-04 -0.20863135E-04 -0.19574784E-04 -0.18167484E-04
 -0.16655836E-04 -0.15054833E-04 -0.13379731E-04 -0.11645925E-04 -0.98688235E-05
 -0.80637300E-05 -0.62457252E-05 -0.44295573E-05 -0.26295364E-05 -0.85943611E-06
  0.86759816E-06  0.25391336E-05  0.41435261E-05  0.56699885E-05  0.71086499E-05
  0.84506064E-05  0.96879633E-05  0.10813867E-04  0.11822531E-04  0.12709248E-04
  0.13470399E-04  0.14103449E-04  0.14606936E-04  0.14980457E-04  0.15224636E-04
  0.15341092E-04  0.15332402E-04  0.15202053E-04  0.14954387E-04  0.14594547E-04
  0.14128416E-04  0.13562547E-04  0.12904096E-04  0.12160753E-04  0.11340661E-04
  0.10452346E-04  0.95046398E-05  0.85066000E-05  0.74674367E-05  0.63964352E-05
  0.53028827E-05  0.41959957E-05  0.30848501E-05  0.19783150E-05  0.88498880E-06
 -0.18686018E-06 -0.12293493E-05 -0.22350325E-05 -0.31969468E-05 -0.41086538E-05
 -0.49642757E-05 -0.57585262E-05 -0.64867365E-05 -0.71448754E-05 -0.77295637E-05
 -0.82380839E-05 -0.86683841E-05 -0.90190768E-05 -0.92894323E-05 -0.94793678E-05
 -0.95894314E-05 -0.96207815E-05 -0.95751624E-05 -0.94548759E-05 -0.92627489E-05
 -0.90020987E-05 -0.86766942E-05 -0.82907157E-05 -0.78487120E-05 -0.73555556E-05
 -0.68163970E-05 -0.62366175E-05 -0.56217820E-05 -0.49775910E-05 -0.43098327E-05
 -0.36243367E-05 -0.29269269E-05 -0.22233768E-05 -0.15193660E-05 -0.82043816E-06
 -0.13196168E-06  0.54090798E-06  0.11932629E-05  0.18204750E-05  0.24182246E-05
  0.29825272E-05  0.35097555E-05  0.39966595E-05  0.44403822E-05  0.48384724E-05
  0.51888940E-05  0.54900319E-05  0.57406941E-05  0.59401112E-05  0.60879320E-05
  0.61842165E-05  0.62294253E-05  0.62244069E-05  0.61703816E-05  0.60689235E-05
  0.59219397E-05  0.57316477E-05  0.55005512E-05  0.52314135E-05  0.49272303E-05
  0.45912009E-05  0.42266986E-05  0.38372407E-05  0.34264574E-05  0.29980617E-05
  0.25558181E-05  0.21035125E-05  0.16449220E-05  0.11837865E-05  0.72377971E-06
  0.26848288E-06 -0.17864132E-06 -0.61427277E-06 -0.10352564E-05 -0.14386229E-05
 -0.18216077E-05 -0.21816673E-05 -0.25164946E-05 -0.28240311E-05 -0.31024773E-05
 -0.33503008E-05 -0.35662422E-05 -0.37493189E-05 -0.38988264E-05 -0.40143374E-05
 -0.40956993E-05 -0.41430289E-05 -0.41567057E-05 -0.41373632E-05 -0.40858781E-05
 -0.40033584E-05 -0.38911298E-05 -0.37507200E-05 -0.35838432E-05 -0.33923823E-05
 -0.31783707E-05 -0.29439732E-05 -0.26914665E-05 -0.24232187E-05 -0.21416695E-05
 -0.18493096E-05 -0.15486599E-05 -0.12422518E-05 -0.93260695E-06 -0.62221820E-06
 -0.31353078E-06 -0.89243400E-08  0.28930404E-06  0.57895591E-06  0.85794641E-06
  0.11243180E-05  0.13762528E-05  0.16120840E-05  0.18303053E-05  0.20295794E-05
  0.22087445E-05  0.23668202E-05  0.25030104E-05  0.26167064E-05  0.27074872E-05
  0.27751194E-05  0.28195541E-05  0.28409245E-05  0.28395404E-05  0.28158825E-05
  0.27705947E-05  0.27044762E-05  0.26184720E-05  0.25136621E-05  0.23912509E-05
  0.22525553E-05  0.20989917E-05  0.19320635E-05  0.17533472E-05  0.15644791E-05
  0.13671414E-05  0.11630478E-05  0.95393001E-06  0.74152367E-06  0.52755507E-06
  0.31372784E-06  0.10171017E-06 -0.10687732E-06 -0.31047324E-06 -0.50758629E-06
 -0.69680546E-06 -0.87680932E-06 -0.10463745E-05 -0.12043831E-05 -0.13498296E-05
 -0.14818258E-05 -0.15996059E-05 -0.17025300E-05 -0.17900861E-05 -0.18618922E-05
 -0.19176959E-05 -0.19573747E-05 -0.19809336E-05 -0.19885031E-05 -0.19803354E-05
 -0.19568003E-05 -0.19183799E-05 -0.18656627E-05 -0.17993370E-05 -0.17201835E-05
 -0.16290678E-05 -0.15269315E-05 -0.14147841E-05 -0.12936932E-05 -0.11647757E-05
 -0.10291877E-05 -0.88811510E-06 -0.74276388E-06 -0.59435013E-06 -0.44409056E-06
 -0.29319312E-06 -0.14284770E-06  0.57826453E-08  0.15157027E-06  0.29343096E-06
  0.43033152E-06  0.56129682E-06  0.68541621E-06  0.80184944E-06  0.90983177E-06
  0.10086785E-05  0.10977887E-05  0.11766486E-05  0.12448334E-05  0.13020094E-05
  0.13479346E-05  0.13824590E-05  0.14055240E-05  0.14171612E-05  0.14174904E-05
  0.14067171E-05  0.13851293E-05  0.13530939E-05  0.13110519E-05  0.12595145E-05
  0.11990569E-05  0.11303133E-05  0.10539709E-05  0.97076298E-06  0.88146327E-06
  0.78687856E-06  0.68784210E-06  0.58520666E-06  0.47983754E-06  0.37260565E-06
  0.26438067E-06  0.15602432E-06  0.48383858E-07 -0.57714252E-07 -0.16147035E-06
 -0.26211728E-06 -0.35892577E-06 -0.45120940E-06 -0.53832915E-06 -0.61969746E-06
 -0.69478196E-06 -0.76310850E-06 -0.82426388E-06 -0.87789789E-06 -0.92372498E-06
 -0.96152527E-06 -0.99114512E-06 -0.10124972E-05 -0.10255598E-05 -0.10303762E-05
 -0.10270528E-05 -0.10157574E-05 -0.99671701E-06 -0.97021457E-06 -0.93658622E-06
 -0.89621756E-06 -0.84953987E-06 -0.79702595E-06 -0.73918577E-06 -0.67656185E-06
 -0.60972449E-06 -0.53926690E-06 -0.46580020E-06 -0.38994838E-06 -0.31234325E-06
 -0.23361940E-06 -0.15440925E-06 -0.75338194E-07  0.29801182E-08  0.79948353E-07
  0.15498982E-06  0.22755260E-06  0.29711338E-06  0.36318103E-06  0.42529987E-06
  0.48305256E-06  0.53606273E-06  0.58399719E-06  0.62656774E-06  0.66353271E-06
  0.69469799E-06  0.71991778E-06  0.73909488E-06  0.75218062E-06  0.75917447E-06
  0.76012320E-06  0.75511974E-06  0.74430170E-06  0.72784955E-06  0.70598451E-06
  0.67896620E-06  0.64708992E-06  0.61068384E-06  0.57010589E-06  0.52574051E-06
  0.47799521E-06  0.42729706E-06  0.37408907E-06  0.31882647E-06  0.26197301E-06
  0.20399722E-06  0.14536870E-06  0.86554478E-07  0.28015442E-07 -0.29797149E-07
 -0.86444990E-07 -0.14150591E-06 -0.19457688E-06 -0.24527684E-06 -0.29324927E-06
 -0.33816455E-06 -0.37972213E-06 -0.41765230E-06 -0.45171788E-06 -0.48171546E-06
 -0.50747647E-06 -0.52886792E-06 -0.54579285E-06 -0.55819052E-06 -0.56603630E-06
 -0.56934128E-06 -0.56815161E-06 -0.56254761E-06 -0.55264258E-06 -0.53858143E-06
 -0.52053901E-06 -0.49871834E-06 -0.47334856E-06 -0.44468276E-06 -0.41299562E-06
 -0.37858097E-06 -0.34174922E-06 -0.30282466E-06 -0.26214279E-06 -0.22004747E-06
 -0.17688822E-06 -0.13301734E-06 -0.88787205E-07 -0.44547493E-07 -0.64254481E-09
  0.42591228E-07  0.84827824E-07  0.12575401E-06  0.16507156E-06  0.20249930E-06
  0.23777508E-06  0.27065745E-06  0.30092725E-06  0.32838894E-06  0.35287176E-06
  0.37423068E-06  0.39234714E-06  0.40712952E-06  0.41851347E-06  0.42646201E-06
  0.43096535E-06  0.43204059E-06  0.42973119E-06  0.42410618E-06  0.41525931E-06
  0.40330787E-06  0.38839151E-06  0.37067076E-06  0.35032550E-06  0.32755329E-06
  0.30256752E-06  0.27559560E-06  0.24687692E-06  0.21666085E-06  0.18520467E-06
  0.15277144E-06  0.11962788E-06  0.86042253E-07  0.52282288E-07  0.18613080E-07
 -0.14704900E-07 -0.47417758E-07 -0.79280047E-07 -0.11005654E-06 -0.13952390E-06
 -0.16747222E-06 -0.19370649E-06 -0.21804784E-06 -0.24033470E-06 -0.26042384E-06
 -0.27819112E-06 -0.29353227E-06 -0.30636335E-06 -0.31662111E-06 -0.32426317E-06
 -0.32926808E-06 -0.33163514E-06 -0.33138413E-06 -0.32855486E-06 -0.32320655E-06
 -0.31541710E-06 -0.30528224E-06 -0.29291449E-06 -0.27844208E-06 -0.26200773E-06
 -0.24376731E-06 -0.22388847E-06 -0.20254917E-06 -0.17993615E-06 -0.15624336E-06
 -0.13167033E-06 -0.10642062E-06 -0.80700093E-07 -0.54715362E-07 -0.28672141E-07
 -0.27736824E-08  0.22780769E-07  0.47797457E-07  0.72089536E-07  0.95478421E-07
  0.11779505E-06  0.13888107E-06  0.15858988E-06  0.17678765E-06  0.19335411E-06
  0.20818338E-06  0.22118449E-06  0.23228195E-06  0.24141607E-06  0.24854323E-06
  0.25363598E-06  0.25668303E-06  0.25768912E-06  0.25667474E-06  0.25367576E-06
  0.24874296E-06  0.24194140E-06  0.23334973E-06  0.22305942E-06  0.21117381E-06
  0.19780723E-06  0.18308388E-06  0.16713679E-06  0.15010667E-06  0.13214066E-06
  0.11339117E-06  0.94014594E-07  0.74170033E-07  0.54018059E-07  0.33719433E-07
  0.13433862E-07 -0.66812242E-08 -0.26471857E-07 -0.45788676E-07 -0.64488021E-07
 -0.82432967E-07 -0.99494291E-07 -0.11555137E-06 -0.13049300E-06 -0.14421812E-06
 -0.15663647E-06 -0.16766913E-06 -0.17724899E-06 -0.18532112E-06 -0.19184298E-06
 -0.19678466E-06 -0.20012888E-06 -0.20187099E-06 -0.20201880E-06 -0.20059241E-06
 -0.19762384E-06 -0.19315664E-06 -0.18724540E-06 -0.17995518E-06 -0.17136089E-06
 -0.16154651E-06 -0.15060443E-06 -0.13863450E-06 -0.12574327E-06 -0.11204300E-06
 -0.97650748E-07 -0.82687394E-07 -0.67276660E-07 -0.51544111E-07 -0.35616158E-07
 -0.19619069E-07 -0.36779953E-08  0.12083982E-07  0.27546779E-07  0.42594200E-07
  0.57114781E-07  0.71002597E-07  0.84158006E-07  0.96488337E-07  0.10790852E-06
  0.11834164E-06  0.12771945E-06  0.13598272E-06  0.14308169E-06  0.14897621E-06
  0.15363602E-06  0.15704082E-06  0.15918028E-06  0.16005402E-06  0.15967150E-06
  0.15805175E-06  0.15522320E-06  0.15122326E-06  0.14609793E-06  0.13990136E-06
  0.13269533E-06  0.12454863E-06  0.11553648E-06  0.10573985E-06  0.95244768E-07
  0.84141567E-07  0.72524166E-07  0.60489274E-07  0.48135613E-07  0.35563129E-07
  0.22872202E-07  0.10162863E-07 -0.24659714E-08 -0.14917257E-07 -0.27096544E-07
 -0.38912677E-07 -0.50278460E-07 -0.61111280E-07 -0.71333690E-07 -0.80873942E-07
 -0.89666474E-07 -0.97652335E-07 -0.10477956E-06 -0.11100350E-06 -0.11628705E-06
 -0.12060084E-06 -0.12392343E-06 -0.12624127E-06 -0.12754881E-06 -0.12784838E-06
 -0.12715009E-06 -0.12547168E-06 -0.12283824E-06 -0.11928198E-06 -0.11484184E-06
 -0.10956316E-06 -0.10349720E-06 -0.96700705E-07 -0.89235374E-07 -0.81167347E-07
 -0.72566618E-07 -0.63506458E-07 -0.54062803E-07 -0.44313634E-07 -0.34338350E-07
 -0.24217135E-07 -0.14030330E-07 -0.38578075E-08  0.62216402E-08  0.16130898E-07
  0.25795103E-07  0.35142199E-07  0.44103457E-07  0.52613970E-07  0.60613107E-07
  0.68044931E-07  0.74858574E-07  0.81008574E-07  0.86455156E-07  0.91164476E-07
  0.95108807E-07  0.98266685E-07  0.10062300E-06  0.10216903E-06  0.10290244E-06
 atomic pseudo charge-density
  0.10000000E+02  0.99832161E+01  0.99332588E+01  0.98512886E+01  0.97391690E+01
  0.95993666E+01  0.94348244E+01  0.92488176E+01  0.90448046E+01  0.88262829E+01
  0.85966587E+01  0.83591373E+01  0.81166384E+01  0.78717376E+01  0.76266332E+01
  0.73831362E+01  0.71426804E+01  0.69063464E+01  0.66748975E+01  0.64488217E+01
  0.62283772E+01  0.60136371E+01  0.58045329E+01  0.56008935E+01  0.54024794E+01
  0.52090125E+01  0.50201991E+01  0.48357493E+01  0.46553909E+01  0.44788790E+01
  0.43060030E+01  0.41365893E+01  0.39705030E+01  0.38076469E+01  0.36479590E+01
  0.34914100E+01  0.33379986E+01  0.31877482E+01  0.30407018E+01  0.28969180E+01
  0.27564669E+01  0.26194259E+01  0.24858761E+01  0.23558992E+01  0.22295746E+01
  0.21069768E+01  0.19881735E+01  0.18732238E+01  0.17621771E+01  0.16550719E+01
  0.15519351E+01  0.14527819E+01  0.13576155E+01  0.12664273E+01  0.11791968E+01
  0.10958926E+01  0.10164724E+01  0.94088417E+00  0.86906624E+00  0.80094856E+00
  0.73645328E+00  0.67549560E+00  0.61798456E+00  0.56382386E+00  0.51291263E+00
  0.46514617E+00  0.42041669E+00  0.37861397E+00  0.33962602E+00  0.30333967E+00
  0.26964115E+00  0.23841657E+00  0.20955240E+00  0.18293594E+00  0.15845565E+00
  0.13600156E+00  0.11546553E+00  0.96741574E-01  0.79726098E-01  0.64318091E-01
  0.50419332E-01  0.37934542E-01  0.26771514E-01  0.16841224E-01  0.80579144E-02
  0.33915658E-03 -0.63941003E-02 -0.12217504E-01 -0.17203289E-01 -0.21420278E-01
 -0.24933902E-01 -0.27806230E-01 -0.30096012E-01 -0.31858728E-01 -0.33146653E-01
 -0.34008923E-01 -0.34491616E-01 -0.34637830E-01 -0.34487777E-01 -0.34078871E-01
 -0.33445830E-01 -0.32620772E-01 -0.31633320E-01 -0.30510706E-01 -0.29277878E-01
 -0.27957603E-01 -0.26570577E-01 -0.25135527E-01 -0.23669323E-01 -0.22187073E-01
 -0.20702235E-01 -0.19226709E-01 -0.17770943E-01 -0.16344024E-01 -0.14953774E-01
 -0.13606839E-01 -0.12308779E-01 -0.11064150E-01 -0.98765901E-02 -0.87488907E-02
 -0.76830774E-02 -0.66804783E-02 -0.57417934E-02 -0.48671586E-02 -0.40562071E-02
 -0.33081272E-02 -0.26217168E-02 -0.19954346E-02 -0.14274483E-02 -0.91567879E-03
 -0.45784231E-03 -0.51488887E-04  0.30596197E-03  0.61718840E-03  0.88493612E-03
  0.11119910E-02  0.13011542E-02  0.14552197E-02  0.15769543E-02  0.16690796E-02
  0.17342566E-02  0.17750714E-02  0.17940242E-02  0.17935183E-02  0.17758529E-02
  0.17432151E-02  0.16976756E-02  0.16411844E-02  0.15755679E-02  0.15025277E-02
  0.14236401E-02  0.13403564E-02  0.12540045E-02  0.11657909E-02  0.10768037E-02
  0.98801590E-03  0.90028940E-03  0.81437951E-03  0.73093975E-03  0.65052694E-03
  0.57360662E-03  0.50055856E-03  0.43168252E-03  0.36720397E-03  0.30727993E-03
  0.25200472E-03  0.20141572E-03  0.15549899E-03  0.11419479E-03  0.77402908E-04
  0.44987859E-04  0.16783829E-04 -0.74005770E-05 -0.27777845E-04 -0.44577307E-04
 -0.58041161E-04 -0.68420770E-04 -0.75973235E-04 -0.80958245E-04 -0.83635212E-04
 -0.84260682E-04 -0.83086023E-04 -0.80355384E-04 -0.76303911E-04 -0.71156220E-04
 -0.65125120E-04 -0.58410561E-04 -0.51198810E-04 -0.43661834E-04 -0.35956883E-04
 -0.28226249E-04 -0.20597201E-04 -0.13182074E-04 -0.60784933E-05  0.63027081E-06
  0.68748356E-05  0.12599144E-04  0.17759814E-04  0.22325421E-04  0.26275721E-04
  0.29600825E-04  0.32300340E-04  0.34382490E-04  0.35863223E-04  0.36765308E-04
  0.37117450E-04  0.36953410E-04  0.36311146E-04  0.35231988E-04  0.33759843E-04
  0.31940441E-04  0.29820618E-04  0.27447657E-04  0.24868669E-04  0.22130034E-04
  0.19276884E-04  0.16352659E-04  0.13398698E-04  0.10453900E-04  0.75544309E-05
  0.47334860E-05  0.20211054E-05 -0.55596419E-06 -0.29743580E-05 -0.52141383E-05
 -0.72587972E-05 -0.90952205E-05 -0.10713616E-04 -0.12107411E-04 -0.13273117E-04
 -0.14210171E-04 -0.14920760E-04 -0.15409616E-04 -0.15683801E-04 -0.15752489E-04
 -0.15626719E-04 -0.15319164E-04 -0.14843880E-04 -0.14216066E-04 -0.13451822E-04
 -0.12567912E-04 -0.11581535E-04 -0.10510104E-04 -0.93710360E-05 -0.81815583E-05
 -0.69585212E-05 -0.57182312E-05 -0.44762979E-05 -0.32474972E-05 -0.20456520E-05
 -0.88352906E-06  0.22724580E-06  0.12762563E-05  0.22543472E-05  0.31536587E-05
  0.39676461E-05  0.46910830E-05  0.53200513E-05  0.58519164E-05  0.62852906E-05
  0.66199850E-05  0.68569507E-05  0.69982107E-05  0.70467841E-05  0.70066031E-05
  0.68824247E-05  0.66797374E-05  0.64046651E-05  0.60638688E-05  0.56644473E-05
  0.52138380E-05  0.47197187E-05  0.41899115E-05  0.36322900E-05  0.30546898E-05
  0.24648241E-05  0.18702034E-05  0.12780628E-05  0.69529350E-06  0.12838274E-06
 -0.41664050E-06 -0.93425184E-06 -0.14194707E-05 -0.18678920E-05 -0.22757104E-05
 -0.26397370E-05 -0.29574089E-05 -0.32267918E-05 -0.34465756E-05 -0.36160636E-05
 -0.37351559E-05 -0.38043269E-05 -0.38245974E-05 -0.37975026E-05 -0.37250554E-05
 -0.36097063E-05 -0.34543003E-05 -0.32620309E-05 -0.30363926E-05 -0.27811320E-05
 -0.25001974E-05 -0.21976893E-05 -0.18778097E-05 -0.15448135E-05 -0.12029602E-05
 -0.85646766E-06 -0.50946779E-06 -0.16596476E-06  0.17020400E-06  0.49540372E-06
  0.80623490E-06  0.10995623E-05  0.13725402E-05  0.16226338E-05  0.18476366E-05
  0.20456840E-05  0.22152627E-05  0.23552158E-05  0.24647450E-05  0.25434078E-05
  0.25911121E-05  0.26081064E-05  0.25949676E-05  0.25525852E-05  0.24821430E-05
  0.23850981E-05  0.22631577E-05  0.21182543E-05  0.19525188E-05  0.17682528E-05
  0.15678994E-05  0.13540139E-05  0.11292339E-05  0.89624912E-06  0.65777222E-06
  0.41650944E-06  0.17513253E-06 -0.63748379E-07 -0.29761043E-06 -0.52404223E-06
 -0.74076623E-06 -0.94565913E-06 -0.11367702E-05 -0.13123374E-05 -0.14708010E-05
 -0.16108151E-05 -0.17312564E-05 -0.18312308E-05 -0.19100768E-05 -0.19673675E-05
 -0.20029095E-05 -0.20167393E-05 -0.20091181E-05 -0.19805239E-05 -0.19316419E-05
 -0.18633528E-05 -0.17767197E-05 -0.16729731E-05 -0.15534950E-05 -0.14198014E-05
 -0.12735239E-05 -0.11163912E-05 -0.95020904E-06 -0.77684052E-06 -0.59818614E-06
 -0.41616372E-06 -0.23268877E-06 -0.49655237E-07  0.13108310E-06  0.30773044E-06
  0.47856582E-06  0.64195885E-06  0.79638424E-06  0.94043493E-06  0.10728339E-05
  0.11924442E-05  0.12982777E-05  0.13895019E-05  0.14654454E-05  0.15256011E-05
  0.15696285E-05  0.15973535E-05  0.16087672E-05  0.16040229E-05  0.15834312E-05
  0.15474543E-05  0.14966985E-05  0.14319055E-05  0.13539425E-05  0.12637917E-05
  0.11625381E-05  0.10513571E-05  0.93150163E-06  0.80428795E-06  0.67108203E-06
  0.53328511E-06  0.39231945E-06  0.24961402E-06  0.10659051E-06 -0.35350373E-07
 -0.17484222E-06 -0.31056552E-06 -0.44125967E-06 -0.56573415E-06 -0.68287880E-06
 -0.79167318E-06 -0.89119486E-06 -0.98062658E-06 -0.10592623E-05 -0.11265122E-05
 -0.11819062E-05 -0.12250961E-05 -0.12558577E-05 -0.12740899E-05 -0.12798138E-05
 -0.12731706E-05 -0.12544182E-05 -0.12239262E-05 -0.11821709E-05 -0.11297290E-05
 -0.10672697E-05 -0.99554754E-06 -0.91539312E-06 -0.82770413E-06 -0.73343557E-06
 -0.63358967E-06 -0.52920553E-06 -0.42134857E-06 -0.31109999E-06 -0.19954615E-06
 -0.87768158E-07  0.23168270E-07  0.13222273E-06  0.23838956E-06  0.34070681E-06
  0.43826462E-06  0.53021296E-06  0.61576873E-06  0.69422200E-06  0.76494153E-06
  0.82737942E-06  0.88107490E-06  0.92565724E-06  0.96084775E-06  0.98646085E-06
  0.10024043E-05  0.10086786E-05  0.10053752E-05  0.99267441E-06  0.97084214E-06
  0.94022588E-06  0.90125021E-06  0.85441146E-06  0.80027192E-06  0.73945340E-06
  0.67263049E-06  0.60052328E-06  0.52388993E-06  0.44351888E-06  0.36022100E-06
  0.27482158E-06  0.18815241E-06  0.10104388E-06  0.14317172E-07 -0.71223178E-07
 -0.15479660E-06 -0.23565338E-06 -0.31308113E-06 -0.38641089E-06 -0.45502260E-06
 -0.51835016E-06 -0.57588575E-06 -0.62718369E-06 -0.67186356E-06 -0.70961266E-06
 -0.74018785E-06 -0.76341666E-06 -0.77919777E-06 -0.78750079E-06 -0.78836537E-06
 -0.78189971E-06 -0.76827843E-06 -0.74773991E-06 -0.72058296E-06 -0.68716315E-06
 -0.64788850E-06 -0.60321492E-06 -0.55364116E-06 -0.49970348E-06 -0.44197009E-06
 -0.38103535E-06 -0.31751382E-06 -0.25203429E-06 -0.18523363E-06 -0.11775086E-06
 -0.50221120E-07  0.16730125E-07  0.82492711E-07  0.14647718E-06  0.20811993E-06
  0.26688794E-06  0.32228331E-06  0.37384721E-06  0.42116353E-06  0.46386204E-06
  0.50162107E-06  0.53416969E-06  0.56128939E-06  0.58281527E-06  0.59863671E-06
  0.60869747E-06  0.61299538E-06  0.61158146E-06  0.60455861E-06  0.59207982E-06
  0.57434594E-06  0.55160307E-06  0.52413956E-06  0.49228267E-06  0.45639493E-06
  0.41687020E-06  0.37412960E-06  0.32861714E-06  0.28079525E-06  0.23114029E-06
  0.18013787E-06  0.12827826E-06  0.76051807E-07  0.23944402E-07 -0.27566905E-07
 -0.78018159E-07 -0.12696256E-06 -0.17397429E-06 -0.21865211E-06 -0.26062262E-06
 -0.29954328E-06 -0.33510504E-06 -0.36703465E-06 -0.39509659E-06 -0.41909465E-06
 -0.43887306E-06 -0.45431730E-06 -0.46535445E-06 -0.47195326E-06 -0.47412370E-06
 -0.47191621E-06 -0.46542063E-06 -0.45476469E-06 -0.44011224E-06 -0.42166121E-06
 -0.39964114E-06 -0.37431069E-06 -0.34595469E-06 -0.31488116E-06 -0.28141810E-06
 -0.24591016E-06 -0.20871519E-06 -0.17020078E-06 -0.13074069E-06 -0.90711346E-07
 -0.50488360E-07 -0.10443066E-07  0.29060799E-07  0.67670304E-07  0.10504639E-06
  0.14086677E-06  0.17482856E-06  0.20665081E-06  0.23607668E-06  0.26287540E-06
  0.28684400E-06  0.30780868E-06  0.32562595E-06  0.34018346E-06  0.35140048E-06
  0.35922821E-06  0.36364963E-06  0.36467916E-06  0.36236206E-06  0.35677345E-06
  0.34801719E-06  0.33622443E-06  0.32155198E-06  0.30418045E-06  0.28431221E-06
  0.26216918E-06  0.23799050E-06  0.21203004E-06  0.18455381E-06  0.15583741E-06
  0.12616325E-06  0.95817928E-07  0.65089511E-07  0.34264870E-07  0.36270825E-08
 -0.26547097E-07 -0.55989666E-07 -0.84443687E-07 -0.11166545E-06 -0.13742650E-06
 -0.16151546E-06 -0.18373968E-06 -0.20392674E-06 -0.22192563E-06 -0.23760783E-06
 -0.25086808E-06 -0.26162500E-06 -0.26982140E-06 -0.27542446E-06 -0.27842555E-06
 -0.27884000E-06 -0.27670650E-06 -0.27208639E-06 -0.26506271E-06 -0.25573912E-06
 -0.24423855E-06 -0.23070182E-06 -0.21528601E-06 -0.19816277E-06 -0.17951654E-06
 -0.15954260E-06 -0.13844512E-06 -0.11643517E-06 -0.93728658E-07 -0.70544258E-07
 -0.47101394E-07 -0.23618202E-07 -0.30955987E-09  0.22614822E-07  0.44952233E-07
  0.66508705E-07  0.87100633E-07  0.10655629E-06  0.12471719E-06  0.14143932E-06
  0.15659423E-06  0.17006992E-06  0.18177162E-06  0.19162233E-06  0.19956327E-06
  0.20555408E-06  0.20957288E-06  0.21161620E-06  0.21169864E-06  0.20985249E-06
  0.20612709E-06  0.20058813E-06  0.19331674E-06  0.18440852E-06  0.17397240E-06
  0.16212942E-06  0.14901141E-06  0.13475964E-06  0.11952331E-06  0.10345810E-06
  0.86724599E-07  0.69486793E-07  0.51910464E-07  0.34161668E-07  0.16405206E-07
 -0.11968670E-08 -0.18486673E-07 -0.35311889E-07 -0.51527043E-07 -0.66994728E-07
 -0.81586726E-07 -0.95185020E-07 -0.10768270E-06 -0.11898476E-06 -0.12900875E-06
 -0.13768531E-06 -0.14495861E-06 -0.15078660E-06 -0.15514116E-06 -0.15800815E-06
 -0.15938723E-06 -0.15929170E-06 -0.15774810E-06 -0.15479574E-06 -0.15048612E-06
 -0.14488227E-06 -0.13805793E-06 -0.13009673E-06 -0.12109121E-06 -0.11114186E-06
 -0.10035603E-06 -0.88846833E-07 -0.76732021E-07 -0.64132802E-07 -0.51172685E-07
 -0.37976302E-07 -0.24668248E-07 -0.11371937E-07  0.17915074E-08  0.14704321E-07
  0.27253121E-07  0.39329867E-07  0.50832757E-07  0.61667050E-07  0.71745813E-07
  0.80990576E-07  0.89331899E-07  0.96709857E-07  0.10307441E-06  0.10838569E-06
  0.11261420E-06  0.11574085E-06  0.11775703E-06  0.11866440E-06  0.11847478E-06
  0.11720981E-06  0.11490058E-06  0.11158719E-06  0.10731820E-06  0.10215005E-06
  0.96146387E-07  0.89377347E-07  0.81918806E-07  0.73851571E-07  0.65260548E-07
  0.56233886E-07  0.46862111E-07  0.37237248E-07  0.27451948E-07  0.17598627E-07
  0.77686138E-08 -0.19486615E-08 -0.11466461E-07 -0.20701486E-07 -0.29574578E-07
 -0.38011375E-07 -0.45942902E-07 -0.53306108E-07 -0.60044339E-07 -0.66107737E-07
 -0.71453573E-07 -0.76046510E-07 -0.79858788E-07 -0.82870337E-07 -0.85068820E-07
 -0.86449602E-07 -0.87015644E-07 -0.86777337E-07 -0.85752263E-07 -0.83964897E-07
 -0.81446253E-07 -0.78233473E-07 -0.74369368E-07 -0.69901913E-07 -0.64883711E-07
 -0.59371415E-07 -0.53425129E-07 -0.47107789E-07 -0.40484525E-07 -0.33622017E-07
 -0.26587855E-07 -0.19449891E-07 -0.12275607E-07 -0.51315065E-08  0.19174916E-08
  0.88086153E-08  0.15481781E-07  0.21880094E-07  0.27950319E-07  0.33643292E-07
  0.38914303E-07  0.43723420E-07  0.48035763E-07  0.51821731E-07  0.55057168E-07
  0.57723483E-07  0.59807711E-07  0.61302519E-07  0.62206164E-07  0.62522400E-07
  0.62260329E-07  0.61434211E-07  0.60063231E-07  0.58171216E-07  0.55786326E-07
  0.52940702E-07  0.49670087E-07  0.46013421E-07  0.42012412E-07  0.37711097E-07
  0.33155379E-07  0.28392564E-07  0.23470892E-07  0.18439070E-07  0.13345805E-07
  0.82393541E-08  0.31670832E-08 -0.18249574E-08 -0.66924336E-08 -0.11393106E-07
 -0.15887178E-07 -0.20137620E-07 -0.24110453E-07 -0.27775005E-07 -0.31104123E-07
 -0.34074359E-07 -0.36666104E-07 -0.38863695E-07 -0.40655473E-07 -0.42033813E-07
 -0.42995101E-07 -0.43539688E-07 -0.43671800E-07 -0.43399414E-07 -0.42734101E-07
 -0.41690845E-07 -0.40287822E-07 -0.38546164E-07 -0.36489695E-07 -0.34144648E-07
 -0.31539365E-07 -0.28703986E-07 -0.25670125E-07 -0.22470537E-07 -0.19138789E-07
 -0.15708921E-07 -0.12215120E-07 -0.86913871E-08 -0.51712256E-08 -0.16873345E-08
  0.17286831E-08  0.50465933E-08  0.82377872E-08  0.11275514E-07  0.14135094E-07
  0.16794101E-07  0.19232529E-07  0.21432922E-07  0.23380482E-07  0.25063150E-07
  0.26471653E-07  0.27599532E-07  0.28443134E-07  0.29001583E-07  0.29276723E-07
  0.29273033E-07  0.28997528E-07  0.28459625E-07  0.27671000E-07  0.26645422E-07
  0.25398570E-07  0.23947835E-07  0.22312117E-07  0.20511601E-07  0.18567538E-07
  0.16502010E-07  0.14337699E-07  0.12097657E-07  0.98050696E-08  0.74830317E-08
  0.51543275E-08  0.28412172E-08  0.56523521E-09 -0.16530006E-08 -0.37939651E-08
 -0.58393882E-08 -0.77724004E-08 -0.95776613E-08 -0.11241470E-07 -0.12751857E-07
 -0.14098657E-07 -0.15273561E-07 -0.16270149E-07 -0.17083907E-07 -0.17712219E-07
 -0.18154346E-07 -0.18411382E-07 -0.18486195E-07 -0.18383353E-07 -0.18109037E-07
 -0.17670930E-07 -0.17078109E-07 -0.16340913E-07 -0.15470808E-07 -0.14480241E-07
 -0.13382493E-07 -0.12191521E-07 -0.10921802E-07 -0.95881729E-08 -0.82056712E-08
 -0.67893807E-08 -0.53542769E-08 -0.39150796E-08 -0.24861114E-08 -0.10811641E-08
  0.28662633E-09  0.16048941E-08  0.28621483E-08  0.40478644E-08  0.51525649E-08
  0.61678862E-08  0.70866319E-08  0.79028138E-08  0.86116783E-08  0.92097203E-08
  0.96946825E-08  0.10065543E-07  0.10322491E-07  0.10466886E-07  0.10501214E-07
  0.10429024E-07  0.10254863E-07  0.99841951E-08  0.96233210E-08  0.91792832E-08
  0.86597707E-08  0.80730176E-08  0.74276990E-08  0.67328250E-08  0.59976343E-08
  0.52314875E-08  0.44437624E-08  0.36437519E-08  0.28405654E-08  0.20430349E-08
  0.12596262E-08  0.49835750E-09 -0.23327575E-09 -0.92836828E-09 -0.15806639E-08
 -0.21846059E-08 -0.27353782E-08 -0.32289373E-08 -0.36620348E-08 -0.40322300E-08
 -0.43378938E-08 -0.45782027E-08 -0.47531248E-08 -0.48633961E-08 -0.49104895E-08
 -0.48965757E-08 -0.48244774E-08 -0.46976166E-08 -0.45199574E-08 -0.42959426E-08
 -0.40304281E-08 -0.37286121E-08 -0.33959640E-08 -0.30381502E-08 -0.26609601E-08
 -0.22702325E-08 -0.18717828E-08 -0.14713328E-08 -0.10744427E-08 -0.68644671E-09
 -0.31239274E-09  0.43013197E-10  0.37545733E-09  0.68106255E-09  0.95642663E-09
  0.11986539E-08  0.14053801E-08  0.15747907E-08  0.17056317E-08  0.17972141E-08
  0.18494110E-08  0.18626478E-08  0.18378857E-08  0.17765997E-08  0.16807493E-08
  0.15527451E-08  0.13954103E-08  0.12119366E-08  0.10058375E-08  0.78089780E-09
  0.54111955E-09  0.29066728E-09  0.33811155E-10 -0.22513016E-09 -0.48184656E-09
 -0.73209293E-09 -0.97174421E-09 -0.11968486E-08 -0.14036784E-08 -0.15887770E-08
 -0.17490028E-08 -0.18815684E-08 -0.19840754E-08 -0.20545438E-08 -0.20914364E-08
 -0.20936780E-08 -0.20606684E-08 -0.19922898E-08 -0.18889078E-08 -0.17513669E-08
 -0.15809796E-08 -0.13795103E-08 -0.11491536E-08 -0.89250758E-09 -0.61254235E-09
 -0.31256406E-09  0.38252525E-11  0.33277148E-09  0.67021514E-09  0.10119406E-08
   15.1178079086314      T
 Non local Part
           0           2   1.34778460764971     
  -17.9700627495376        10.3754800207271        10.3754800207271     
  -12.2139610269654     
 Reciprocal Space Part
  0.11565304E+02  0.11529345E+02  0.11421890E+02  0.11244195E+02  0.10998330E+02
  0.10687153E+02  0.10314264E+02  0.98839479E+01  0.94011181E+01  0.88712381E+01
  0.83002432E+01  0.76944538E+01  0.70604836E+01  0.64051455E+01  0.57353546E+01
  0.50580324E+01  0.43800117E+01  0.37079448E+01  0.30482166E+01  0.24068626E+01
  0.17894955E+01  0.12012386E+01  0.64666930E+00  0.12977196E+00 -0.34609829E+00
 -0.77824139E+00 -0.11646270E+01 -0.15038980E+01 -0.17953640E+01 -0.20389835E+01
 -0.22353374E+01 -0.23855929E+01 -0.24914596E+01 -0.25551389E+01 -0.25792666E+01
 -0.25668522E+01 -0.25212134E+01 -0.24459090E+01 -0.23446713E+01 -0.22213378E+01
 -0.20797853E+01 -0.19238664E+01 -0.17573493E+01 -0.15838628E+01 -0.14068459E+01
 -0.12295044E+01 -0.10547731E+01 -0.88528580E+00 -0.72335180E+00 -0.57094008E+00
 -0.42967037E+00 -0.30081133E+00 -0.18528531E+00 -0.83679237E-01  0.37388624E-02
  0.76998411E-01  0.13640057E+00  0.18248904E+00  0.21601824E+00  0.23791951E+00
  0.24926641E+00  0.25123957E+00  0.24509217E+00  0.23211644E+00  0.21361220E+00
  0.19085747E+00  0.16508215E+00  0.13744480E+00  0.10901298E+00  0.80747266E-01
  0.53489077E-01  0.27952291E-01  0.47185925E-02 -0.15763643E-01 -0.33177138E-01
 -0.47330489E-01 -0.58150291E-01 -0.65670976E-01 -0.70022840E-01 -0.71418577E-01
 -0.70139038E-01 -0.66518238E-01 -0.60928429E-01 -0.53765420E-01 -0.45434548E-01
 -0.36337649E-01 -0.26861266E-01 -0.17366339E-01 -0.81795289E-02  0.41370178E-03
  0.81742111E-02  0.14912484E-01  0.20490178E-01  0.24820018E-01  0.27864057E-01
  0.29630770E-01  0.30170759E-01  0.29571579E-01  0.27951852E-01  0.25454841E-01
 Real Space Part
 -0.70118683E+01 -0.70038853E+01 -0.69799589E+01 -0.69401591E+01 -0.68846017E+01
 -0.68134488E+01 -0.67269080E+01 -0.66252324E+01 -0.65087201E+01 -0.63777132E+01
 -0.62325975E+01 -0.60738015E+01 -0.59017956E+01 -0.57170909E+01 -0.55202385E+01
 -0.53118275E+01 -0.50924844E+01 -0.48628711E+01 -0.46236833E+01 -0.43756490E+01
 -0.41195261E+01 -0.38561008E+01 -0.35861852E+01 -0.33106150E+01 -0.30302469E+01
 -0.27459562E+01 -0.24586337E+01 -0.21691833E+01 -0.18785184E+01 -0.15875595E+01
 -0.12972300E+01 -0.10084538E+01 -0.72215120E+00 -0.43923578E+00 -0.16061052E+00
  0.11283568E+00  0.38023173E+00  0.64072807E+00  0.89350032E+00  0.11377530E+01
  0.13727233E+01  0.15976844E+01  0.18119492E+01  0.20148739E+01  0.22058609E+01
  0.23843623E+01  0.25498827E+01  0.27019821E+01  0.28402786E+01  0.29644505E+01
  0.30742387E+01  0.31694486E+01  0.32499512E+01  0.33156851E+01  0.33666566E+01
  0.34029412E+01  0.34246832E+01  0.34320959E+01  0.34254610E+01  0.34051279E+01
  0.33715126E+01  0.33250958E+01  0.32664211E+01  0.31960929E+01  0.31147732E+01
  0.30231789E+01  0.29220783E+01  0.28122874E+01  0.26946655E+01  0.25701115E+01
  0.24395583E+01  0.23039689E+01  0.21643303E+01  0.20216488E+01  0.18769441E+01
  0.17312438E+01  0.15855775E+01  0.14409710E+01  0.12984401E+01  0.11589849E+01
  0.10235839E+01  0.89318800E+00  0.76871473E+00  0.65104269E+00  0.54100578E+00
  0.43938993E+00  0.34693831E+00  0.26398257E+00  0.18995980E+00  0.12524523E+00
  0.70327076E-01  0.25633972E-01 -0.84740670E-02 -0.31707070E-01 -0.43834598E-01
 -0.44783322E-01 -0.34546148E-01 -0.10723168E-01  0.10588568E-02  0.28927103E-14
 Reciprocal Space Part
  0.10213913E+02  0.10165648E+02  0.10021481E+02  0.97832868E+01  0.94541547E+01
  0.90383427E+01  0.85412086E+01  0.79691260E+01  0.73293844E+01  0.66300752E+01
  0.58799666E+01  0.50883682E+01  0.42649887E+01  0.34197892E+01  0.25628337E+01
  0.17041412E+01  0.85353939E+00  0.20524846E-01 -0.78586952E+00 -0.15571970E+01
 -0.22857076E+01 -0.29644455E+01 -0.35873311E+01 -0.41492272E+01 -0.46459882E+01
 -0.50744921E+01 -0.54326550E+01 -0.57194279E+01 -0.59347773E+01 -0.60796493E+01
 -0.61559187E+01 -0.61663243E+01 -0.61143930E+01 -0.60043522E+01 -0.58410344E+01
 -0.56297754E+01 -0.53763075E+01 -0.50866504E+01 -0.47670023E+01 -0.44236317E+01
 -0.40627737E+01 -0.36905306E+01 -0.33127800E+01 -0.29350915E+01 -0.25626520E+01
 -0.22002024E+01 -0.18519849E+01 -0.15217025E+01 -0.12124898E+01 -0.92689637E+00
 -0.66688151E+00 -0.43382007E+00 -0.22851897E+00 -0.51243354E-01  0.98248728E-01
  0.22066404E+00  0.31712571E+00  0.38911987E+00  0.43843871E+00  0.46712135E+00
  0.47739384E+00  0.47160965E+00  0.45219176E+00  0.42157752E+00  0.38216731E+00
  0.33627780E+00  0.28610048E+00  0.23366619E+00  0.18081581E+00  0.12917752E+00
  0.80150567E-01  0.34895564E-01 -0.56689979E-02 -0.40864341E-01 -0.70243577E-01
 -0.93579044E-01 -0.11084546E+00 -0.12219958E+00 -0.12795720E+00 -0.12856798E+00
 -0.12458947E+00 -0.11666022E+00 -0.10547348E+00 -0.91751652E-01 -0.76222288E-01
 -0.59596075E-01 -0.42547251E-01 -0.25696781E-01 -0.95985292E-02  0.52714370E-02
  0.18522348E-01  0.29853096E-01  0.39053569E-01  0.46003165E-01  0.50666758E-01
  0.53088308E-01  0.53382836E-01  0.51726546E-01  0.48346096E-01  0.43507060E-01
 Real Space Part
 -0.21768231E+02 -0.21750563E+02 -0.21697604E+02 -0.21609490E+02 -0.21486450E+02
 -0.21328801E+02 -0.21136951E+02 -0.20911397E+02 -0.20652727E+02 -0.20361613E+02
 -0.20038816E+02 -0.19685182E+02 -0.19301640E+02 -0.18889201E+02 -0.18448958E+02
 -0.17982079E+02 -0.17489811E+02 -0.16973472E+02 -0.16434451E+02 -0.15874203E+02
 -0.15294250E+02 -0.14696170E+02 -0.14081601E+02 -0.13452229E+02 -0.12809791E+02
 -0.12156065E+02 -0.11492866E+02 -0.10822041E+02 -0.10145466E+02 -0.94650329E+01
 -0.87826521E+01 -0.81002398E+01 -0.74197137E+01 -0.67429859E+01 -0.60719559E+01
 -0.54085032E+01 -0.47544801E+01 -0.41117046E+01 -0.34819524E+01 -0.28669502E+01
 -0.22683676E+01 -0.16878099E+01 -0.11268113E+01 -0.58682710E+00 -0.69227296E-01
  0.42471028E+00  0.89380636E+00  0.13369862E+01  0.17532855E+01  0.21418554E+01
  0.25019674E+01  0.28330177E+01  0.31345310E+01  0.34061635E+01  0.36477059E+01
  0.38590847E+01  0.40403639E+01  0.41917458E+01  0.43135700E+01  0.44063133E+01
  0.44705879E+01  0.45071387E+01  0.45168405E+01  0.45006937E+01  0.44598203E+01
  0.43954578E+01  0.43089536E+01  0.42017579E+01  0.40754167E+01  0.39315630E+01
  0.37719088E+01  0.35982356E+01  0.34123844E+01  0.32162461E+01  0.30117503E+01
  0.28008549E+01  0.25855344E+01  0.23677691E+01  0.21495329E+01  0.19327821E+01
  0.17194438E+01  0.15114041E+01  0.13104969E+01  0.11184924E+01  0.93708648E+00
  0.76789193E+00  0.61244114E+00  0.47172676E+00  0.34548348E+00  0.23445784E+00
  0.13952898E+00  0.61496060E-01  0.10602193E-02 -0.41183161E-01 -0.64731141E-01
 -0.69336003E-01 -0.54860315E-01 -0.17267931E-01  0.17095344E-02  0.47962103E-14
 Non local Part
           1           2   1.34778460764971     
  -9.31302348049430       -9.20322261248297       -9.20322261248297     
  -9.09368704107677     
 Reciprocal Space Part
  0.00000000E+00 -0.65354750E+01 -0.13014849E+02 -0.19380971E+02 -0.25574657E+02
 -0.31533858E+02 -0.37193022E+02 -0.42482724E+02 -0.47329599E+02 -0.51656612E+02
 -0.55383691E+02 -0.58428710E+02 -0.60708844E+02 -0.62142223E+02 -0.62649897E+02
 -0.62158013E+02 -0.60600165E+02 -0.57919840E+02 -0.54072862E+02 -0.49029761E+02
 -0.42777980E+02 -0.35323819E+02 -0.26694049E+02 -0.16937107E+02 -0.61238174E+01
  0.56524180E+01  0.18275998E+02  0.31610091E+02  0.45498198E+02  0.59766291E+02
  0.74225509E+02  0.88675344E+02  0.10290726E+03  0.11670867E+03  0.12986716E+03
  0.14217488E+03  0.15343299E+03  0.16345597E+03  0.17207585E+03  0.17914604E+03
  0.18454484E+03  0.18817835E+03  0.18998292E+03  0.18992678E+03  0.18801114E+03
  0.18427039E+03  0.17877160E+03  0.17161329E+03  0.16292345E+03  0.15285680E+03
  0.14159158E+03  0.12932566E+03  0.11627230E+03  0.10265549E+03  0.88705153E+02
  0.74652183E+02  0.60723552E+02  0.47137534E+02  0.34099210E+02  0.21796349E+02
  0.10395753E+02  0.40178115E-01 -0.91541259E+01 -0.17099188E+02 -0.23736374E+02
 -0.29036713E+02 -0.33000503E+02 -0.35656218E+02 -0.37058758E+02 -0.37287110E+02
 -0.36441487E+02 -0.34640038E+02 -0.32015222E+02 -0.28709958E+02 -0.24873653E+02
 -0.20658213E+02 -0.16214153E+02 -0.11686906E+02 -0.72134070E+01 -0.29190605E+01
  0.10848632E+01  0.47033333E+01  0.78591326E+01  0.10493875E+02  0.12568462E+02
  0.14062985E+02  0.14976101E+02  0.15323921E+02  0.15138460E+02  0.14465719E+02
  0.13363460E+02  0.11898762E+02  0.10145428E+02  0.81813417E+01  0.60858324E+01
  0.39371490E+01  0.18100956E+01 -0.22609738E+00 -0.21096179E+01 -0.37875877E+01
 Real Space Part
  0.00000000E+00  0.30351334E+02  0.60579126E+02  0.90560328E+02  0.12017287E+03
  0.14929618E+03  0.17781160E+03  0.20560297E+03  0.23255700E+03  0.25856383E+03
  0.28351743E+03  0.30731606E+03  0.32986276E+03  0.35106571E+03  0.37083871E+03
  0.38910153E+03  0.40578034E+03  0.42080805E+03  0.43412465E+03  0.44567755E+03
  0.45542188E+03  0.46332078E+03  0.46934560E+03  0.47347618E+03  0.47570101E+03
  0.47601735E+03  0.47443144E+03  0.47095849E+03  0.46562278E+03  0.45845766E+03
  0.44950549E+03  0.43881758E+03  0.42645409E+03  0.41248379E+03  0.39698391E+03
  0.38003986E+03  0.36174491E+03  0.34219982E+03  0.32151246E+03  0.29979732E+03
  0.27717504E+03  0.25377182E+03  0.22971887E+03  0.20515170E+03  0.18020950E+03
  0.15503436E+03  0.12977055E+03  0.10456366E+03  0.79559810E+02  0.54904772E+02
  0.30743057E+02  0.72170181E+01 -0.15534091E+02 -0.37375059E+02 -0.58175683E+02
 -0.77811716E+02 -0.96165836E+02 -0.11312859E+03 -0.12859935E+03 -0.14248719E+03
 -0.15471185E+03 -0.16520452E+03 -0.17390874E+03 -0.18078113E+03 -0.18579217E+03
 -0.18892683E+03 -0.19018527E+03 -0.18958328E+03 -0.18715286E+03 -0.18294259E+03
 -0.17701792E+03 -0.16946146E+03 -0.16037310E+03 -0.14987001E+03 -0.13808666E+03
 -0.12517465E+03 -0.11130240E+03 -0.96654841E+02 -0.81432940E+02 -0.65853073E+02
 -0.50146381E+02 -0.34557975E+02 -0.19345964E+02 -0.47805479E+01  0.88574110E+01
  0.21276183E+02  0.32168233E+02  0.41441774E+02  0.49531808E+02  0.56245142E+02
  0.61277979E+02  0.64323097E+02  0.65073678E+02  0.63223952E+02  0.58473764E+02
  0.50513702E+02  0.39043923E+02  0.24220950E+02  0.31640406E+01 -0.20759238E-11
 Reciprocal Space Part
  0.00000000E+00  0.70110182E+01  0.13961645E+02  0.20790461E+02  0.27434067E+02
  0.33826271E+02  0.39897482E+02  0.45574368E+02  0.50779820E+02  0.55433262E+02
  0.59451312E+02  0.62748811E+02  0.65240211E+02  0.66841279E+02  0.67471093E+02
  0.67054263E+02  0.65523321E+02  0.62821198E+02  0.58903697E+02  0.53741890E+02
  0.47324339E+02  0.39659047E+02  0.30775077E+02  0.20723731E+02  0.95792563E+01
 -0.25609989E+01 -0.15577007E+02 -0.29327079E+02 -0.43649495E+02 -0.58364714E+02
 -0.73278147E+02 -0.88183434E+02 -0.10286616E+03 -0.11710791E+03 -0.13069062E+03
 -0.14340104E+03 -0.15503527E+03 -0.16540321E+03 -0.17433279E+03 -0.18167394E+03
 -0.18730212E+03 -0.19112134E+03 -0.19306653E+03 -0.19310535E+03 -0.19123913E+03
 -0.18750317E+03 -0.18196622E+03 -0.17472912E+03 -0.16592282E+03 -0.15570562E+03
 -0.14425977E+03 -0.13178759E+03 -0.11850707E+03 -0.10464716E+03 -0.90442811E+02
 -0.76129978E+02 -0.61940559E+02 -0.48097557E+02 -0.34810487E+02 -0.22271169E+02
 -0.10650011E+02 -0.92861574E-01  0.92814951E+01  0.17383141E+02  0.24152101E+02
  0.29558676E+02  0.33603031E+02  0.36314082E+02  0.37747708E+02  0.37984358E+02
  0.37126138E+02  0.35293444E+02  0.32621276E+02  0.29255298E+02  0.25347795E+02
  0.21053600E+02  0.16526135E+02  0.11913635E+02  0.73556804E+01  0.29800933E+01
 -0.10997090E+01 -0.47868629E+01 -0.80026613E+01 -0.10687591E+02 -0.12801796E+02
 -0.14324979E+02 -0.15255763E+02 -0.15610560E+02 -0.15421988E+02 -0.14736917E+02
 -0.13614203E+02 -0.12122193E+02 -0.10336088E+02 -0.83352416E+01 -0.62004839E+01
 -0.40115404E+01 -0.18446259E+01  0.22972511E+00  0.21485375E+01  0.38579397E+01
 Real Space Part
  0.00000000E+00 -0.30766977E+02 -0.61408405E+02 -0.91799233E+02 -0.12181542E+03
 -0.15133441E+03 -0.18023566E+03 -0.20840110E+03 -0.23571564E+03 -0.26206763E+03
 -0.28734934E+03 -0.31145742E+03 -0.33429336E+03 -0.35576389E+03 -0.37578146E+03
 -0.39426460E+03 -0.41113833E+03 -0.42633453E+03 -0.43979231E+03 -0.45145831E+03
 -0.46128703E+03 -0.46924109E+03 -0.47529152E+03 -0.47941794E+03 -0.48160876E+03
 -0.48186136E+03 -0.48018220E+03 -0.47658690E+03 -0.47110028E+03 -0.46375640E+03
 -0.45459847E+03 -0.44367881E+03 -0.43105872E+03 -0.41680827E+03 -0.40100614E+03
 -0.38373929E+03 -0.36510268E+03 -0.34519891E+03 -0.32413776E+03 -0.30203577E+03
 -0.27901570E+03 -0.25520598E+03 -0.23074009E+03 -0.20575592E+03 -0.18039504E+03
 -0.15480200E+03 -0.12912351E+03 -0.10350766E+03 -0.78103028E+02 -0.53057829E+02
 -0.28518989E+02 -0.46312192E+01  0.18463938E+02  0.40629067E+02  0.61731862E+02
  0.81646093E+02  0.10025259E+03  0.11744020E+03  0.13310676E+03  0.14716001E+03
  0.15951852E+03  0.17011255E+03  0.17888492E+03  0.18579179E+03  0.19080340E+03
  0.19390478E+03  0.19509636E+03  0.19439454E+03  0.19183220E+03  0.18745907E+03
  0.18134209E+03  0.17356562E+03  0.16423161E+03  0.15345961E+03  0.14138676E+03
  0.12816760E+03  0.11397383E+03  0.98993887E+02  0.83432560E+02  0.67510282E+02
  0.51462505E+02  0.35538883E+02  0.20002280E+02  0.51278495E+01 -0.87984228E+01
 -0.21479510E+02 -0.32602310E+02 -0.42073572E+02 -0.50336719E+02 -0.57195048E+02
 -0.62339201E+02 -0.65456371E+02 -0.66234202E+02 -0.64361440E+02 -0.59532582E+02
 -0.51432730E+02 -0.39756759E+02 -0.24664311E+02 -0.32220384E+01  0.21139507E-11
 Non local Part
           2           2   1.34778460764971     
  -1.50445579660336       -2.24440542166578       -2.24440542166578     
  -3.33112749067106     
 Reciprocal Space Part
  0.00000000E+00  0.55034344E+00  0.21822141E+01  0.48386956E+01  0.84267858E+01
  0.12820128E+02  0.17862726E+02  0.23373528E+02  0.29151760E+02  0.34982844E+02
  0.40644735E+02  0.45914494E+02  0.50574910E+02  0.54420982E+02  0.57266064E+02
  0.58947519E+02  0.59331700E+02  0.58318132E+02  0.55842761E+02  0.51880199E+02
  0.46444884E+02  0.39591135E+02  0.31412096E+02  0.22037612E+02  0.11631075E+02
  0.38536696E+00 -0.11482020E+02 -0.23734525E+02 -0.36122574E+02 -0.48389975E+02
 -0.60280483E+02 -0.71544342E+02 -0.81944634E+02 -0.91263255E+02 -0.99306368E+02
 -0.10590917E+03 -0.11093989E+03 -0.11430283E+03 -0.11594050E+03 -0.11583472E+03
 -0.11400662E+03 -0.11051574E+03 -0.10545800E+03 -0.98962892E+02 -0.91189766E+02
 -0.82323405E+02 -0.72569058E+02 -0.62147006E+02 -0.51286861E+02 -0.40221734E+02
 -0.29182446E+02 -0.18391929E+02 -0.80599689E+01  0.16215820E+01  0.10482993E+02
  0.18380157E+02  0.25197321E+02  0.30848994E+02  0.35281003E+02  0.38470690E+02
  0.40426271E+02  0.41185400E+02  0.40812999E+02  0.39398441E+02  0.37052175E+02
  0.33901923E+02  0.30088544E+02  0.25761717E+02  0.21075549E+02  0.16184247E+02
  0.11237971E+02  0.63789707E+01  0.17381172E+01 -0.25680976E+01 -0.64400212E+01
 -0.97967127E+01 -0.12577196E+02 -0.14741086E+02 -0.16268589E+02 -0.17159914E+02
 -0.17434127E+02 -0.17127513E+02 -0.16291513E+02 -0.14990315E+02 -0.13298190E+02
 -0.11296661E+02 -0.90715958E+01 -0.67103262E+01 -0.42988638E+01 -0.19193064E+01
  0.35250110E+00  0.24489886E+01  0.43125186E+01  0.58966448E+01  0.71669522E+01
  0.81014703E+01  0.86906694E+01  0.89370575E+01  0.88544111E+01  0.84666829E+01
 Real Space Part
  0.00000000E+00 -0.63742276E-01 -0.25512261E+00 -0.57459822E+00 -0.10229202E+01
 -0.16011173E+01 -0.23104727E+01 -0.31524952E+01 -0.41288837E+01 -0.52414852E+01
 -0.64922474E+01 -0.78831652E+01 -0.94162218E+01 -0.11093324E+02 -0.12916234E+02
 -0.14886494E+02 -0.17005349E+02 -0.19273666E+02 -0.21691846E+02 -0.24259741E+02
 -0.26976560E+02 -0.29840781E+02 -0.32850060E+02 -0.36001139E+02 -0.39289756E+02
 -0.42710560E+02 -0.46257025E+02 -0.49921372E+02 -0.53694492E+02 -0.57565885E+02
 -0.61523593E+02 -0.65554153E+02 -0.69642558E+02 -0.73772226E+02 -0.77924985E+02
 -0.82081072E+02 -0.86219146E+02 -0.90316319E+02 -0.94348200E+02 -0.98288965E+02
 -0.10211144E+03 -0.10578720E+03 -0.10928672E+03 -0.11257948E+03 -0.11563418E+03
 -0.11841889E+03 -0.12090130E+03 -0.12304894E+03 -0.12482943E+03 -0.12621075E+03
 -0.12716158E+03 -0.12765157E+03 -0.12765170E+03 -0.12713462E+03 -0.12607503E+03
 -0.12445005E+03 -0.12223959E+03 -0.11942679E+03 -0.11599837E+03 -0.11194510E+03
 -0.10726211E+03 -0.10194940E+03 -0.96012119E+02 -0.89461039E+02 -0.82312865E+02
 -0.74590598E+02 -0.66323861E+02 -0.57549192E+02 -0.48310310E+02 -0.38658351E+02
 -0.28652062E+02 -0.18357951E+02 -0.78503996E+01  0.27882931E+01  0.13467894E+02
  0.24090277E+02  0.34549549E+02  0.44732219E+02  0.54517397E+02  0.63777133E+02
  0.72376746E+02  0.80175252E+02  0.87025889E+02  0.92776628E+02  0.97271025E+02
  0.10034772E+03  0.10183559E+03  0.10175873E+03  0.10061824E+03  0.98367606E+02
  0.94863468E+02  0.89959556E+02  0.83509445E+02  0.75366453E+02  0.65387192E+02
  0.53417377E+02  0.39308398E+02  0.23324040E+02  0.29484438E+01 -0.19112072E-11
 Reciprocal Space Part
  0.00000000E+00 -0.34176916E+00 -0.13549519E+01 -0.30035324E+01 -0.52286673E+01
 -0.79504255E+01 -0.11070152E+02 -0.14473389E+02 -0.18033265E+02 -0.21614269E+02
 -0.25076272E+02 -0.28278717E+02 -0.31084822E+02 -0.33365699E+02 -0.35004262E+02
 -0.35898806E+02 -0.35966167E+02 -0.35144362E+02 -0.33394645E+02 -0.30702905E+02
 -0.27080383E+02 -0.22563681E+02 -0.17214061E+02 -0.11116061E+02 -0.43754637E+01
  0.28833230E+01  0.10520396E+02  0.18383911E+02  0.26313966E+02  0.34146692E+02
  0.41718447E+02  0.48870001E+02  0.55450582E+02  0.61321688E+02  0.66360556E+02
  0.70463191E+02  0.73546894E+02  0.75552195E+02  0.76444182E+02  0.76213158E+02
  0.74874650E+02  0.72468753E+02  0.69058851E+02  0.64729747E+02  0.59585270E+02
  0.53745429E+02  0.47343197E+02  0.40521016E+02  0.33427126E+02  0.26211823E+02
  0.19023741E+02  0.12006259E+02  0.52941359E+01 -0.98955354E+00 -0.67360956E+01
 -0.11853370E+02 -0.16267587E+02 -0.19924494E+02 -0.22790033E+02 -0.24850448E+02
 -0.26111856E+02 -0.26599303E+02 -0.26355354E+02 -0.25438264E+02 -0.23919799E+02
 -0.21882775E+02 -0.19418395E+02 -0.16623462E+02 -0.13597552E+02 -0.10440231E+02
 -0.72483836E+01 -0.41137361E+01 -0.11206243E+01  0.16559293E+01  0.41517916E+01
  0.63149161E+01  0.81061421E+01  0.94995884E+01  0.10482647E+02  0.11055595E+02
  0.11230853E+02  0.11031921E+02  0.10492047E+02  0.96526730E+01  0.85617143E+01
  0.72717367E+01  0.58380846E+01  0.43170230E+01  0.27639486E+01  0.12317196E+01
 -0.23084724E+00 -0.15802767E+01 -0.27794993E+01 -0.37986589E+01 -0.46156503E+01
 -0.52163829E+01 -0.55947750E+01 -0.57524922E+01 -0.56984502E+01 -0.54481093E+01
 Real Space Part
  0.00000000E+00  0.44354116E-01  0.17750200E+00  0.39969819E+00  0.71135998E+00
  0.11130571E+01  0.16054973E+01  0.21895078E+01  0.28660128E+01  0.36360074E+01
  0.45005272E+01  0.54606147E+01  0.65172819E+01  0.76714701E+01  0.89240057E+01
  0.10275554E+02  0.11726570E+02  0.13277247E+02  0.14927462E+02  0.16676724E+02
  0.18524113E+02  0.20468228E+02  0.22507126E+02  0.24638267E+02  0.26858460E+02
  0.29163805E+02  0.31549643E+02  0.34010507E+02  0.36540076E+02  0.39131134E+02
  0.41775531E+02  0.44464158E+02  0.47186920E+02  0.49932718E+02  0.52689446E+02
  0.55443988E+02  0.58182230E+02  0.60889084E+02  0.63548514E+02  0.66143588E+02
  0.68656530E+02  0.71068790E+02  0.73361130E+02  0.75513716E+02  0.77506231E+02
  0.79318002E+02  0.80928132E+02  0.82315659E+02  0.83459717E+02  0.84339720E+02
  0.84935550E+02  0.85227763E+02  0.85197804E+02  0.84828233E+02  0.84102960E+02
  0.83007487E+02  0.81529156E+02  0.79657406E+02  0.77384024E+02  0.74703411E+02
  0.71612832E+02  0.68112674E+02  0.64206694E+02  0.59902261E+02  0.55210590E+02
  0.50146955E+02  0.44730905E+02  0.38986440E+02  0.32942189E+02  0.26631547E+02
  0.20092805E+02  0.13369238E+02  0.65091746E+01 -0.43397681E+00 -0.74017240E+01
 -0.14330518E+02 -0.21151841E+02 -0.27792316E+02 -0.34173838E+02 -0.40213798E+02
 -0.45825296E+02 -0.50917417E+02 -0.55395573E+02 -0.59161838E+02 -0.62115488E+02
 -0.64152689E+02 -0.65163373E+02 -0.65163270E+02 -0.64475222E+02 -0.63069196E+02
 -0.60852844E+02 -0.57732025E+02 -0.53612575E+02 -0.48400240E+02 -0.42002954E+02
 -0.34321718E+02 -0.25261246E+02 -0.14991429E+02 -0.18953118E+01  0.12284826E-11
 PAW radial sets
         363   1.19292929792843     
(5E20.12)                                
 augmentation charges (non sperical)
 -0.147875785466E+00  0.341635285018E+00  0.688257015873E-01  0.674623675882E-01  0.373172938966E-01
  0.626028267644E-01  0.341635285018E+00 -0.273429680786E+00  0.160598199885E+00  0.154765175524E+00
  0.554322113280E-01  0.868159136675E-01  0.688257015873E-01  0.160598199885E+00  0.165208041447E+00
  0.160122553323E+00  0.689648261308E-01  0.112259161846E+00  0.674623675882E-01  0.154765175524E+00
  0.160122553323E+00  0.155147588402E+00  0.665420401073E-01  0.108376707902E+00  0.373172938966E-01
  0.554322113280E-01  0.689648261308E-01  0.665420401073E-01  0.309895301146E-01  0.506582605569E-01
  0.626028267644E-01  0.868159136675E-01  0.112259161846E+00  0.108376707902E+00  0.506582605569E-01
  0.826853721431E-01
 uccopancies in atom
  0.200000000251E+01  0.000000000000E+00  0.000000000000E+00  0.000000000000E+00  0.000000000000E+00
  0.000000000000E+00  0.000000000000E+00  0.199900000192E+01  0.000000000000E+00  0.000000000000E+00
  0.000000000000E+00  0.000000000000E+00  0.000000000000E+00  0.000000000000E+00  0.200000000240E+01
  0.000000000000E+00  0.000000000000E+00  0.000000000000E+00  0.000000000000E+00  0.000000000000E+00
  0.000000000000E+00  0.000000000000E+00  0.000000000000E+00  0.000000000000E+00  0.000000000000E+00
  0.000000000000E+00  0.000000000000E+00  0.000000000000E+00  0.200000001595E-03  0.000000000000E+00
  0.000000000000E+00  0.000000000000E+00  0.000000000000E+00  0.000000000000E+00  0.000000000000E+00
  0.000000000000E+00
 grid
  0.516206835015E-04  0.532992593511E-04  0.550324182998E-04  0.568219352538E-04  0.586696428349E-04
  0.605774332570E-04  0.625472602643E-04  0.645811411318E-04  0.666811587312E-04  0.688494636640E-04
  0.710882764639E-04  0.733998898710E-04  0.757866711792E-04  0.782510646614E-04  0.807955940716E-04
  0.834228652305E-04  0.861355686932E-04  0.889364825051E-04  0.918284750468E-04  0.948145079713E-04
  0.978976392372E-04  0.101081026240E-03  0.104367929048E-03  0.107761713734E-03  0.111265855832E-03
  0.114883943889E-03  0.118619683144E-03  0.122476899320E-03  0.126459542544E-03  0.130571691389E-03
  0.134817557057E-03  0.139201487683E-03  0.143727972798E-03  0.148401647916E-03  0.153227299289E-03
  0.158209868806E-03  0.163354459055E-03  0.168666338544E-03  0.174150947102E-03  0.179813901448E-03
  0.185661000943E-03  0.191698233526E-03  0.197931781851E-03  0.204368029618E-03  0.211013568105E-03
  0.217875202925E-03  0.224959960992E-03  0.232275097717E-03  0.239828104440E-03  0.247626716098E-03
  0.255678919152E-03  0.263992959762E-03  0.272577352232E-03  0.281440887729E-03  0.290592643289E-03
  0.300041991109E-03  0.309798608146E-03  0.319872486030E-03  0.330273941292E-03  0.341013625930E-03
  0.352102538320E-03  0.363552034478E-03  0.375373839688E-03  0.387580060511E-03  0.400183197185E-03
  0.413196156422E-03  0.426632264631E-03  0.440505281559E-03  0.454829414389E-03  0.469619332285E-03
  0.484890181414E-03  0.500657600460E-03  0.516937736639E-03  0.533747262233E-03  0.551103391664E-03
  0.569023899126E-03  0.587527136785E-03  0.606632053572E-03  0.626358214592E-03  0.646725821158E-03
  0.667755731479E-03  0.689469482020E-03  0.711889309559E-03  0.735038173959E-03  0.758939781680E-03
  0.783618610057E-03  0.809099932367E-03  0.835409843710E-03  0.862575287735E-03  0.890624084230E-03
  0.919584957614E-03  0.949487566352E-03  0.980362533328E-03  0.101224147721E-02  0.104515704481E-02
  0.107914294456E-02  0.111423398099E-02  0.115046609037E-02  0.118787637757E-02  0.122650315398E-02
  0.126638597680E-02  0.130756568951E-02  0.135008446376E-02  0.139398584247E-02  0.143931478450E-02
  0.148611771064E-02  0.153444255118E-02  0.158433879498E-02  0.163585754015E-02  0.168905154639E-02
  0.174397528901E-02  0.180068501472E-02  0.185923879924E-02  0.191969660676E-02  0.198212035136E-02
  0.204657396040E-02  0.211312344001E-02  0.218183694268E-02  0.225278483704E-02  0.232603977993E-02
  0.240167679081E-02  0.247977332860E-02  0.256040937097E-02  0.264366749627E-02  0.272963296811E-02
  0.281839382263E-02  0.291004095871E-02  0.300466823102E-02  0.310237254616E-02  0.320325396189E-02
  0.330741578959E-02  0.341496470007E-02  0.352601083283E-02  0.364066790879E-02  0.375905334683E-02
  0.388128838397E-02  0.400749819959E-02  0.413781204356E-02  0.427236336863E-02  0.441128996714E-02
  0.455473411205E-02  0.470284270270E-02  0.485576741523E-02  0.501366485792E-02  0.517669673153E-02
  0.534502999497E-02  0.551883703618E-02  0.569829584878E-02  0.588359021428E-02  0.607490989028E-02
  0.627245080487E-02  0.647641525719E-02  0.668701212468E-02  0.690445707692E-02  0.712897279654E-02
  0.736078920728E-02  0.760014370937E-02  0.784728142276E-02  0.810245543806E-02  0.836592707575E-02
  0.863796615382E-02  0.891885126405E-02  0.920887005734E-02  0.950831953829E-02  0.981750636932E-02
  0.101367471848E-01  0.104663689151E-01  0.108067091218E-01  0.111581163430E-01  0.115209504504E-01
  0.118955830178E-01  0.122823977017E-01  0.126817906341E-01  0.130941708284E-01  0.135199605977E-01
  0.139595959882E-01  0.144135272248E-01  0.148822191728E-01  0.153661518137E-01  0.158658207368E-01
  0.163817376468E-01  0.169144308876E-01  0.174644459838E-01  0.180323461987E-01  0.186187131119E-01
  0.192241472143E-01  0.198492685233E-01  0.204947172178E-01  0.211611542936E-01  0.218492622406E-01
  0.225597457415E-01  0.232933323933E-01  0.240507734530E-01  0.248328446063E-01  0.256403467626E-01
  0.264741068744E-01  0.273349787852E-01  0.282238441028E-01  0.291416131032E-01  0.300892256619E-01
  0.310676522169E-01  0.320778947627E-01  0.331209878758E-01  0.341979997748E-01  0.353100334139E-01
  0.364582276128E-01  0.376437582226E-01  0.388678393303E-01  0.401317245019E-01  0.414367080663E-01
  0.427841264407E-01  0.441753594992E-01  0.456118319861E-01  0.470950149746E-01  0.486264273739E-01
  0.502076374840E-01  0.518402646023E-01  0.535259806815E-01  0.552665120423E-01  0.570636411408E-01
  0.589192083943E-01  0.608351140659E-01  0.628133202102E-01  0.648558526834E-01  0.669648032171E-01
  0.691423315610E-01  0.713906676943E-01  0.737121141098E-01  0.761090481714E-01  0.785839245491E-01
  0.811392777325E-01  0.837777246266E-01  0.865019672316E-01  0.893147954100E-01  0.922190897436E-01
  0.952178244835E-01  0.983140705963E-01  0.101510998909E+00  0.104811883354E+00  0.108220104327E+00
  0.111739152144E+00  0.115372630616E+00  0.119124260744E+00  0.122997884525E+00  0.126997468888E+00
  0.131127109756E+00  0.135391036243E+00  0.139793614982E+00  0.144339354599E+00  0.149032910328E+00
  0.153879088780E+00  0.158882852866E+00  0.164049326877E+00  0.169383801734E+00  0.174891740406E+00
  0.180578783502E+00  0.186450755053E+00  0.192513668469E+00  0.198773732705E+00  0.205237358613E+00
  0.211911165510E+00  0.218801987959E+00  0.225916882763E+00  0.233263136197E+00  0.240848271466E+00
  0.248680056411E+00  0.256766511464E+00  0.265115917863E+00  0.273736826129E+00  0.282638064824E+00
  0.291828749597E+00  0.301318292510E+00  0.311116411685E+00  0.321233141253E+00  0.331678841628E+00
  0.342464210120E+00  0.353600291889E+00  0.365098491257E+00  0.376970583383E+00  0.389228726328E+00
  0.401885473501E+00  0.414953786518E+00  0.428447048472E+00  0.442379077644E+00  0.456764141648E+00
  0.471616972047E+00  0.486952779438E+00  0.502787269027E+00  0.519136656714E+00  0.536017685703E+00
  0.553447643642E+00  0.571444380330E+00  0.590026325999E+00  0.609212510185E+00  0.629022581217E+00
  0.649476826338E+00  0.670596192484E+00  0.692402307731E+00  0.714917503446E+00  0.738164837157E+00
  0.762168116165E+00  0.786951921926E+00  0.812541635222E+00  0.838963462156E+00  0.866244460988E+00
  0.894412569843E+00  0.923496635328E+00  0.953526442067E+00  0.984532743205E+00  0.101654729191E+01
  0.104960287386E+01  0.108373334088E+01  0.111897364554E+01  0.115535987700E+01  0.119292929793E+01
  0.123172038270E+01  0.127177285678E+01  0.131312773740E+01  0.135582737557E+01  0.139991549944E+01
  0.144543725912E+01  0.149243927287E+01  0.154096967484E+01  0.159107816441E+01  0.164281605707E+01
  0.169623633692E+01  0.175139371100E+01  0.180834466529E+01  0.186714752254E+01  0.192786250201E+01
  0.199055178114E+01  0.205527955925E+01  0.212211212322E+01  0.219111791544E+01  0.226236760388E+01
  0.233593415445E+01  0.241189290570E+01  0.249032164606E+01  0.257130069340E+01  0.265491297734E+01
  0.274124412416E+01  0.283038254451E+01  0.292241952392E+01  0.301744931629E+01  0.311556924044E+01
  0.321687977975E+01  0.332148468505E+01  0.342949108092E+01  0.354100957534E+01  0.365615437299E+01
  0.377504339221E+01  0.389779838574E+01  0.402454506543E+01  0.415541323094E+01  0.429053690272E+01
  0.443005445922E+01  0.457410877860E+01  0.472284738508E+01  0.487642259997E+01  0.503499169774E+01
  0.519871706698E+01  0.536776637679E+01  0.554231274842E+01
 aepotential
  0.109295537534E+05  0.110797673478E+05  0.112163116612E+05  0.113381991515E+05  0.114445193981E+05
  0.115344461907E+05  0.116072482392E+05  0.116622997364E+05  0.116990942483E+05  0.117172499900E+05
  0.117165152602E+05  0.116967793811E+05  0.116580676434E+05  0.116005580862E+05  0.115245524832E+05
  0.114305066100E+05  0.113189935443E+05  0.111907209151E+05  0.110465043540E+05  0.108872630099E+05
  0.107140107264E+05  0.105278321627E+05  0.103298800637E+05  0.101213501391E+05  0.990347389001E+04
  0.967749715183E+04  0.944467059058E+04  0.920623381640E+04  0.896340200615E+04  0.871735509799E+04
  0.846922770045E+04  0.822009887525E+04  0.797098582924E+04  0.772283722353E+04  0.747652870005E+04
  0.723285987640E+04  0.699255259413E+04  0.675625027871E+04  0.652451863028E+04  0.629784727363E+04
  0.607665221784E+04  0.586127907165E+04  0.565200685553E+04  0.544905224047E+04  0.525257410505E+04
  0.506267830698E+04  0.487942253749E+04  0.470282118889E+04  0.453285013772E+04  0.436945138931E+04
  0.421253752356E+04  0.406199590395E+04  0.391769261493E+04  0.377947611096E+04  0.364718057398E+04
  0.352062893808E+04  0.339963564969E+04  0.328400910293E+04  0.317355379435E+04  0.306807223300E+04
  0.296736654011E+04  0.287123991794E+04  0.277949776628E+04  0.269194871371E+04  0.260840545095E+04
  0.252868533810E+04  0.245261096090E+04  0.238001051832E+04  0.231071810766E+04  0.224457389752E+04
  0.218142428210E+04  0.212112188897E+04  0.206352558335E+04  0.200850041427E+04  0.195591750447E+04
  0.190565391794E+04  0.185759253553E+04  0.181162182970E+04  0.176763572525E+04  0.172553337298E+04
  0.168521895053E+04  0.164660145788E+04  0.160959450763E+04  0.157411609674E+04  0.154008846198E+04
  0.150743772990E+04  0.147609397763E+04  0.144599073012E+04  0.141706501380E+04  0.138925706448E+04
  0.136251020844E+04  0.133677064074E+04  0.131198730679E+04  0.128811177825E+04  0.126509802793E+04
  0.124290237381E+04  0.122148331759E+04  0.120080141579E+04  0.118081917902E+04  0.116150095863E+04
  0.114281283088E+04  0.112472252127E+04  0.110719929615E+04  0.109021387239E+04  0.107373835719E+04
  0.105774614099E+04  0.104221185006E+04  0.102711126135E+04  0.101242124617E+04  0.998119702657E+03
  0.984185507937E+03  0.970598451777E+03  0.957339196248E+03  0.944389220842E+03  0.931730783287E+03
  0.919346870817E+03  0.907221166558E+03  0.895338007657E+03  0.883682352121E+03  0.872239746971E+03
  0.860996295010E+03  0.849938627240E+03  0.839053876190E+03  0.828329649552E+03  0.817754007280E+03
  0.807315438910E+03  0.797002844085E+03  0.786805511918E+03  0.776713104410E+03  0.766715640397E+03
  0.756803479093E+03  0.746967307461E+03  0.737198125183E+03  0.727487238371E+03  0.717826241995E+03
  0.708207017161E+03  0.698621717615E+03  0.689062765481E+03  0.679522845022E+03  0.669994895286E+03
  0.660472107752E+03  0.650947922242E+03  0.641416025207E+03  0.631870347201E+03  0.622305063568E+03
  0.612714595230E+03  0.603093609107E+03  0.593437022626E+03  0.583740005666E+03  0.573997986603E+03
  0.564206658074E+03  0.554361984025E+03  0.544460208197E+03  0.534497864191E+03  0.524471786379E+03
  0.514379123028E+03  0.504217350245E+03  0.493984288559E+03  0.483678120645E+03  0.473297411622E+03
  0.462841131208E+03  0.452308678495E+03  0.441699909386E+03  0.431015166433E+03  0.420255311950E+03
  0.409421764266E+03  0.398516536819E+03  0.387542280797E+03  0.376502330746E+03  0.365400753106E+03
  0.354242396991E+03  0.343032946736E+03  0.331778974427E+03  0.320487991285E+03  0.309168494956E+03
  0.297830009640E+03  0.286483114916E+03  0.275139457840E+03  0.263811742074E+03  0.252513686640E+03
  0.241259946352E+03  0.230065985722E+03  0.218947899559E+03  0.207922176085E+03  0.197005404134E+03
  0.186213935214E+03  0.175563525314E+03  0.165069000971E+03  0.154744019675E+03  0.144601024093E+03
  0.134651518415E+03  0.124906813631E+03  0.115379379856E+03  0.106084885830E+03  0.970448716614E+02
  0.882897766783E+02  0.798617386580E+02  0.718162838901E+02  0.642218019512E+02  0.571559026315E+02
  0.506982418813E+02  0.449204187190E+02  0.398746185864E+02  0.355833801127E+02  0.320328178019E+02
  0.291708076200E+02  0.269104555803E+02  0.251381347292E+02  0.237246914856E+02  0.225379427384E+02
  0.214542303749E+02  0.203668993350E+02  0.191904685506E+02  0.178607061404E+02  0.163319983725E+02
  0.145737064639E+02  0.125667256297E+02  0.103007449523E+02  0.777219607570E+01  0.498269882525E+01
  0.193783606470E+01 -0.135382019657E+01 -0.488145400518E+01 -0.863252436071E+01 -0.125930702146E+02
 -0.167478277131E+02 -0.210801963211E+02 -0.255720982907E+02 -0.302037763408E+02 -0.349535826140E+02
 -0.397978156013E+02 -0.447106734216E+02 -0.496643983490E+02 -0.546296805544E+02 -0.595763552854E+02
 -0.644743398123E+02 -0.692945926049E+02 -0.740096305640E+02 -0.785928598519E+02 -0.830158159548E+02
 -0.872426922430E+02 -0.912226650378E+02 -0.948826710543E+02 -0.981257758626E+02 -0.100841204218E+03
 -0.102929534586E+03 -0.104339828590E+03 -0.105106019804E+03 -0.105360479955E+03 -0.105304107831E+03
 -0.105139187868E+03 -0.105007617190E+03 -0.104974271970E+03 -0.105051703496E+03 -0.105234247620E+03
 -0.105519174685E+03 -0.105912297023E+03 -0.106424755962E+03 -0.107067673829E+03 -0.107848329392E+03
 -0.108768777359E+03 -0.109826309886E+03 -0.111014758790E+03 -0.112325859537E+03 -0.113750288548E+03
 -0.115278277172E+03 -0.116899857731E+03 -0.118604838456E+03 -0.120382598200E+03 -0.122221770373E+03
 -0.124109867649E+03 -0.126032898410E+03 -0.127975029553E+03 -0.129918379387E+03 -0.131843044352E+03
 -0.133727496296E+03 -0.135549439724E+03 -0.137287187009E+03 -0.138921329700E+03 -0.140436220072E+03
 -0.141820223734E+03 -0.143063508360E+03 -0.144152235871E+03 -0.145060031421E+03 -0.145741484511E+03
 -0.146136371828E+03 -0.146190807808E+03 -0.145887984998E+03 -0.145265770058E+03 -0.144402589293E+03
 -0.143380807213E+03 -0.142257221290E+03 -0.141057544782E+03 -0.139787454781E+03 -0.138445232700E+03
 -0.137028922184E+03 -0.135538456231E+03 -0.133975391223E+03 -0.132342155263E+03 -0.130641570211E+03
 -0.128876732718E+03 -0.127051081587E+03 -0.125168492031E+03 -0.123233289975E+03 -0.121250162978E+03
 -0.119223976160E+03 -0.117159528006E+03 -0.115061298626E+03 -0.112933228240E+03 -0.110778605912E+03
 -0.108600101248E+03 -0.106399987314E+03 -0.104180542836E+03 -0.101944578738E+03 -0.996959815493E+02
 -0.974401349881E+02 -0.951840683854E+02 -0.929361562158E+02 -0.907051239350E+02 -0.884980437523E+02
 -0.863172052702E+02 -0.841567604525E+02 -0.820020180068E+02 -0.798352493564E+02 -0.776476870653E+02
 -0.754487106761E+02 -0.732622600487E+02 -0.711136852387E+02 -0.690196981718E+02 -0.669871505814E+02
 -0.650167841269E+02 -0.631070445177E+02 -0.612562306734E+02 -0.594632799706E+02 -0.577278408960E+02
 -0.560500323979E+02 -0.544300521489E+02 -0.528676811433E+02 -0.513617554255E+02 -0.499097592904E+02
 -0.485077024396E+02 -0.471504173109E+02 -0.458321796708E+02 -0.445474773839E+02 -0.432916500456E+02
 -0.420612872622E+02 -0.408543426238E+02 -0.396700416378E+02 -0.385086673674E+02 -0.373712944371E+02
 -0.362595124511E+02 -0.351751568197E+02 -0.341200539415E+02 -0.330957879981E+02 -0.321035034924E+02
 -0.311437641464E+02 -0.302164881718E+02 -0.293209692578E+02 -0.284559750834E+02 -0.276198984876E+02
 -0.268109279726E+02 -0.260272064583E+02 -0.252669572462E+02
 core charge-density
  0.381855044404E-02  0.405973375761E-02  0.431611589384E-02  0.458865126689E-02  0.487835389415E-02
  0.518630108666E-02  0.551363736478E-02  0.586157861288E-02  0.623141648707E-02  0.662452309118E-02
  0.704235593678E-02  0.748646320417E-02  0.795848932207E-02  0.846018088469E-02  0.899339292638E-02
  0.956009557403E-02  0.101623811004E-01  0.108024714004E-01  0.114827259164E-01  0.122056500368E-01
  0.129739039971E-01  0.137903123103E-01  0.146578737583E-01  0.155797719765E-01  0.165593866637E-01
  0.176003054542E-01  0.187063364887E-01  0.198815217232E-01  0.211301510170E-01  0.224567770432E-01
  0.238662310672E-01  0.253636396397E-01  0.269544422566E-01  0.286444100344E-01  0.304396654604E-01
  0.323467032710E-01  0.343724125207E-01  0.365240999036E-01  0.388095143935E-01  0.412368732697E-01
  0.438148896023E-01  0.465528012685E-01  0.494604015795E-01  0.525480715972E-01  0.558268142250E-01
  0.593082901592E-01  0.630048557905E-01  0.669296031488E-01  0.710964019877E-01  0.755199441074E-01
  0.802157900179E-01  0.852004180478E-01  0.904912760063E-01  0.961068355079E-01  0.102066649074E+00
  0.108391410122E+00  0.115103015967E+00  0.122224633939E+00  0.129780770755E+00  0.137797345241E+00
  0.146301764547E+00  0.155323003956E+00  0.164891690417E+00  0.175040189903E+00  0.185802698723E+00
  0.197215338882E+00  0.209316257596E+00  0.222145731065E+00  0.235746272577E+00  0.250162745035E+00
  0.265442477967E+00  0.281635389074E+00  0.298794110349E+00  0.316974118795E+00  0.336233871732E+00
  0.356634946675E+00  0.378242185726E+00  0.401123844398E+00  0.425351744756E+00  0.451001432729E+00
  0.478152339376E+00  0.506887945878E+00  0.537295951959E+00  0.569468447367E+00  0.603502086004E+00
  0.639498262220E+00  0.677563288691E+00  0.717808575224E+00  0.760350807767E+00  0.805312126742E+00
  0.852820303770E+00  0.903008915689E+00  0.956017514678E+00  0.101199179312E+01  0.107108374171E+01
  0.113345179918E+01  0.119926099177E+01  0.126868306039E+01  0.134189657343E+01  0.141908702257E+01
  0.150044689908E+01  0.158617574779E+01  0.167648019538E+01  0.177157394992E+01  0.187167776776E+01
  0.197701938397E+01  0.208783340217E+01  0.220436113904E+01  0.232685041906E+01  0.245555531397E+01
  0.259073582190E+01  0.273265748029E+01  0.288159090657E+01  0.303781126048E+01  0.320159762129E+01
  0.337323227325E+01  0.355299989222E+01  0.374118662616E+01  0.393807906237E+01  0.414396307370E+01
  0.435912253654E+01  0.458383791296E+01  0.481838468979E+01  0.506303166744E+01  0.531803909186E+01
  0.558365662309E+01  0.586012113506E+01  0.614765434135E+01  0.644646024321E+01  0.675672239699E+01
  0.707860099939E+01  0.741222979090E+01  0.775771277941E+01  0.811512078817E+01  0.848448783485E+01
  0.886580735114E+01  0.925902825551E+01  0.966405089518E+01  0.100807228772E+02  0.105088348132E+02
  0.109481160052E+02  0.113982301087E+02  0.118587708094E+02  0.123292575601E+02  0.128091314278E+02
  0.132977511088E+02  0.137943891739E+02  0.142982286157E+02  0.148083597745E+02  0.153237777248E+02
  0.158433802162E+02  0.163659662616E+02  0.168902354779E+02  0.174147882855E+02  0.179381270789E+02
  0.184586584840E+02  0.189746968191E+02  0.194844688770E+02  0.199861201453E+02  0.204777225749E+02
  0.209572840056E+02  0.214227593423E+02  0.218720635689E+02  0.223030866655E+02  0.227137104790E+02
  0.231018275708E+02  0.234653620377E+02  0.238022922690E+02  0.241106755658E+02  0.243886745063E+02
  0.246345848932E+02  0.248468650700E+02  0.250241663375E+02  0.251653641433E+02  0.252695896563E+02
  0.253362612786E+02  0.253651155796E+02  0.253562370812E+02  0.253100862592E+02  0.252275250757E+02
  0.251098393070E+02  0.249587568939E+02  0.247764615149E+02  0.245656005681E+02  0.243292867527E+02
  0.240710924618E+02  0.237950362449E+02  0.235055606639E+02  0.232075009622E+02  0.229060440850E+02
  0.226066777398E+02  0.223151293586E+02  0.220372950273E+02  0.217791586731E+02  0.215467020499E+02
  0.213458063252E+02  0.211821463532E+02  0.210610790066E+02  0.209875272362E+02  0.209658618275E+02
  0.209997830838E+02  0.210922050014E+02  0.212451447090E+02  0.214596201823E+02  0.217355594016E+02
  0.220717242033E+02  0.224656520736E+02  0.229136190266E+02  0.234106264957E+02  0.239504148304E+02
  0.245255055396E+02  0.251272738573E+02  0.257460525578E+02  0.263712672300E+02  0.269916024389E+02
  0.275951973586E+02  0.281698685453E+02  0.287033565573E+02  0.291835921431E+02  0.295989767522E+02
  0.299386712146E+02  0.301928856172E+02  0.303531627194E+02  0.304126467228E+02  0.303663288806E+02
  0.302112613306E+02  0.299467306958E+02  0.295743834451E+02  0.290982957648E+02  0.285249817709E+02
  0.278633353076E+02  0.271245023016E+02  0.263216826720E+02  0.254698630773E+02  0.245854842593E+02
  0.236860493365E+02  0.227896819956E+02  0.219146460034E+02  0.210788396476E+02  0.202992804653E+02
  0.195915967489E+02  0.189695427411E+02  0.184445540972E+02  0.180253592577E+02  0.177176611626E+02
  0.175239023705E+02  0.174431258925E+02  0.174709429458E+02  0.175996173675E+02  0.178182721987E+02
  0.181132149189E+02  0.184683661991E+02  0.188657689033E+02  0.192861535962E+02  0.197095405258E+02
  0.201158601326E+02  0.204855730624E+02  0.208002684488E+02  0.210432180544E+02  0.211998646541E+02
  0.212582258541E+02  0.212091989058E+02  0.210467572788E+02  0.207680352427E+02  0.203733019600E+02
  0.198658313441E+02  0.192516779990E+02  0.185393727924E+02  0.177395539668E+02  0.168645511415E+02
  0.159279401325E+02  0.149440862816E+02  0.139276931030E+02  0.128933715884E+02  0.118552436846E+02
  0.108265913057E+02  0.981956001530E+01  0.884492384578E+01  0.791191540642E+01  0.702812224443E+01
  0.619944764716E+01  0.543013027349E+01  0.472281463166E+01  0.407866147659E+01  0.349748734508E+01
  0.297792486256E+01  0.251760007676E+01  0.211332616852E+01  0.176131015510E+01  0.145736091281E+01
  0.119708056925E+01  0.976024024328E+00  0.789822345466E+00  0.634274383596E+00  0.505413732158E+00
  0.399556269730E+00  0.313331328259E+00  0.243698506937E+00  0.187952041757E+00  0.143714812447E+00
  0.108924170963E+00  0.818117242090E-01  0.608790293861E-01  0.448709152258E-01  0.327478664528E-01
  0.236586275409E-01  0.169139111513E-01  0.119618475552E-01  0.836559112430E-02  0.578331326118E-02
  0.395065959804E-02  0.266563225694E-02  0.177577280834E-02  0.116746438078E-02  0.757137558103E-03
  0.484149495800E-03  0.305104562760E-03  0.189393801420E-03  0.115746303410E-03  0.696056517925E-04
  0.411669055399E-04  0.239326759090E-04  0.136694707808E-04  0.766674079759E-05  0.422031735966E-05
  0.227885121178E-05  0.120631772604E-05  0.625600437150E-06  0.317627072395E-06  0.157762834364E-06
  0.766001230769E-07  0.363289529153E-07  0.168161163504E-07  0.759079522424E-08  0.333859947213E-08
  0.142945337542E-08  0.595255479135E-09  0.240851713149E-09  0.945978268456E-10  0.360294995901E-10
  0.132932654318E-10  0.474617663813E-11  0.163805993041E-11  0.545904385608E-12  0.175478027490E-12
  0.543445584076E-13  0.161961333429E-13  0.463946482718E-14  0.127581306975E-14  0.336364352029E-15
  0.849093617802E-16  0.204936355640E-16  0.472248250791E-17  0.103741843910E-17  0.216914283316E-18
  0.430988237619E-19  0.812368256464E-20  0.145008434999E-20  0.244683627182E-21  0.389567615548E-22
  0.584115335363E-23  0.823189914183E-24  0.108820497189E-24
 kinetic energy-density
  0.990974966378E+04  0.994040467184E+04  0.997278898869E+04  0.100069578850E+05  0.100429686991E+05
  0.100808808626E+05  0.101207559380E+05  0.101626578734E+05  0.102066534182E+05  0.102528113153E+05
  0.103012035484E+05  0.103519048851E+05  0.104049939210E+05  0.104605515885E+05  0.105186634194E+05
  0.105794178124E+05  0.106429081722E+05  0.107092314626E+05  0.107784892993E+05  0.108507883954E+05
  0.109262400532E+05  0.110049610349E+05  0.110870736890E+05  0.111727061296E+05  0.112619924271E+05
  0.113550730736E+05  0.114520954520E+05  0.115532136770E+05  0.116585891510E+05  0.117683910420E+05
  0.118827962978E+05  0.120019902833E+05  0.121261669670E+05  0.122555293974E+05  0.123902900505E+05
  0.125306713098E+05  0.126769059095E+05  0.128292373391E+05  0.129879204298E+05  0.131532218382E+05
  0.133254206005E+05  0.135048087338E+05  0.136916918584E+05  0.138863898450E+05  0.140892375131E+05
  0.143005853552E+05  0.145208003185E+05  0.147502666029E+05  0.149893865250E+05  0.152385814128E+05
  0.154982925522E+05  0.157689821780E+05  0.160511345312E+05  0.163452569225E+05  0.166518809170E+05
  0.169715635288E+05  0.173048884486E+05  0.176524674342E+05  0.180149416035E+05  0.183929829908E+05
  0.187872959217E+05  0.191986187152E+05  0.196277252754E+05  0.200754267713E+05  0.205425735256E+05
  0.210300567873E+05  0.215388107187E+05  0.220698143889E+05  0.226240939203E+05  0.232027245973E+05
  0.238068331559E+05  0.244376001804E+05  0.250962623808E+05  0.257841152771E+05  0.265025156194E+05
  0.272528841687E+05  0.280367083746E+05  0.288555452362E+05  0.297110241521E+05  0.306048499339E+05
  0.315388058031E+05  0.325147564729E+05  0.335346513660E+05  0.346005276430E+05  0.357145137715E+05
  0.368788322189E+05  0.380958033449E+05  0.393678483593E+05  0.406974925567E+05  0.420873686131E+05
  0.435402198269E+05  0.450589033377E+05  0.466463927121E+05  0.483057814361E+05  0.500402853372E+05
  0.518532450320E+05  0.537481286919E+05  0.557285336690E+05  0.577981887137E+05  0.599609550566E+05
  0.622208276849E+05  0.645819357649E+05  0.670485428277E+05  0.696250461239E+05  0.723159754611E+05
  0.751259913299E+05  0.780598821033E+05  0.811225603275E+05  0.843190582509E+05  0.876545218055E+05
  0.911342038225E+05  0.947634557084E+05  0.985477176216E+05  0.102492507251E+06  0.106603406790E+06
  0.110886048105E+06  0.115346095919E+06  0.119989228932E+06  0.124821118531E+06  0.129847405281E+06
  0.135073672725E+06  0.140505418392E+06  0.146148022147E+06  0.152006711262E+06  0.158086522527E+06
  0.164392260864E+06  0.170928454730E+06  0.177699307617E+06  0.184708646443E+06  0.191959865400E+06
  0.199455867103E+06  0.207198998716E+06  0.215190985129E+06  0.223432858111E+06  0.231924881422E+06
  0.240666472985E+06  0.249656123040E+06  0.258891309502E+06  0.268368410445E+06  0.278082614048E+06
  0.288027826549E+06  0.298196578865E+06  0.308579932340E+06  0.319167384444E+06  0.329946775352E+06
  0.340904196172E+06  0.352023900165E+06  0.363288217975E+06  0.374677478148E+06  0.386169934573E+06
  0.397741702255E+06  0.409366703140E+06  0.421016623760E+06  0.432660886737E+06  0.444266637668E+06
  0.455798750237E+06  0.467219850701E+06  0.478490364622E+06  0.489568587611E+06  0.500410782221E+06
  0.510971303009E+06  0.521202751685E+06  0.531056164031E+06  0.540481230116E+06  0.549426548941E+06
  0.557839918581E+06  0.565668662130E+06  0.572859989520E+06  0.579361394702E+06  0.585121087119E+06
  0.590088455501E+06  0.594214561684E+06  0.597452661015E+06  0.599758745188E+06  0.601092102705E+06
  0.601415890811E+06  0.600697712445E+06  0.598910190283E+06  0.596031529690E+06  0.592046061088E+06
  0.586944752023E+06  0.580725678413E+06  0.573394444071E+06  0.564964537561E+06  0.555457615342E+06
  0.544903700453E+06  0.533341286686E+06  0.520817339060E+06  0.507387182568E+06  0.493114272952E+06
  0.478069844928E+06  0.462332435568E+06  0.445987282748E+06  0.429125601030E+06  0.411843739457E+06
  0.394242228048E+06  0.376424721686E+06  0.358496853591E+06  0.340565001904E+06  0.322735009280E+06
  0.305110843311E+06  0.287793246666E+06  0.270878396458E+06  0.254456606996E+06  0.238611109129E+06
  0.223416937038E+06  0.208939948627E+06  0.195235999848E+06  0.182350287877E+06  0.170316873445E+06
  0.159158389319E+06  0.148885939098E+06  0.139499188374E+06  0.130986647971E+06  0.123326146404E+06
  0.116485485365E+06  0.110423268160E+06  0.105089886601E+06  0.100428647701E+06  0.963770173671E+05
  0.928679551082E+05  0.898313111407E+05  0.871952557876E+05  0.848877101817E+05  0.828377476985E+05
  0.809769359861E+05  0.792405915450E+05  0.775689203506E+05  0.759080210353E+05  0.742107297578E+05
  0.724372893420E+05  0.705558287524E+05  0.685426428912E+05  0.663822667773E+05  0.640673431094E+05
  0.615982871926E+05  0.589827591765E+05  0.562349600362E+05  0.533747741630E+05  0.504267876177E+05
  0.474192149801E+05  0.443827689675E+05  0.413495039319E+05  0.383516608781E+05  0.354205373459E+05
  0.325854178531E+05  0.298726002109E+05  0.273045856613E+05  0.248994761035E+05  0.226706266501E+05
  0.206265498542E+05  0.187710279852E+05  0.171033715449E+05  0.156187830053E+05  0.143088138122E+05
  0.131619109172E+05  0.121640394392E+05  0.112993563577E+05  0.105509042433E+05  0.990129290798E+04
  0.933333876856E+04  0.883063538506E+04  0.837803390116E+04  0.796201888245E+04  0.757097197606E+04
  0.719532329005E+04  0.682759647582E+04  0.646235881772E+04  0.609609139369E+04  0.572699662764E+04
  0.535476131908E+04  0.498029284339E+04  0.460544465454E+04  0.423274504515E+04  0.386514041414E+04
  0.350576165568E+04  0.315771941008E+04  0.282393233316E+04  0.250699016319E+04  0.220905305289E+04
  0.193178696770E+04  0.167633542501E+04  0.144332450700E+04  0.123289658214E+04  0.104476302842E+04
  0.878262795310E+03  0.732415199051E+03  0.605965160300E+03  0.497431944868E+03  0.405174674896E+03
  0.327474060427E+03  0.262613649190E+03  0.208942988346E+03  0.164917213986E+03  0.129118242687E+03
  0.100264644355E+03  0.772147792036E+02  0.589653092562E+02  0.446460925311E+02  0.335122266739E+02
  0.249340250907E+02  0.183857033931E+02  0.134334787056E+02  0.972366306046E+01  0.697119863540E+01
  0.494895516137E+01  0.347799745582E+01  0.241893629159E+01  0.166439918756E+01  0.113259898031E+01
  0.761935598565E+00  0.506538874781E+00  0.332644941448E+00  0.215693417924E+00  0.138034651897E+00
  0.871434606366E-01  0.542461022715E-01  0.332790040266E-01  0.201098181684E-01  0.119628693567E-01
  0.700151018501E-02  0.402911608627E-02  0.227838792350E-02  0.126533011005E-02  0.689798255247E-03
  0.368958402021E-03  0.193530389167E-03  0.994904135782E-04  0.500933388192E-04  0.246844991096E-04
  0.118953315062E-04  0.560129674253E-05  0.257515736580E-05  0.115493157372E-05  0.504857950792E-06
  0.214908152099E-06  0.890026546362E-07  0.358260747425E-07  0.140024957763E-07  0.530848175387E-08
  0.194997789408E-08  0.693281068621E-09  0.238302033569E-09  0.791038554996E-10  0.253294763536E-10
  0.781472525289E-11  0.232033773967E-11  0.662243253453E-12  0.181458070325E-12  0.476730213458E-13
  0.119930840376E-13  0.288503852151E-14  0.662689778305E-15  0.145129433255E-15  0.302557882635E-16
  0.599463502546E-17  0.112689820996E-17  0.200638513660E-18  0.337727340511E-19  0.536451688529E-20
  0.802553161084E-21  0.112859583199E-21  0.148882343907E-22
 mkinetic energy-density pseudized
  0.109842191696E-06  0.117101925576E-06  0.124841472675E-06  0.133092544999E-06  0.141888950476E-06
  0.151266731480E-06  0.161264312513E-06  0.171922657645E-06  0.183285438357E-06  0.195399212485E-06
  0.208313614982E-06  0.222081561296E-06  0.236759464181E-06  0.252407464846E-06  0.269089679376E-06
  0.286874461442E-06  0.305834682372E-06  0.326048029734E-06  0.347597325652E-06  0.370570866164E-06
  0.395062783002E-06  0.421173429290E-06  0.449009790728E-06  0.478685923957E-06  0.510323423894E-06
  0.544051921952E-06  0.580009617193E-06  0.618343842584E-06  0.659211668679E-06  0.702780547199E-06
  0.749228997144E-06  0.798747336261E-06  0.851538460848E-06  0.907818677101E-06  0.967818587403E-06
  0.103178403520E-05  0.109997711230E-05  0.117267723279E-05  0.125018227789E-05  0.133280981649E-05
  0.142089840636E-05  0.151480898135E-05  0.161492633027E-05  0.172166067353E-05  0.183544934396E-05
  0.195675857874E-05  0.208608542978E-05  0.222395980028E-05  0.237094661598E-05  0.252764813987E-05
  0.269470643991E-05  0.287280601981E-05  0.306267662370E-05  0.326509622619E-05  0.348089422000E-05
  0.371095481432E-05  0.395622065773E-05  0.421769670061E-05  0.449645431276E-05  0.479363567325E-05
  0.511045845029E-05  0.544822079053E-05  0.580830663801E-05  0.619219140466E-05  0.660144801567E-05
  0.703775335424E-05  0.750289513247E-05  0.799877921614E-05  0.852743743383E-05  0.909103590194E-05
  0.969188390007E-05  0.103324433329E-04  0.110153388175E-04  0.117433684372E-04  0.125195152063E-04
  0.133469592923E-04  0.142290910466E-04  0.151695248951E-04  0.161721141482E-04  0.172409667885E-04
  0.183804623031E-04  0.195952696270E-04  0.208903662734E-04  0.222710587278E-04  0.237430041905E-04
  0.253122337548E-04  0.269851771189E-04  0.287686889293E-04  0.306700768660E-04  0.326971315839E-04
  0.348581586327E-04  0.371620124860E-04  0.396181328203E-04  0.422365831907E-04  0.450280922628E-04
  0.480040977695E-04  0.511767933732E-04  0.545591786240E-04  0.581651122205E-04  0.620093687893E-04
  0.661076994175E-04  0.704768961854E-04  0.751348609632E-04  0.801006787549E-04  0.853946958878E-04
  0.910386033700E-04  0.970555257558E-04  0.103470115883E-03  0.110308655871E-03  0.117599164794E-03
  0.125371513463E-03  0.133657546803E-03  0.142491214305E-03  0.151908709106E-03  0.161948616255E-03
  0.172652070772E-03  0.184062926160E-03  0.196227934037E-03  0.209196935650E-03  0.223023066031E-03
  0.237762971647E-03  0.253477042423E-03  0.270229659097E-03  0.288089456917E-03  0.307129606749E-03
  0.327428114764E-03  0.349068141909E-03  0.372138344488E-03  0.396733237230E-03  0.422953580343E-03
  0.450906792122E-03  0.480707388810E-03  0.512477453497E-03  0.546347135991E-03  0.582455185681E-03
  0.620949519590E-03  0.661987827924E-03  0.705738219592E-03  0.752379910338E-03  0.802103956288E-03
  0.855114035903E-03  0.911627283539E-03  0.971875177997E-03  0.103610448969E-02  0.110457829033E-02
  0.117757702910E-02  0.125539967996E-02  0.133836496448E-02  0.142681265531E-02  0.152110496560E-02
  0.162162802999E-02  0.172879348318E-02  0.184304014246E-02  0.196483580109E-02  0.209467913980E-02
  0.223310176410E-02  0.238067037566E-02  0.253798908659E-02  0.270570188598E-02  0.288449526857E-02
  0.307510103628E-02  0.327829928377E-02  0.349492158018E-02  0.372585435976E-02  0.397204253501E-02
  0.423449334686E-02  0.451428046731E-02  0.481254837095E-02  0.513051699270E-02  0.546948669059E-02
  0.583084353300E-02  0.621606493167E-02  0.662672564259E-02  0.706450415855E-02  0.753118951862E-02
  0.802868856130E-02  0.855903364976E-02  0.912439089948E-02  0.972706894024E-02  0.103695282467E-01
  0.110543910735E-01  0.117844520330E-01  0.125626893574E-01  0.133922768862E-01  0.142765968267E-01
  0.152192533350E-01  0.162240869681E-01  0.172951900618E-01  0.184369230916E-01  0.196539320769E-01
  0.209511670916E-01  0.223339019494E-01  0.238077551340E-01  0.253787120494E-01  0.270531486683E-01
  0.288378566619E-01  0.307400700969E-01  0.327674937923E-01  0.349283334291E-01  0.372313275147E-01
  0.396857813046E-01  0.423016027901E-01  0.450893408654E-01  0.480602257902E-01  0.512262120690E-01
  0.546000238731E-01  0.581952031320E-01  0.620261604274E-01  0.661082288235E-01  0.704577207703E-01
  0.750919882171E-01  0.800294860756E-01  0.852898391677E-01  0.908939127962E-01  0.968638870668E-01
  0.103223335090E+00  0.109997305177E+00  0.117212407146E+00  0.124896902815E+00  0.133080800779E+00
  0.141795955517E+00  0.151076170844E+00  0.160957307739E+00  0.171477396472E+00  0.182676752968E+00
  0.194598099260E+00  0.207286687824E+00  0.220790429531E+00  0.235160024833E+00  0.250449097738E+00
  0.266714331981E+00  0.284015608671E+00  0.302416144559E+00  0.321982629860E+00  0.342785364380E+00
  0.364898390474E+00  0.388399621064E+00  0.413370960678E+00  0.439898417118E+00  0.468072200965E+00
  0.497986809719E+00  0.529741092875E+00  0.563438293668E+00  0.599186062642E+00  0.637096437490E+00
  0.677285782861E+00  0.719874682988E+00  0.764987779071E+00  0.812753542314E+00  0.863303972419E+00
  0.916774210107E+00  0.973302050938E+00  0.103302734628E+01  0.109609127575E+01  0.116263547392E+01
  0.123280099225E+01  0.130672707574E+01  0.138454973166E+01  0.146640006635E+01  0.155240236403E+01
  0.164267188019E+01  0.173731232051E+01  0.183641297522E+01  0.194004547817E+01  0.204826015940E+01
  0.216108196080E+01  0.227850588580E+01  0.240049195676E+01  0.252695965794E+01  0.265778184792E+01
  0.279277813394E+01  0.293170771147E+01  0.307426168714E+01  0.322005492139E+01  0.336861745031E+01
  0.351938557448E+01  0.367169273744E+01  0.382476035732E+01  0.397768882474E+01  0.412944893728E+01
  0.427887410704E+01  0.442465375344E+01  0.456532837773E+01  0.469928690867E+01  0.482476700866E+01
  0.493985913413E+01  0.504251524921E+01  0.513056319238E+01  0.520172778406E+01  0.525365982886E+01
  0.528397419595E+01  0.529029813756E+01  0.527033090765E+01  0.522191554428E+01  0.514312334947E+01
  0.503235110397E+01  0.488843035187E+01  0.471074714029E+01  0.449936936045E+01  0.425517727225E+01
  0.397999087845E+01  0.367668554061E+01  0.334928462167E+01  0.300301507038E+01  0.264430886765E+01
  0.228073035787E+01  0.192080702724E+01  0.157373974129E+01  0.124896845517E+01  0.955571779580E+00
  0.701484521442E+00  0.492527571169E+00  0.331260516054E+00  0.215690317820E+00  0.138034651897E+00
  0.871434606366E-01  0.542461022715E-01  0.332790040266E-01  0.201098181684E-01  0.119628693567E-01
  0.700151018501E-02  0.402911608627E-02  0.227838792350E-02  0.126533011005E-02  0.689798255247E-03
  0.368958402021E-03  0.193530389167E-03  0.994904135782E-04  0.500933388192E-04  0.246844991096E-04
  0.118953315062E-04  0.560129674253E-05  0.257515736580E-05  0.115493157372E-05  0.504857950792E-06
  0.214908152099E-06  0.890026546362E-07  0.358260747425E-07  0.140024957763E-07  0.530848175387E-08
  0.194997789408E-08  0.693281068621E-09  0.238302033569E-09  0.791038554996E-10  0.253294763536E-10
  0.781472525289E-11  0.232033773967E-11  0.662243253453E-12  0.181458070325E-12  0.476730213458E-13
  0.119930840376E-13  0.288503852151E-14  0.662689778305E-15  0.145129433255E-15  0.302557882635E-16
  0.599463502546E-17  0.112689820996E-17  0.200638513660E-18  0.337727340511E-19  0.536451688529E-20
  0.802553161084E-21  0.112859583199E-21  0.148882343907E-22
 local pseudopotential core
 -0.235967727185E+03 -0.235967482533E+03 -0.235967245583E+03 -0.235967016093E+03 -0.235966793828E+03
 -0.235966578560E+03 -0.235966370068E+03 -0.235966168138E+03 -0.235965972565E+03 -0.235965783146E+03
 -0.235965599689E+03 -0.235965422005E+03 -0.235965249912E+03 -0.235965083234E+03 -0.235964921800E+03
 -0.235964765444E+03 -0.235964614007E+03 -0.235964467332E+03 -0.235964325269E+03 -0.235964187673E+03
 -0.235964054402E+03 -0.235963925321E+03 -0.235963800295E+03 -0.235963679197E+03 -0.235963561903E+03
 -0.235963448292E+03 -0.235963338247E+03 -0.235963231656E+03 -0.235963128408E+03 -0.235963028398E+03
 -0.235962931522E+03 -0.235962837681E+03 -0.235962746779E+03 -0.235962658721E+03 -0.235962573417E+03
 -0.235962490779E+03 -0.235962410722E+03 -0.235962333162E+03 -0.235962258019E+03 -0.235962185217E+03
 -0.235962114679E+03 -0.235962046332E+03 -0.235961980105E+03 -0.235961915929E+03 -0.235961853737E+03
 -0.235961793465E+03 -0.235961735050E+03 -0.235961678429E+03 -0.235961623544E+03 -0.235961570337E+03
 -0.235961518752E+03 -0.235961468733E+03 -0.235961420228E+03 -0.235961373186E+03 -0.235961327555E+03
 -0.235961283287E+03 -0.235961240333E+03 -0.235961198648E+03 -0.235961158186E+03 -0.235961118901E+03
 -0.235961080752E+03 -0.235961043694E+03 -0.235961007688E+03 -0.235960972691E+03 -0.235960938663E+03
 -0.235960905567E+03 -0.235960873362E+03 -0.235960842011E+03 -0.235960811476E+03 -0.235960781721E+03
 -0.235960752709E+03 -0.235960724403E+03 -0.235960696767E+03 -0.235960669767E+03 -0.235960643366E+03
 -0.235960617528E+03 -0.235960592219E+03 -0.235960567403E+03 -0.235960543044E+03 -0.235960519107E+03
 -0.235960495555E+03 -0.235960472352E+03 -0.235960449460E+03 -0.235960426843E+03 -0.235960404462E+03
 -0.235960382279E+03 -0.235960360253E+03 -0.235960338343E+03 -0.235960316509E+03 -0.235960294707E+03
 -0.235960272892E+03 -0.235960251020E+03 -0.235960229041E+03 -0.235960206908E+03 -0.235960184570E+03
 -0.235960161972E+03 -0.235960139059E+03 -0.235960115774E+03 -0.235960092057E+03 -0.235960067842E+03
 -0.235960043065E+03 -0.235960017655E+03 -0.235959991539E+03 -0.235959964639E+03 -0.235959936873E+03
 -0.235959908157E+03 -0.235959878399E+03 -0.235959847503E+03 -0.235959815369E+03 -0.235959781888E+03
 -0.235959746948E+03 -0.235959710428E+03 -0.235959672202E+03 -0.235959632133E+03 -0.235959590078E+03
 -0.235959545886E+03 -0.235959499395E+03 -0.235959450434E+03 -0.235959398819E+03 -0.235959344358E+03
 -0.235959286845E+03 -0.235959226060E+03 -0.235959161771E+03 -0.235959093730E+03 -0.235959021673E+03
 -0.235958945320E+03 -0.235958864373E+03 -0.235958778512E+03 -0.235958687400E+03 -0.235958590677E+03
 -0.235958487958E+03 -0.235958378835E+03 -0.235958262872E+03 -0.235958139606E+03 -0.235958008543E+03
 -0.235957869156E+03 -0.235957720884E+03 -0.235957563131E+03 -0.235957395259E+03 -0.235957216590E+03
 -0.235957026401E+03 -0.235956823921E+03 -0.235956608330E+03 -0.235956378752E+03 -0.235956134255E+03
 -0.235955873845E+03 -0.235955596462E+03 -0.235955300977E+03 -0.235954986187E+03 -0.235954650808E+03
 -0.235954293474E+03 -0.235953912726E+03 -0.235953507011E+03 -0.235953074673E+03 -0.235952613946E+03
 -0.235952122949E+03 -0.235951599674E+03 -0.235951041985E+03 -0.235950447601E+03 -0.235949814091E+03
 -0.235949138867E+03 -0.235948419165E+03 -0.235947652043E+03 -0.235946834362E+03 -0.235945962777E+03
 -0.235945033721E+03 -0.235944043393E+03 -0.235942987740E+03 -0.235941862441E+03 -0.235940662892E+03
 -0.235939384181E+03 -0.235938021075E+03 -0.235936567994E+03 -0.235935018990E+03 -0.235933367721E+03
 -0.235931607429E+03 -0.235929730906E+03 -0.235927730472E+03 -0.235925597936E+03 -0.235923324569E+03
 -0.235920901064E+03 -0.235918317501E+03 -0.235915563304E+03 -0.235912627199E+03 -0.235909497168E+03
 -0.235906160399E+03 -0.235902603236E+03 -0.235898811121E+03 -0.235894768533E+03 -0.235890458930E+03
 -0.235885864678E+03 -0.235880966978E+03 -0.235875745793E+03 -0.235870179762E+03 -0.235864246116E+03
 -0.235857920587E+03 -0.235851177305E+03 -0.235843988693E+03 -0.235836325359E+03 -0.235828155973E+03
 -0.235819447142E+03 -0.235810163271E+03 -0.235800266424E+03 -0.235789716163E+03 -0.235778469393E+03
 -0.235766480178E+03 -0.235753699565E+03 -0.235740075376E+03 -0.235725552008E+03 -0.235710070199E+03
 -0.235693566795E+03 -0.235675974494E+03 -0.235657221577E+03 -0.235637231618E+03 -0.235615923178E+03
 -0.235593209480E+03 -0.235568998060E+03 -0.235543190403E+03 -0.235515681543E+03 -0.235486359652E+03
 -0.235455105594E+03 -0.235421792453E+03 -0.235386285031E+03 -0.235348439319E+03 -0.235308101925E+03
 -0.235265109478E+03 -0.235219287989E+03 -0.235170452169E+03 -0.235118404718E+03 -0.235062935553E+03
 -0.235003821007E+03 -0.234940822966E+03 -0.234873687962E+03 -0.234802146213E+03 -0.234725910597E+03
 -0.234644675582E+03 -0.234558116077E+03 -0.234465886231E+03 -0.234367618160E+03 -0.234262920596E+03
 -0.234151377475E+03 -0.234032546436E+03 -0.233905957252E+03 -0.233771110165E+03 -0.233627474152E+03
 -0.233474485090E+03 -0.233311543841E+03 -0.233138014240E+03 -0.232953220999E+03 -0.232756447509E+03
 -0.232546933557E+03 -0.232323872944E+03 -0.232086411022E+03 -0.231833642132E+03 -0.231564606966E+03
 -0.231278289852E+03 -0.230973615961E+03 -0.230649448460E+03 -0.230304585611E+03 -0.229937757833E+03
 -0.229547624751E+03 -0.229132772244E+03 -0.228691709520E+03 -0.228222866254E+03 -0.227724589808E+03
 -0.227195142590E+03 -0.226632699595E+03 -0.226035346172E+03 -0.225401076093E+03 -0.224727789989E+03
 -0.224013294236E+03 -0.223255300388E+03 -0.222451425260E+03 -0.221599191779E+03 -0.220696030753E+03
 -0.219739283691E+03 -0.218726206860E+03 -0.217653976774E+03 -0.216519697317E+03 -0.215320408757E+03
 -0.214053098900E+03 -0.212714716700E+03 -0.211302188635E+03 -0.209812438213E+03 -0.208242408998E+03
 -0.206589091586E+03 -0.204849554963E+03 -0.203020982725E+03 -0.201100714628E+03 -0.199086293916E+03
 -0.196975520815E+03 -0.194766512465E+03 -0.192457769348E+03 -0.190048247957E+03 -0.187537438960E+03
 -0.184925449419E+03 -0.182213086662E+03 -0.179401940107E+03 -0.176494455623E+03 -0.173493994722E+03
 -0.170404867873E+03 -0.167232327136E+03 -0.163982497674E+03 -0.160662220086E+03 -0.157278766072E+03
 -0.153839381363E+03 -0.150350611020E+03 -0.146817392598E+03 -0.143241993501E+03 -0.139623044231E+03
 -0.135955146139E+03 -0.132229654562E+03 -0.128436991112E+03 -0.124570052288E+03 -0.120680355035E+03
 -0.116904358189E+03 -0.113235152803E+03 -0.109664112592E+03 -0.106206383773E+03 -0.102861583423E+03
 -0.996221327872E+02 -0.964847055616E+02 -0.934460899985E+02 -0.905031732631E+02 -0.876529395151E+02
 -0.848924668553E+02 -0.822189260637E+02 -0.796295802447E+02 -0.771217787576E+02 -0.746929547736E+02
 -0.723406222639E+02 -0.700623721006E+02 -0.678558721239E+02 -0.657188612967E+02 -0.636491524848E+02
 -0.616446252082E+02 -0.597032268454E+02 -0.578229701109E+02 -0.560019283349E+02 -0.542382372248E+02
 -0.525300908038E+02 -0.508757395639E+02 -0.492734897209E+02 -0.477217003852E+02 -0.462187822711E+02
 -0.447631962690E+02 -0.433534516617E+02 -0.419881046813E+02 -0.406657569838E+02 -0.393850543843E+02
 -0.381446852608E+02 -0.369433794013E+02 -0.357799065716E+02 -0.346530753188E+02 -0.335617317151E+02
 -0.325047581807E+02 -0.314810723248E+02 -0.304896258305E+02 -0.295294033941E+02 -0.285994216720E+02
 -0.276987282829E+02 -0.268264008340E+02 -0.259815459784E+02
 pspotential valence only
 -0.178863986301E+03 -0.178863741654E+03 -0.178863504710E+03 -0.178863275227E+03 -0.178863052969E+03
 -0.178862837708E+03 -0.178862629224E+03 -0.178862427303E+03 -0.178862231738E+03 -0.178862042329E+03
 -0.178861858882E+03 -0.178861681209E+03 -0.178861509127E+03 -0.178861342462E+03 -0.178861181041E+03
 -0.178861024699E+03 -0.178860873276E+03 -0.178860726617E+03 -0.178860584571E+03 -0.178860446993E+03
 -0.178860313742E+03 -0.178860184681E+03 -0.178860059677E+03 -0.178859938603E+03 -0.178859821333E+03
 -0.178859707749E+03 -0.178859597732E+03 -0.178859491171E+03 -0.178859387955E+03 -0.178859287979E+03
 -0.178859191140E+03 -0.178859097338E+03 -0.178859006477E+03 -0.178858918464E+03 -0.178858833207E+03
 -0.178858750619E+03 -0.178858670615E+03 -0.178858593113E+03 -0.178858518031E+03 -0.178858445294E+03
 -0.178858374825E+03 -0.178858306551E+03 -0.178858240403E+03 -0.178858176311E+03 -0.178858114209E+03
 -0.178858054033E+03 -0.178857995719E+03 -0.178857939206E+03 -0.178857884437E+03 -0.178857831353E+03
 -0.178857779899E+03 -0.178857730020E+03 -0.178857681665E+03 -0.178857634781E+03 -0.178857589320E+03
 -0.178857545233E+03 -0.178857502472E+03 -0.178857460992E+03 -0.178857420749E+03 -0.178857381698E+03
 -0.178857343798E+03 -0.178857307006E+03 -0.178857271282E+03 -0.178857236587E+03 -0.178857202881E+03
 -0.178857170127E+03 -0.178857138288E+03 -0.178857107327E+03 -0.178857077208E+03 -0.178857047896E+03
 -0.178857019355E+03 -0.178856991553E+03 -0.178856964454E+03 -0.178856938026E+03 -0.178856912235E+03
 -0.178856887048E+03 -0.178856862432E+03 -0.178856838355E+03 -0.178856814784E+03 -0.178856791687E+03
 -0.178856769030E+03 -0.178856746782E+03 -0.178856724908E+03 -0.178856703376E+03 -0.178856682152E+03
 -0.178856661202E+03 -0.178856640491E+03 -0.178856619984E+03 -0.178856599644E+03 -0.178856579435E+03
 -0.178856559319E+03 -0.178856539257E+03 -0.178856519209E+03 -0.178856499134E+03 -0.178856478989E+03
 -0.178856458730E+03 -0.178856438311E+03 -0.178856417685E+03 -0.178856396801E+03 -0.178856375609E+03
 -0.178856354052E+03 -0.178856332076E+03 -0.178856309621E+03 -0.178856286624E+03 -0.178856263019E+03
 -0.178856238739E+03 -0.178856213710E+03 -0.178856187856E+03 -0.178856161096E+03 -0.178856133346E+03
 -0.178856104515E+03 -0.178856074508E+03 -0.178856043224E+03 -0.178856010557E+03 -0.178855976393E+03
 -0.178855940614E+03 -0.178855903092E+03 -0.178855863691E+03 -0.178855822270E+03 -0.178855778676E+03
 -0.178855732748E+03 -0.178855684315E+03 -0.178855633193E+03 -0.178855579189E+03 -0.178855522098E+03
 -0.178855461699E+03 -0.178855397760E+03 -0.178855330032E+03 -0.178855258252E+03 -0.178855182138E+03
 -0.178855101390E+03 -0.178855015690E+03 -0.178854924699E+03 -0.178854828055E+03 -0.178854725373E+03
 -0.178854616243E+03 -0.178854500228E+03 -0.178854376863E+03 -0.178854245653E+03 -0.178854106068E+03
 -0.178853957547E+03 -0.178853799489E+03 -0.178853631255E+03 -0.178853452165E+03 -0.178853261492E+03
 -0.178853058464E+03 -0.178852842255E+03 -0.178852611987E+03 -0.178852366725E+03 -0.178852105469E+03
 -0.178851827156E+03 -0.178851530653E+03 -0.178851214750E+03 -0.178850878160E+03 -0.178850519509E+03
 -0.178850137334E+03 -0.178849730074E+03 -0.178849296067E+03 -0.178848833539E+03 -0.178848340600E+03
 -0.178847815237E+03 -0.178847255301E+03 -0.178846658504E+03 -0.178846022404E+03 -0.178845344401E+03
 -0.178844621721E+03 -0.178843851409E+03 -0.178843030312E+03 -0.178842155072E+03 -0.178841222106E+03
 -0.178840227598E+03 -0.178839167478E+03 -0.178838037406E+03 -0.178836832759E+03 -0.178835548605E+03
 -0.178834179689E+03 -0.178832720409E+03 -0.178831164790E+03 -0.178829506467E+03 -0.178827738653E+03
 -0.178825854110E+03 -0.178823845128E+03 -0.178821703483E+03 -0.178819420411E+03 -0.178816986568E+03
 -0.178814391995E+03 -0.178811626074E+03 -0.178808677489E+03 -0.178805534174E+03 -0.178802183271E+03
 -0.178798611069E+03 -0.178794802958E+03 -0.178790743361E+03 -0.178786415675E+03 -0.178781802202E+03
 -0.178776884079E+03 -0.178771641198E+03 -0.178766052126E+03 -0.178760094021E+03 -0.178753742533E+03
 -0.178746971710E+03 -0.178739753892E+03 -0.178732059598E+03 -0.178723857406E+03 -0.178715113831E+03
 -0.178705793181E+03 -0.178695857422E+03 -0.178685266017E+03 -0.178673975770E+03 -0.178661940645E+03
 -0.178649111588E+03 -0.178635436324E+03 -0.178620859153E+03 -0.178605320723E+03 -0.178588757794E+03
 -0.178571102988E+03 -0.178552284519E+03 -0.178532225908E+03 -0.178510845680E+03 -0.178488057042E+03
 -0.178463767541E+03 -0.178437878698E+03 -0.178410285627E+03 -0.178380876616E+03 -0.178349532701E+03
 -0.178316127196E+03 -0.178280525206E+03 -0.178242583107E+03 -0.178202147991E+03 -0.178159057085E+03
 -0.178113137129E+03 -0.178064203720E+03 -0.178012060618E+03 -0.177956499011E+03 -0.177897296740E+03
 -0.177834217474E+03 -0.177767009847E+03 -0.177695406540E+03 -0.177619123321E+03 -0.177537858021E+03
 -0.177451289474E+03 -0.177359076384E+03 -0.177260856148E+03 -0.177156243613E+03 -0.177044829781E+03
 -0.176926180446E+03 -0.176799834774E+03 -0.176665303824E+03 -0.176522069004E+03 -0.176369580472E+03
 -0.176207255472E+03 -0.176034476618E+03 -0.175850590131E+03 -0.175654904015E+03 -0.175446686201E+03
 -0.175225162653E+03 -0.174989515444E+03 -0.174738880824E+03 -0.174472347274E+03 -0.174188953588E+03
 -0.173887686975E+03 -0.173567481221E+03 -0.173227214929E+03 -0.172865709871E+03 -0.172481729484E+03
 -0.172073977550E+03 -0.171641097111E+03 -0.171181669669E+03 -0.170694214729E+03 -0.170177189765E+03
 -0.169628990670E+03 -0.169047952806E+03 -0.168432352720E+03 -0.167780410677E+03 -0.167090294107E+03
 -0.166360122125E+03 -0.165587971278E+03 -0.164771882706E+03 -0.163909870893E+03 -0.162999934256E+03
 -0.162040067788E+03 -0.161028278043E+03 -0.159962600741E+03 -0.158841121322E+03 -0.157661998792E+03
 -0.156423493232E+03 -0.155123997364E+03 -0.153762072574E+03 -0.152336489788E+03 -0.150846275573E+03
 -0.149290763745E+03 -0.147669652665E+03 -0.145983068153E+03 -0.144231631645E+03 -0.142416532687E+03
 -0.140539604183E+03 -0.138603397817E+03 -0.136611255750E+03 -0.134567372972E+03 -0.132476842394E+03
 -0.130345671711E+03 -0.128180756995E+03 -0.125989792311E+03 -0.123781087012E+03 -0.121563252945E+03
 -0.119344715237E+03 -0.117133001440E+03 -0.114933794326E+03 -0.112749824364E+03 -0.110579853421E+03
 -0.108418228129E+03 -0.106255603741E+03 -0.104081192268E+03 -0.101886102243E+03 -0.996671314321E+02
 -0.974368641793E+02 -0.951934227078E+02 -0.929403358134E+02 -0.907051330224E+02 -0.884980437523E+02
 -0.863172052702E+02 -0.841567604525E+02 -0.820020180068E+02 -0.798352493564E+02 -0.776476870653E+02
 -0.754487106761E+02 -0.732622600487E+02 -0.711136852387E+02 -0.690196981718E+02 -0.669871505814E+02
 -0.650167841269E+02 -0.631070445177E+02 -0.612562306734E+02 -0.594632799706E+02 -0.577278408960E+02
 -0.560500323979E+02 -0.544300521489E+02 -0.528676811433E+02 -0.513617554255E+02 -0.499097592904E+02
 -0.485077024396E+02 -0.471504173109E+02 -0.458321796708E+02 -0.445474773839E+02 -0.432916500456E+02
 -0.420612872622E+02 -0.408543426238E+02 -0.396700416378E+02 -0.385086673674E+02 -0.373712944371E+02
 -0.362595124511E+02 -0.351751568197E+02 -0.341200539415E+02 -0.330957879981E+02 -0.321035034924E+02
 -0.311437641464E+02 -0.302164881718E+02 -0.293209692578E+02 -0.284559750834E+02 -0.276198984876E+02
 -0.268109279726E+02 -0.260272064583E+02 -0.252669572462E+02
 core charge-density (pseudized)
  0.551084138745E-09  0.587506611122E-09  0.626336332031E-09  0.667732402297E-09  0.711864438097E-09
  0.758913265951E-09  0.809071663635E-09  0.862545150071E-09  0.919552827414E-09  0.980328278811E-09
  0.104512052547E-08  0.111419504702E-08  0.118783486926E-08  0.126634172384E-08  0.135003728459E-08
  0.143926448552E-08  0.153438892597E-08  0.163580036861E-08  0.174391433648E-08  0.185917381550E-08
  0.198205106959E-08  0.211304957574E-08  0.225270608692E-08  0.240159283137E-08  0.256031985730E-08
  0.272953753241E-08  0.290993920878E-08  0.310226406378E-08  0.330730012875E-08  0.352588751791E-08
  0.375892187063E-08  0.400735802120E-08  0.427221391118E-08  0.455457476029E-08  0.485559751301E-08
  0.517651557901E-08  0.551864388693E-08  0.588338427212E-08  0.627223122059E-08  0.668677799242E-08
  0.712872314999E-08  0.759987751770E-08  0.810217160155E-08  0.863766349925E-08  0.920854733298E-08
  0.981716223960E-08  0.104660019550E-07  0.111577250318E-07  0.118951657327E-07  0.126813456433E-07
  0.135194860527E-07  0.144130211528E-07  0.153656121086E-07  0.163811620605E-07  0.174638321159E-07
  0.186180583997E-07  0.198485702300E-07  0.211604094967E-07  0.225589513192E-07  0.240499260710E-07
  0.256394428585E-07  0.273340145529E-07  0.291405844752E-07  0.310665548462E-07  0.331198171153E-07
  0.353087842954E-07  0.376424254334E-07  0.401303023601E-07  0.427826088680E-07  0.456102124787E-07
  0.486246989717E-07  0.518384198543E-07  0.552645429707E-07  0.589171064545E-07  0.628110762482E-07
  0.669624074230E-07  0.713881095521E-07  0.761063164042E-07  0.811363602436E-07  0.864988510399E-07
  0.922157609134E-07  0.983105141616E-07  0.104808083235E-06  0.111735091055E-06  0.119119920100E-06
  0.126992828687E-06  0.135386074959E-06  0.144334049043E-06  0.153873413963E-06  0.164043255852E-06
  0.174885244100E-06  0.186443802077E-06  0.198766289147E-06  0.211903194707E-06  0.225908345050E-06
  0.240839123899E-06  0.256756707513E-06  0.273726315337E-06  0.291817477209E-06  0.311104318229E-06
  0.331665862451E-06  0.353586356651E-06  0.376955615479E-06  0.401869389435E-06  0.428429757145E-06
  0.456745543574E-06  0.486932765868E-06  0.519115108654E-06  0.553424430759E-06  0.590001305399E-06
  0.628995596072E-06  0.670567070504E-06  0.714886055154E-06  0.762134132975E-06  0.812504887272E-06
  0.866204694715E-06  0.923453570738E-06  0.984486070805E-06  0.104955225121E-05  0.111891869336E-05
  0.119286959573E-05  0.127170793796E-05  0.135575672181E-05  0.144536029417E-05  0.154088575742E-05
  0.164272447292E-05  0.175129366387E-05  0.186703812399E-05  0.199043203910E-05  0.212198092895E-05
  0.226222371735E-05  0.241173493892E-05  0.257112709167E-05  0.274105314482E-05  0.292220921225E-05
  0.311533740247E-05  0.332122885668E-05  0.354072698740E-05  0.377473093092E-05  0.402419922750E-05
  0.429015374458E-05  0.457368385875E-05  0.487595091369E-05  0.519819297229E-05  0.554172988210E-05
  0.590796867502E-05  0.629840932300E-05  0.671465087328E-05  0.715839798815E-05  0.763146791577E-05
  0.813579792037E-05  0.867345320211E-05  0.924663533870E-05  0.985769128295E-05  0.105091229529E-04
  0.112035974534E-04  0.119439579702E-04  0.127332353811E-04  0.135746606306E-04  0.144716779191E-04
  0.154279587578E-04  0.164474169484E-04  0.175342245461E-04  0.186928288712E-04  0.199279706370E-04
  0.212447032668E-04  0.226484134779E-04  0.241448432143E-04  0.257401130162E-04  0.274407469189E-04
  0.292536989807E-04  0.311863815453E-04  0.332466953500E-04  0.354430615991E-04  0.377844561294E-04
  0.402804458018E-04  0.429412272615E-04  0.457776682197E-04  0.488013514159E-04  0.520246214336E-04
  0.554606345490E-04  0.591234118060E-04  0.630278955217E-04  0.671900094366E-04  0.716267227411E-04
  0.763561182185E-04  0.813974647617E-04  0.867712945355E-04  0.924994850713E-04  0.986053465964E-04
  0.105113714919E-03  0.112051050207E-03  0.119445542015E-03  0.127327220935E-03  0.135728077269E-03
  0.144682187132E-03  0.154225846425E-03  0.164397713140E-03  0.175238958459E-03  0.186793427171E-03
  0.199107807909E-03  0.212231813765E-03  0.226218373842E-03  0.241123836332E-03  0.257008183738E-03
  0.273935260851E-03  0.291973016143E-03  0.311193757232E-03  0.331674421099E-03  0.353496859737E-03
  0.376748141932E-03  0.401520871871E-03  0.427913525271E-03  0.456030803697E-03  0.485984007762E-03
  0.517891429813E-03  0.551878766718E-03  0.588079553308E-03  0.626635616917E-03  0.667697553458E-03
  0.711425225282E-03  0.757988280999E-03  0.807566697249E-03  0.860351342243E-03  0.916544560635E-03
  0.976360779069E-03  0.104002713137E-02  0.110778410206E-02  0.117988618627E-02  0.125660256396E-02
  0.133821778531E-02  0.142503246395E-02  0.151736397345E-02  0.161554714211E-02  0.171993493963E-02
  0.183089914827E-02  0.194883100984E-02  0.207414183825E-02  0.220726358567E-02  0.234864934847E-02
  0.249877379687E-02  0.265813350985E-02  0.282724719404E-02  0.300665576250E-02  0.319692224539E-02
  0.339863150129E-02  0.361238969342E-02  0.383882349033E-02  0.407857894570E-02  0.433232000622E-02
  0.460072659046E-02  0.488449217494E-02  0.518432081675E-02  0.550092353435E-02  0.583501396001E-02
  0.618730316937E-02  0.655849358442E-02  0.694927183753E-02  0.736030047533E-02  0.779220837243E-02
  0.824557971685E-02  0.872094142183E-02  0.921874881288E-02  0.973936943487E-02  0.102830648230E-01
  0.108499700837E-01  0.114400711390E-01  0.120531795008E-01  0.126889044618E-01  0.133466226208E-01
  0.140254447007E-01  0.147241796726E-01  0.154412962728E-01  0.161748820886E-01  0.169226005056E-01
  0.176816459493E-01  0.184486980259E-01  0.192198753726E-01  0.199906902745E-01  0.207560053885E-01
  0.215099942481E-01  0.222461075975E-01  0.229570480276E-01  0.236347558489E-01  0.242704096403E-01
  0.248544454326E-01  0.253765990185E-01  0.258259763864E-01  0.261911577250E-01  0.264603407817E-01
  0.266215295198E-01  0.266627739174E-01  0.265724662788E-01  0.263396984660E-01  0.259546828321E-01
  0.254092371970E-01  0.246973307303E-01  0.238156829053E-01  0.227644015385E-01  0.215476381590E-01
  0.201742294168E-01  0.186582819019E-01  0.170196447295E-01  0.152841998802E-01  0.134838852501E-01
  0.116563507550E-01  0.984413531211E-02  0.809324444594E-02  0.645100780375E-02  0.496310707393E-02
  0.366969266069E-02  0.260055772073E-02  0.176941702551E-02  0.116745161625E-02  0.757137558103E-03
  0.484149495800E-03  0.305104562760E-03  0.189393801420E-03  0.115746303410E-03  0.696056517925E-04
  0.411669055399E-04  0.239326759090E-04  0.136694707808E-04  0.766674079759E-05  0.422031735966E-05
  0.227885121178E-05  0.120631772604E-05  0.625600437150E-06  0.317627072395E-06  0.157762834364E-06
  0.766001230769E-07  0.363289529153E-07  0.168161163504E-07  0.759079522424E-08  0.333859947213E-08
  0.142945337542E-08  0.595255479135E-09  0.240851713149E-09  0.945978268456E-10  0.360294995901E-10
  0.132932654318E-10  0.474617663813E-11  0.163805993041E-11  0.545904385608E-12  0.175478027490E-12
  0.543445584076E-13  0.161961333429E-13  0.463946482718E-14  0.127581306975E-14  0.336364352029E-15
  0.849093617802E-16  0.204936355640E-16  0.472248250791E-17  0.103741843910E-17  0.216914283316E-18
  0.430988237619E-19  0.812368256464E-20  0.145008434999E-20  0.244683627182E-21  0.389567615548E-22
  0.584115335363E-23  0.823189914183E-24  0.108820497189E-24
 pseudo wavefunction
  0.188373698017E-03  0.194499140692E-03  0.200823767477E-03  0.207354055342E-03  0.214096691870E-03
  0.221058582111E-03  0.228246855648E-03  0.235668873900E-03  0.243332237660E-03  0.251244794882E-03
  0.259414648716E-03  0.267850165802E-03  0.276559984848E-03  0.285553025466E-03  0.294838497314E-03
  0.304425909525E-03  0.314325080444E-03  0.324546147686E-03  0.335099578512E-03  0.345996180556E-03
  0.357247112886E-03  0.368863897438E-03  0.380858430808E-03  0.393242996444E-03  0.406030277217E-03
  0.419233368416E-03  0.432865791152E-03  0.446941506213E-03  0.461474928352E-03  0.476480941056E-03
  0.491974911785E-03  0.507972707708E-03  0.524490711956E-03  0.541545840398E-03  0.559155558961E-03
  0.577337901523E-03  0.596111488376E-03  0.615495545295E-03  0.635509923230E-03  0.656175118632E-03
  0.677512294444E-03  0.699543301773E-03  0.722290702268E-03  0.745777791224E-03  0.770028621439E-03
  0.795068027846E-03  0.820921652942E-03  0.847615973056E-03  0.875178325453E-03  0.903636936336E-03
  0.933020949751E-03  0.963360457427E-03  0.994686529601E-03  0.102703124683E-02  0.106042773283E-02
  0.109491018844E-02  0.113051392660E-02  0.116727540852E-02  0.120523228104E-02  0.124442341519E-02
  0.128488894594E-02  0.132667031337E-02  0.136981030506E-02  0.141435309991E-02  0.146034431342E-02
  0.150783104435E-02  0.155686192298E-02  0.160748716091E-02  0.165975860248E-02  0.171372977782E-02
  0.176945595775E-02  0.182699421027E-02  0.188640345909E-02  0.194774454394E-02  0.201108028284E-02
  0.207647553645E-02  0.214399727451E-02  0.221371464438E-02  0.228569904185E-02  0.236002418426E-02
  0.243676618598E-02  0.251600363636E-02  0.259781768017E-02  0.268229210071E-02  0.276951340561E-02
  0.285957091538E-02  0.295255685486E-02  0.304856644771E-02  0.314769801382E-02  0.325005307004E-02
  0.335573643411E-02  0.346485633195E-02  0.357752450849E-02  0.369385634207E-02  0.381397096254E-02
  0.393799137326E-02  0.406604457701E-02  0.419826170599E-02  0.433477815607E-02  0.447573372540E-02
  0.462127275751E-02  0.477154428906E-02  0.492670220239E-02  0.508690538305E-02  0.525231788238E-02
  0.542310908545E-02  0.559945388440E-02  0.578153285745E-02  0.596953245364E-02  0.616364518371E-02
  0.636406981699E-02  0.657101158486E-02  0.678468239071E-02  0.700530102670E-02  0.723309339765E-02
  0.746829275206E-02  0.771113992075E-02  0.796188356316E-02  0.822078042162E-02  0.848809558397E-02
  0.876410275454E-02  0.904908453406E-02  0.934333270850E-02  0.964714854737E-02  0.996084311161E-02
  0.102847375715E-01  0.106191635348E-01  0.109644633854E-01  0.113209906335E-01  0.116891102761E-01
  0.120691991699E-01  0.124616464163E-01  0.128668537580E-01  0.132852359896E-01  0.137172213803E-01
  0.141632521109E-01  0.146237847250E-01  0.150992905937E-01  0.155902563966E-01  0.160971846174E-01
  0.166205940557E-01  0.171610203550E-01  0.177190165481E-01  0.182951536192E-01  0.188900210852E-01
  0.195042275941E-01  0.201384015434E-01  0.207931917185E-01  0.214692679505E-01  0.221673217957E-01
  0.228880672363E-01  0.236322414033E-01  0.244006053228E-01  0.251939446848E-01  0.260130706375E-01
  0.268588206058E-01  0.277320591356E-01  0.286336787647E-01  0.295646009209E-01  0.305257768480E-01
  0.315181885606E-01  0.325428498282E-01  0.336008071904E-01  0.346931410021E-01  0.358209665123E-01
  0.369854349741E-01  0.381877347898E-01  0.394290926895E-01  0.407107749462E-01  0.420340886260E-01
  0.434003828765E-01  0.448110502527E-01  0.462675280818E-01  0.477712998673E-01  0.493238967347E-01
  0.509268989173E-01  0.525819372848E-01  0.542906949141E-01  0.560549087045E-01  0.578763710360E-01
  0.597569314734E-01  0.616984985146E-01  0.637030413857E-01  0.657725918812E-01  0.679092462517E-01
  0.701151671368E-01  0.723925855460E-01  0.747438028848E-01  0.771711930277E-01  0.796772044364E-01
  0.822643623234E-01  0.849352708596E-01  0.876926154239E-01  0.905391648955E-01  0.934777739843E-01
  0.965113855998E-01  0.996430332534E-01  0.102875843493E+00  0.106213038366E+00  0.109657937904E+00
  0.113213962627E+00  0.116884636063E+00  0.120673587272E+00  0.124584553369E+00  0.128621382042E+00
  0.132788034044E+00  0.137088585670E+00  0.141527231179E+00  0.146108285171E+00  0.150836184896E+00
  0.155715492472E+00  0.160750897002E+00  0.165947216573E+00  0.171309400094E+00  0.176842528975E+00
  0.182551818591E+00  0.188442619523E+00  0.194520418524E+00  0.200790839182E+00  0.207259642223E+00
  0.213932725429E+00  0.220816123092E+00  0.227916004967E+00  0.235238674646E+00  0.242790567297E+00
  0.250578246668E+00  0.258608401294E+00  0.266887839803E+00  0.275423485209E+00  0.284222368096E+00
  0.293291618561E+00  0.302638456769E+00  0.312270181995E+00  0.322194159970E+00  0.332417808357E+00
  0.342948580180E+00  0.353793944966E+00  0.364961367399E+00  0.376458283211E+00  0.388292072063E+00
  0.400470027101E+00  0.412999320879E+00  0.425886967304E+00  0.439139779228E+00  0.452764321294E+00
  0.466766857597E+00  0.481153293706E+00  0.495929112552E+00  0.511099303659E+00  0.526668285156E+00
  0.542639817984E+00  0.559016911666E+00  0.575801721000E+00  0.592995432979E+00  0.610598143227E+00
  0.628608721242E+00  0.647024663669E+00  0.665841934873E+00  0.685054794051E+00  0.704655608144E+00
  0.724634649839E+00  0.744979880008E+00  0.765676713976E+00  0.786707771141E+00  0.808052607580E+00
  0.829687431425E+00  0.851584801058E+00  0.873713306383E+00  0.896037233806E+00  0.918516215925E+00
  0.941104867441E+00  0.963752409347E+00  0.986402284166E+00  0.100899176580E+01  0.103145156849E+01
  0.105370546046E+01  0.107566988912E+01  0.109725362602E+01  0.111835744159E+01  0.113887382113E+01
  0.115868673597E+01  0.117767148559E+01  0.119569462905E+01  0.121261402675E+01  0.122827901590E+01
  0.124253074638E+01  0.125520270605E+01  0.126612146744E+01  0.127510769025E+01  0.128197741610E+01
  0.128654369318E+01  0.128861856902E+01  0.128801548872E+01  0.128455213301E+01  0.127805372565E+01
  0.126835683189E+01  0.125531365777E+01  0.123879684444E+01  0.121870473010E+01  0.119496702492E+01
  0.116755080969E+01  0.113646672664E+01  0.110177518006E+01  0.106359230446E+01  0.102209539020E+01
  0.977527380104E+00  0.930199969239E+00  0.880494755919E+00  0.828861810590E+00  0.775814958140E+00
  0.721923018059E+00  0.667796229211E+00  0.614067118474E+00  0.561365175486E+00  0.510284893085E+00
  0.461347051285E+00  0.414953589362E+00  0.371336846310E+00  0.330552762198E+00  0.292652988920E+00
  0.257673441109E+00  0.225610273109E+00  0.196422756157E+00  0.170035777149E+00  0.146342838763E+00
  0.125210688173E+00  0.106485824194E+00  0.900017251511E-01  0.755851963490E-01  0.630610773757E-01
  0.522555369594E-01  0.429985096424E-01  0.351256679067E-01  0.284800894592E-01  0.229136457437E-01
  0.182880949968E-01  0.144758646391E-01  0.113605227263E-01  0.883695452822E-02  0.681127436730E-02
  0.520051313493E-02  0.393212711518E-02  0.294337286716E-02  0.218058716722E-02  0.159840354310E-02
  0.115893089456E-02  0.830916483058E-03  0.588914318642E-03  0.412479045948E-03  0.285403544082E-03
  0.195015232739E-03  0.131541844847E-03  0.875528074364E-04  0.574779729631E-04  0.372016938706E-04
  0.237273601902E-04  0.149055776954E-04  0.921808674990E-05  0.560917290320E-05  0.335653106100E-05
  0.197414388006E-05  0.114056647713E-05  0.646946327345E-06
 ae wavefunction
 -0.384771160759E-02 -0.396735329585E-02 -0.409069794759E-02 -0.421785908764E-02 -0.434895365145E-02
 -0.448410208317E-02 -0.462342843629E-02 -0.476706047680E-02 -0.491512978896E-02 -0.506777188382E-02
 -0.522512631036E-02 -0.538733676934E-02 -0.555455122997E-02 -0.572692204930E-02 -0.590460609463E-02
 -0.608776486847E-02 -0.627656463671E-02 -0.647117655940E-02 -0.667177682471E-02 -0.687854678564E-02
 -0.709167309977E-02 -0.731134787200E-02 -0.753776880009E-02 -0.777113932343E-02 -0.801166877449E-02
 -0.825957253341E-02 -0.851507218537E-02 -0.877839568096E-02 -0.904977749937E-02 -0.932945881439E-02
 -0.961768766316E-02 -0.991471911767E-02 -0.102208154589E-01 -0.105362463533E-01 -0.108612890321E-01
 -0.111962284727E-01 -0.115413575821E-01 -0.118969773827E-01 -0.122633972001E-01 -0.126409348518E-01
 -0.130299168388E-01 -0.134306785368E-01 -0.138435643903E-01 -0.142689281054E-01 -0.147071328450E-01
 -0.151585514230E-01 -0.156235664983E-01 -0.161025707687E-01 -0.165959671631E-01 -0.171041690329E-01
 -0.176276003408E-01 -0.181666958470E-01 -0.187219012925E-01 -0.192936735784E-01 -0.198824809408E-01
 -0.204888031199E-01 -0.211131315237E-01 -0.217559693842E-01 -0.224178319056E-01 -0.230992464040E-01
 -0.238007524366E-01 -0.245229019196E-01 -0.252662592340E-01 -0.260314013175E-01 -0.268189177406E-01
 -0.276294107662E-01 -0.284634953911E-01 -0.293217993661E-01 -0.302049631954E-01 -0.311136401107E-01
 -0.320484960192E-01 -0.330102094235E-01 -0.339994713098E-01 -0.350169850030E-01 -0.360634659847E-01
 -0.371396416727E-01 -0.382462511574E-01 -0.393840448925E-01 -0.405537843369E-01 -0.417562415429E-01
 -0.429921986880E-01 -0.442624475453E-01 -0.455677888885E-01 -0.469090318263E-01 -0.482869930627E-01
 -0.497024960752E-01 -0.511563702093E-01 -0.526494496795E-01 -0.541825724736E-01 -0.557565791524E-01
 -0.573723115392E-01 -0.590306112902E-01 -0.607323183403E-01 -0.624782692156E-01 -0.642692952042E-01
 -0.661062203770E-01 -0.679898594500E-01 -0.699210154783E-01 -0.719004773713E-01 -0.739290172210E-01
 -0.760073874307E-01 -0.781363176348E-01 -0.803165113966E-01 -0.825486426742E-01 -0.848333520415E-01
 -0.871712426505E-01 -0.895628759252E-01 -0.920087669695E-01 -0.945093796799E-01 -0.970651215453E-01
 -0.996763381226E-01 -0.102343307172E+00 -0.105066232436E+00 -0.107845237056E+00 -0.110680356592E+00
 -0.113571531660E+00 -0.116518600142E+00 -0.119521288974E+00 -0.122579205492E+00 -0.125691828320E+00
 -0.128858497793E+00 -0.132078405886E+00 -0.135350585669E+00 -0.138673900233E+00 -0.142047031126E+00
 -0.145468466250E+00 -0.148936487234E+00 -0.152449156280E+00 -0.156004302467E+00 -0.159599507521E+00
 -0.163232091061E+00 -0.166899095316E+00 -0.170597269325E+00 -0.174323052650E+00 -0.178072558595E+00
 -0.181841556987E+00 -0.185625456520E+00 -0.189419286719E+00 -0.193217679562E+00 -0.197014850804E+00
 -0.200804581076E+00 -0.204580196824E+00 -0.208334551152E+00 -0.212060004690E+00 -0.215748406554E+00
 -0.219391075536E+00 -0.222978781647E+00 -0.226501728142E+00 -0.229949534205E+00 -0.233311218447E+00
 -0.236575183429E+00 -0.239729201401E+00 -0.242760401499E+00 -0.245655258642E+00 -0.248399584406E+00
 -0.250978520163E+00 -0.253376532807E+00 -0.255577413397E+00 -0.257564279092E+00 -0.259319578760E+00
 -0.260825102677E+00 -0.262061996755E+00 -0.263010781755E+00 -0.263651377986E+00 -0.263963135990E+00
 -0.263924873745E+00 -0.263514920943E+00 -0.262711170913E+00 -0.261491140778E+00 -0.259832040426E+00
 -0.257710850927E+00 -0.255104412983E+00 -0.251989526018E+00 -0.248343058515E+00 -0.244142070165E+00
 -0.239363946375E+00 -0.233986545673E+00 -0.227988360451E+00 -0.221348691479E+00 -0.214047836510E+00
 -0.206067293243E+00 -0.197389976786E+00 -0.188000451649E+00 -0.177885178171E+00 -0.167032773097E+00
 -0.155434283884E+00 -0.143083476083E+00 -0.129977132922E+00 -0.116115365985E+00 -0.101501935573E+00
 -0.861445790530E-01 -0.700553451589E-01 -0.532509318566E-01 -0.357530250278E-01 -0.175886348583E-01
  0.120957352451E-02  0.206029589246E-01  0.405465964758E-01  0.609889877842E-01  0.818717932277E-01
  0.103129591063E+00  0.124689668373E+00  0.146471849463E+00  0.168388368117E+00  0.190343791082E+00
  0.212235001064E+00  0.233951248328E+00  0.255374280379E+00  0.276378559254E+00  0.296831575432E+00
  0.316594266470E+00  0.335521547293E+00  0.353462957849E+00  0.370263432784E+00  0.385764196942E+00
  0.399803789685E+00  0.412219219977E+00  0.422847252924E+00  0.431525826844E+00  0.438095598130E+00
  0.442401609157E+00  0.444295072302E+00  0.443635260821E+00  0.440291494752E+00  0.434145207324E+00
  0.425092074410E+00  0.413044186527E+00  0.397932239681E+00  0.379707718180E+00  0.358345039276E+00
  0.333843626492E+00  0.306229875619E+00  0.275558974914E+00  0.241916539083E+00  0.205420015245E+00
  0.166219818418E+00  0.124500153981E+00  0.804794852335E-01  0.344106055405E-01 -0.134197227496E-01
 -0.626915952368E-01 -0.113053281057E+00 -0.164123033456E+00 -0.215491378637E+00 -0.266723842382E+00
 -0.317364062564E+00 -0.366937253232E+00 -0.414954040636E+00 -0.460914766564E+00 -0.504314394999E+00
 -0.544648093681E+00 -0.581417391559E+00 -0.614136658637E+00 -0.642339643560E+00 -0.665585910126E+00
 -0.683467112560E+00 -0.695613074678E+00 -0.701697610450E+00 -0.701443986827E+00 -0.694629909724E+00
 -0.681091916957E+00 -0.660729081481E+00 -0.633505953828E+00 -0.599454697455E+00 -0.558676390008E+00
 -0.511341477553E+00 -0.457689378236E+00 -0.398027237843E+00 -0.332727843615E+00 -0.262226705452E+00
 -0.187018316553E+00 -0.107651609848E+00 -0.247246342238E-01  0.611215138945E-01  0.149209451388E+00
  0.238832889348E+00  0.329264541149E+00  0.419764449822E+00  0.509588624951E+00  0.597997893097E+00
  0.684266888710E+00  0.767693111483E+00  0.847605895369E+00  0.923374902125E+00  0.994417387149E+00
  0.106020321443E+01  0.112025691930E+01  0.117415739351E+01  0.122153745237E+01  0.126208604617E+01
  0.129555412865E+01  0.132176246632E+01  0.134060848906E+01  0.135207032255E+01  0.135620782112E+01
  0.135316129847E+01  0.134314863828E+01  0.132646114673E+01  0.130345826370E+01  0.127456117648E+01
  0.124024541232E+01  0.120103256023E+01  0.115748132428E+01  0.111017814201E+01  0.105972759618E+01
  0.100674283190E+01  0.951836160663E+00  0.895610007222E+00  0.838648332034E+00  0.781508652421E+00
  0.724714790990E+00  0.668750489761E+00  0.614054046464E+00  0.561014135569E+00  0.509966959232E+00
  0.461194823655E+00  0.414926152981E+00  0.371336846310E+00  0.330552762198E+00  0.292652988920E+00
  0.257673441109E+00  0.225610273109E+00  0.196422756157E+00  0.170035777149E+00  0.146342838763E+00
  0.125210688173E+00  0.106485824194E+00  0.900017251511E-01  0.755851963490E-01  0.630610773757E-01
  0.522555369594E-01  0.429985096424E-01  0.351256679067E-01  0.284800894592E-01  0.229136457437E-01
  0.182880949968E-01  0.144758646391E-01  0.113605227263E-01  0.883695452822E-02  0.681127436730E-02
  0.520051313493E-02  0.393212711518E-02  0.294337286716E-02  0.218058716722E-02  0.159840354310E-02
  0.115893089456E-02  0.830916483058E-03  0.588914318642E-03  0.412479045948E-03  0.285403544082E-03
  0.195015232739E-03  0.131541844847E-03  0.875528074364E-04  0.574779729631E-04  0.372016938706E-04
  0.237273601902E-04  0.149055776954E-04  0.921808674990E-05  0.560917290320E-05  0.335653106100E-05
  0.197414388006E-05  0.114056647713E-05  0.646946327345E-06
 pseudo wavefunction
 -0.176090924632E-03 -0.181816962117E-03 -0.187729196047E-03 -0.193833681065E-03 -0.200136668696E-03
 -0.206644613748E-03 -0.213364180925E-03 -0.220302251648E-03 -0.227465931107E-03 -0.234862555532E-03
 -0.242499699712E-03 -0.250385184746E-03 -0.258527086058E-03 -0.266933741663E-03 -0.275613760707E-03
 -0.284576032284E-03 -0.293829734539E-03 -0.303384344068E-03 -0.313249645621E-03 -0.323435742122E-03
 -0.333953065019E-03 -0.344812384962E-03 -0.356024822836E-03 -0.367601861149E-03 -0.379555355792E-03
 -0.391897548177E-03 -0.404641077776E-03 -0.417798995065E-03 -0.431384774889E-03 -0.445412330257E-03
 -0.459896026597E-03 -0.474850696461E-03 -0.490291654719E-03 -0.506234714239E-03 -0.522696202084E-03
 -0.539692976229E-03 -0.557242442827E-03 -0.575362574036E-03 -0.594071926416E-03 -0.613389659942E-03
 -0.633335557619E-03 -0.653930045741E-03 -0.675194214814E-03 -0.697149841148E-03 -0.719819409162E-03
 -0.743226134404E-03 -0.767393987333E-03 -0.792347717859E-03 -0.818112880690E-03 -0.844715861506E-03
 -0.872183903972E-03 -0.900545137644E-03 -0.929828606768E-03 -0.960064300028E-03 -0.991283181255E-03
 -0.102351722113E-02 -0.105679942994E-02 -0.109116389134E-02 -0.112664579733E-02 -0.116328148419E-02
 -0.120110846980E-02 -0.124016549197E-02 -0.128049254816E-02 -0.132213093641E-02 -0.136512329765E-02
 -0.140951365934E-02 -0.145534748058E-02 -0.150267169865E-02 -0.155153477706E-02 -0.160198675518E-02
 -0.165407929949E-02 -0.170786575650E-02 -0.176340120730E-02 -0.182074252407E-02 -0.187994842819E-02
 -0.194107955049E-02 -0.200419849323E-02 -0.206936989425E-02 -0.213666049313E-02 -0.220613919955E-02
 -0.227787716379E-02 -0.235194784964E-02 -0.242842710958E-02 -0.250739326241E-02 -0.258892717350E-02
 -0.267311233752E-02 -0.276003496392E-02 -0.284978406523E-02 -0.294245154812E-02 -0.303813230752E-02
 -0.313692432377E-02 -0.323892876285E-02 -0.334425008001E-02 -0.345299612662E-02 -0.356527826060E-02
 -0.368121146035E-02 -0.380091444247E-02 -0.392450978320E-02 -0.405212404391E-02 -0.418388790056E-02
 -0.431993627742E-02 -0.446040848516E-02 -0.460544836334E-02 -0.475520442756E-02 -0.490983002143E-02
 -0.506948347337E-02 -0.523432825860E-02 -0.540453316631E-02 -0.558027247228E-02 -0.576172611708E-02
 -0.594907989004E-02 -0.614252561923E-02 -0.634226136752E-02 -0.654849163501E-02 -0.676142756809E-02
 -0.698128717511E-02 -0.720829554919E-02 -0.744268509810E-02 -0.768469578170E-02 -0.793457535692E-02
 -0.819257963076E-02 -0.845897272140E-02 -0.873402732772E-02 -0.901802500763E-02 -0.931125646518E-02
 -0.961402184709E-02 -0.992663104877E-02 -0.102494040301E-01 -0.105826711416E-01 -0.109267734608E-01
 -0.112820631394E-01 -0.116489037620E-01 -0.120276707158E-01 -0.124187515726E-01 -0.128225464822E-01
 -0.132394685798E-01 -0.136699444048E-01 -0.141144143339E-01 -0.145733330281E-01 -0.150471698931E-01
 -0.155364095549E-01 -0.160415523507E-01 -0.165631148343E-01 -0.171016302989E-01 -0.176576493147E-01
 -0.182317402852E-01 -0.188244900192E-01 -0.194365043218E-01 -0.200684086039E-01 -0.207208485097E-01
 -0.213944905643E-01 -0.220900228419E-01 -0.228081556529E-01 -0.235496222539E-01 -0.243151795785E-01
 -0.251056089898E-01 -0.259217170570E-01 -0.267643363543E-01 -0.276343262841E-01 -0.285325739252E-01
 -0.294599949046E-01 -0.304175342971E-01 -0.314061675492E-01 -0.324269014306E-01 -0.334807750133E-01
 -0.345688606778E-01 -0.356922651478E-01 -0.368521305543E-01 -0.380496355279E-01 -0.392859963218E-01
 -0.405624679641E-01 -0.418803454408E-01 -0.432409649091E-01 -0.446457049420E-01 -0.460959878037E-01
 -0.475932807554E-01 -0.491390973932E-01 -0.507349990159E-01 -0.523825960240E-01 -0.540835493480E-01
 -0.558395719076E-01 -0.576524300983E-01 -0.595239453073E-01 -0.614559954554E-01 -0.634505165643E-01
 -0.655095043483E-01 -0.676350158273E-01 -0.698291709598E-01 -0.720941542922E-01 -0.744322166225E-01
 -0.768456766743E-01 -0.793369227768E-01 -0.819084145466E-01 -0.845626845662E-01 -0.873023400524E-01
 -0.901300645096E-01 -0.930486193585E-01 -0.960608455331E-01 -0.991696650363E-01 -0.102378082442E+00
 -0.105689186337E+00 -0.109106150677E+00 -0.112632236062E+00 -0.116270790893E+00 -0.120025252408E+00
 -0.123899147567E+00 -0.127896093767E+00 -0.132019799366E+00 -0.136274063983E+00 -0.140662778538E+00
 -0.145189925013E+00 -0.149859575889E+00 -0.154675893207E+00 -0.159643127226E+00 -0.164765614619E+00
 -0.170047776146E+00 -0.175494113757E+00 -0.181109207040E+00 -0.186897708961E+00 -0.192864340798E+00
 -0.199013886191E+00 -0.205351184204E+00 -0.211881121304E+00 -0.218608622124E+00 -0.225538638898E+00
 -0.232676139426E+00 -0.240026093414E+00 -0.247593457021E+00 -0.255383155452E+00 -0.263400063379E+00
 -0.271648982995E+00 -0.280134619465E+00 -0.288861553529E+00 -0.297834210984E+00 -0.307056828769E+00
 -0.316533417317E+00 -0.326267718872E+00 -0.336263161384E+00 -0.346522807615E+00 -0.357049299043E+00
 -0.367844794127E+00 -0.378910900477E+00 -0.390248600441E+00 -0.401858169604E+00 -0.413739087655E+00
 -0.425889941088E+00 -0.438308317147E+00 -0.450990688450E+00 -0.463932287684E+00 -0.477126971806E+00
 -0.490567075141E+00 -0.504243250848E+00 -0.518144300204E+00 -0.532256989257E+00 -0.546565852424E+00
 -0.561052982761E+00 -0.575697808694E+00 -0.590476857228E+00 -0.605363503781E+00 -0.620327709103E+00
 -0.635335743983E+00 -0.650349902835E+00 -0.665328207693E+00 -0.680224104624E+00 -0.694986155183E+00
 -0.709557726246E+00 -0.723876682319E+00 -0.737875085388E+00 -0.751478908393E+00 -0.764607769621E+00
 -0.777174696603E+00 -0.789085929609E+00 -0.800240776405E+00 -0.810531531690E+00 -0.819843476494E+00
 -0.828054974711E+00 -0.835037685966E+00 -0.840656915957E+00 -0.844772127267E+00 -0.847237635331E+00
 -0.847903515569E+00 -0.846616748530E+00 -0.843222629998E+00 -0.837566472218E+00 -0.829495620251E+00
 -0.818861803833E+00 -0.805523839379E+00 -0.789350688714E+00 -0.770224870105E+00 -0.748046202835E+00
 -0.722735848459E+00 -0.694240589570E+00 -0.662537260185E+00 -0.627637210708E+00 -0.589590655043E+00
 -0.548490708651E+00 -0.504476885407E+00 -0.457737780241E+00 -0.408512626803E+00 -0.357091389217E+00
 -0.303813030028E+00 -0.249061600148E+00 -0.193259829768E+00 -0.136859972250E+00 -0.803317774577E-01
 -0.241476584174E-01  0.312346234254E-01  0.853910861364E-01  0.137951373523E+00  0.188617721767E+00
  0.237180890660E+00  0.283530331665E+00  0.327655345292E+00  0.369633609565E+00  0.409603371232E+00
  0.447715947831E+00  0.484066186404E+00  0.518594872906E+00  0.551067087029E+00  0.581284767205E+00
  0.609115871093E+00  0.634455451734E+00  0.657223431136E+00  0.677357311094E+00  0.694800625631E+00
  0.709492052621E+00  0.721361578723E+00  0.730335830480E+00  0.736348505437E+00  0.739350136604E+00
  0.739314306764E+00  0.736240601697E+00  0.730155778840E+00  0.721114395945E+00  0.709199572726E+00
  0.694524091743E+00  0.677231720970E+00  0.657498395683E+00  0.635532657178E+00  0.611574603021E+00
  0.585892678678E+00  0.558777957796E+00  0.530536189501E+00  0.501478395603E+00  0.471911230609E+00
  0.442128184787E+00  0.412402504743E+00  0.382982235985E+00  0.354087432044E+00  0.325909299134E+00
  0.298610885694E+00  0.272328855650E+00  0.247175875085E+00  0.223243176513E+00  0.200602935946E+00
  0.179310202752E+00  0.159404254115E+00  0.140909387313E+00  0.123835287509E+00  0.108177189629E+00
  0.939160749276E-01  0.810191085858E-01  0.694404522922E-01
 ae wavefunction
  0.110580729358E-02  0.114019153143E-02  0.117563997604E-02  0.121218525365E-02  0.124986097067E-02
  0.128870174191E-02  0.132874321945E-02  0.137002212231E-02  0.141257626688E-02  0.145644459804E-02
  0.150166722116E-02  0.154828543480E-02  0.159634176422E-02  0.164587999572E-02  0.169694521181E-02
  0.174958382711E-02  0.180384362519E-02  0.185977379618E-02  0.191742497523E-02  0.197684928181E-02
  0.203810035989E-02  0.210123341895E-02  0.216630527580E-02  0.223337439734E-02  0.230250094408E-02
  0.237374681460E-02  0.244717569070E-02  0.252285308358E-02  0.260084638067E-02  0.268122489336E-02
  0.276405990549E-02  0.284942472266E-02  0.293739472222E-02  0.302804740409E-02  0.312146244215E-02
  0.321772173647E-02  0.331690946598E-02  0.341911214193E-02  0.352441866170E-02  0.363292036329E-02
  0.374471108007E-02  0.385988719601E-02  0.397854770121E-02  0.410079424755E-02  0.422673120459E-02
  0.435646571542E-02  0.449010775249E-02  0.462777017324E-02  0.476956877542E-02  0.491562235198E-02
  0.506605274537E-02  0.522098490109E-02  0.538054692030E-02  0.554487011138E-02  0.571408904013E-02
  0.588834157844E-02  0.606776895125E-02  0.625251578144E-02  0.644273013247E-02  0.663856354843E-02
  0.684017109118E-02  0.704771137429E-02  0.726134659333E-02  0.748124255226E-02  0.770756868535E-02
  0.794049807428E-02  0.818020745994E-02  0.842687724834E-02  0.868069151024E-02  0.894183797378E-02
  0.921050800949E-02  0.948689660719E-02  0.977120234387E-02  0.100636273419E-01  0.103643772169E-01
  0.106736610140E-01  0.109916911324E-01  0.113186832359E-01  0.116548561507E-01  0.120004317460E-01
  0.123556348004E-01  0.127206928486E-01  0.130958360112E-01  0.134812968028E-01  0.138773099193E-01
  0.142841120020E-01  0.147019413768E-01  0.151310377672E-01  0.155716419791E-01  0.160239955561E-01
  0.164883404022E-01  0.169649183709E-01  0.174539708185E-01  0.179557381189E-01  0.184704591374E-01
  0.189983706620E-01  0.195397067885E-01  0.200946982576E-01  0.206635717405E-01  0.212465490707E-01
  0.218438464184E-01  0.224556734048E-01  0.230822321530E-01  0.237237162714E-01  0.243803097675E-01
  0.250521858867E-01  0.257395058742E-01  0.264424176551E-01  0.271610544282E-01  0.278955331718E-01
  0.286459530545E-01  0.294123937492E-01  0.301949136444E-01  0.309935479503E-01  0.318083066937E-01
  0.326391725982E-01  0.334860988460E-01  0.343490067164E-01  0.352277830965E-01  0.361222778617E-01
  0.370323011202E-01  0.379576203198E-01  0.388979572116E-01  0.398529846694E-01  0.408223233606E-01
  0.418055382676E-01  0.428021350563E-01  0.438115562920E-01  0.448331775010E-01  0.458663030788E-01
  0.469101620454E-01  0.479639036499E-01  0.490265928272E-01  0.500972055113E-01  0.511746238114E-01
  0.522576310560E-01  0.533449067160E-01  0.544350212163E-01  0.555264306482E-01  0.566174713983E-01
  0.577063547105E-01  0.587911612008E-01  0.598698353492E-01  0.609401799917E-01  0.619998508448E-01
  0.630463510923E-01  0.640770260742E-01  0.650890581151E-01  0.660794615409E-01  0.670450779307E-01
  0.679825716618E-01  0.688884258054E-01  0.697589384413E-01  0.705902194628E-01  0.713781879480E-01
  0.721185701854E-01  0.728068984416E-01  0.734385105704E-01  0.740085505687E-01  0.745119701895E-01
  0.749435317331E-01  0.752978121409E-01  0.755692085275E-01  0.757519452894E-01  0.758400829386E-01
  0.758275288150E-01  0.757080498356E-01  0.754752874471E-01  0.751227749484E-01  0.746439573584E-01
  0.740322140009E-01  0.732808839844E-01  0.723832947498E-01  0.713327938595E-01  0.701227841935E-01
  0.687467627132E-01  0.671983629415E-01  0.654714012958E-01  0.635599273938E-01  0.614582784286E-01
  0.591611376900E-01  0.566635972741E-01  0.539612249931E-01  0.510501354548E-01  0.479270652393E-01
  0.445894520446E-01  0.410355176195E-01  0.372643542336E-01  0.332760143639E-01  0.290716031954E-01
  0.246533734479E-01  0.200248219413E-01  0.151907872150E-01  0.101575474087E-01  0.493291750636E-02
 -0.473655051173E-03 -0.605099747210E-02 -0.117861225967E-01 -0.176641449781E-01 -0.236682033364E-01
 -0.297793907362E-01 -0.359766939438E-01 -0.422369435950E-01 -0.485347770329E-01 -0.548426159532E-01
 -0.611306612676E-01 -0.673669078185E-01 -0.735171817079E-01 -0.795452030052E-01 -0.854126764630E-01
 -0.910794126114E-01 -0.965034812615E-01 -0.101641399105E+00 -0.106448352798E+00 -0.110878458674E+00
 -0.114885060000E+00 -0.118421062386E+00 -0.121439307609E+00 -0.123892985638E+00 -0.125736084126E+00
 -0.126923874057E+00 -0.127413429603E+00 -0.127164179563E+00 -0.126138487028E+00 -0.124302253096E+00
 -0.121625539643E+00 -0.118083205230E+00 -0.113655547297E+00 -0.108328942871E+00 -0.102096479018E+00
 -0.949585634038E-01 -0.869235044506E-01 -0.780080498308E-01 -0.682378714481E-01 -0.576479846027E-01
 -0.462830887986E-01 -0.341978175852E-01 -0.214568849569E-01 -0.813511618170E-02  0.568264833460E-02
  0.199017860777E-01  0.344182694677E-01  0.491191892956E-01  0.638834203224E-01  0.785824180383E-01
  0.930811324690E-01  0.107239030223E+00  0.120911231952E+00  0.133949794041E+00  0.146205174685E+00
  0.157527905307E+00  0.167770438509E+00  0.176789099267E+00  0.184446063320E+00  0.190611317566E+00
  0.195164585580E+00  0.197997208322E+00  0.199013961684E+00  0.198134781788E+00  0.195296362991E+00
  0.190453594302E+00  0.183580805366E+00  0.174672800294E+00  0.163745664394E+00  0.150837334044E+00
  0.136007923487E+00  0.119339804587E+00  0.100937436783E+00  0.809269451312E-01  0.594554446689E-01
  0.366901098337E-01  0.128169886511E-01 -0.119604364676E-01 -0.374229360900E-01 -0.633374590726E-01
 -0.894592795336E-01 -0.115534343097E+00 -0.141301785585E+00 -0.166496596850E+00 -0.190852406216E+00
 -0.214104371796E+00 -0.235992153295E+00 -0.256262920832E+00 -0.274674281753E+00 -0.290996904473E+00
 -0.305016555015E+00 -0.316535381090E+00 -0.325372662979E+00 -0.331365709848E+00 -0.334371651823E+00
 -0.334270311795E+00 -0.330967568158E+00 -0.324398351322E+00 -0.314528769028E+00 -0.301357333851E+00
 -0.284915486724E+00 -0.265267582924E+00 -0.242510411294E+00 -0.216772254899E+00 -0.188211489231E+00
 -0.157014729227E+00 -0.123394558428E+00 -0.875868878972E-01 -0.498479996114E-01 -0.104513288128E-01
  0.303159611183E-01  0.721565571874E-01  0.114766668824E+00  0.157839722101E+00  0.201069988591E+00
  0.244156046284E+00  0.286803962335E+00  0.328730099360E+00  0.369663486088E+00  0.409347762446E+00
  0.447542799842E+00  0.484026192459E+00  0.518594872906E+00  0.551067087029E+00  0.581284767205E+00
  0.609115871093E+00  0.634455451734E+00  0.657223431136E+00  0.677357311094E+00  0.694800625631E+00
  0.709492052621E+00  0.721361578723E+00  0.730335830480E+00  0.736348505437E+00  0.739350136604E+00
  0.739314306764E+00  0.736240601697E+00  0.730155778840E+00  0.721114395945E+00  0.709199572726E+00
  0.694524091743E+00  0.677231720970E+00  0.657498395683E+00  0.635532657178E+00  0.611574603021E+00
  0.585892678678E+00  0.558777957796E+00  0.530536189501E+00  0.501478395603E+00  0.471911230609E+00
  0.442128184787E+00  0.412402504743E+00  0.382982235985E+00  0.354087432044E+00  0.325909299134E+00
  0.298610885694E+00  0.272328855650E+00  0.247175875085E+00  0.223243176513E+00  0.200602935946E+00
  0.179310202752E+00  0.159404254115E+00  0.140909387313E+00  0.123835287509E+00  0.108177189629E+00
  0.939160749276E-01  0.810191085858E-01  0.694404522922E-01
 pseudo wavefunction
  0.125664747197E-07  0.133970231742E-07  0.142824645678E-07  0.152264269066E-07  0.162327779799E-07
  0.173056412090E-07  0.184494125416E-07  0.196687784642E-07  0.209687352046E-07  0.223546092029E-07
  0.238320789368E-07  0.254071981879E-07  0.270864208468E-07  0.288766273572E-07  0.307851529078E-07
  0.328198174875E-07  0.349889579269E-07  0.373014620578E-07  0.397668051299E-07  0.423950886349E-07
  0.451970816963E-07  0.481842651948E-07  0.513688788096E-07  0.547639711700E-07  0.583834533199E-07
  0.622421557179E-07  0.663558890025E-07  0.707415087754E-07  0.754169846650E-07  0.804014739555E-07
  0.857154000816E-07  0.913805363115E-07  0.974200949606E-07  0.103858822502E-06  0.110723100960E-06
  0.118041056014E-06  0.125842672231E-06  0.134159915934E-06  0.143026866174E-06  0.152479854367E-06
  0.162557613159E-06  0.173301435130E-06  0.184755341983E-06  0.196966264918E-06  0.209984236932E-06
  0.223862597819E-06  0.238658212726E-06  0.254431705154E-06  0.271247705350E-06  0.289175115130E-06
  0.308287390190E-06  0.328662841087E-06  0.350384954105E-06  0.373542733333E-06  0.398231065346E-06
  0.424551107998E-06  0.452610704895E-06  0.482524827283E-06  0.514416045120E-06  0.548415029298E-06
  0.584661087048E-06  0.623302732737E-06  0.664498296388E-06  0.708416572414E-06  0.755237511239E-06
  0.805152956616E-06  0.858367431686E-06  0.915098976987E-06  0.975580043842E-06  0.104005844680E-05
  0.110879837904E-05  0.118208149482E-05  0.126020806358E-05  0.134349820020E-05  0.143229317665E-05
  0.152695682032E-05  0.162787700470E-05  0.173546723869E-05  0.185016836083E-05  0.197245034564E-05
  0.210281422919E-05  0.224179416205E-05  0.238995959789E-05  0.254791762672E-05  0.271631546227E-05
  0.289584309394E-05  0.308723611380E-05  0.329127873060E-05  0.350880698287E-05  0.374071216444E-05
  0.398794447633E-05  0.425151691994E-05  0.453250944768E-05  0.483207338773E-05  0.515143616137E-05
  0.549190631203E-05  0.585487886667E-05  0.624184105155E-05  0.665437838569E-05  0.709418117706E-05
  0.756305144810E-05  0.806291031889E-05  0.859580587833E-05  0.916392157541E-05  0.976958516507E-05
  0.104152782453E-04  0.111036464244E-04  0.118375101604E-04  0.126198763162E-04  0.134539504792E-04
  0.143431500944E-04  0.152911184656E-04  0.163017396815E-04  0.173791545292E-04  0.185277774575E-04
  0.197523146633E-04  0.210577833711E-04  0.224495323880E-04  0.239332640159E-04  0.255150574123E-04
  0.272013934944E-04  0.289991814885E-04  0.309157872343E-04  0.329590633583E-04  0.351373814420E-04
  0.374596663146E-04  0.399354326113E-04  0.425748237479E-04  0.453886534689E-04  0.483884501414E-04
  0.515865039747E-04  0.549959173594E-04  0.586306585312E-04  0.625056187805E-04  0.666366734398E-04
  0.710407468999E-04  0.757358819197E-04  0.807413135144E-04  0.860775477219E-04  0.917664455724E-04
  0.978313126014E-04  0.104296994274E-03  0.111189977708E-03  0.118538500119E-03  0.126372664412E-03
  0.134724562419E-03  0.143628406258E-03  0.153120668371E-03  0.163240230796E-03  0.174028544294E-03
  0.185529797977E-03  0.197791100118E-03  0.210862670902E-03  0.224798047874E-03  0.239654304951E-03
  0.255492285867E-03  0.272376853008E-03  0.290377152654E-03  0.309566897700E-03  0.330024669005E-03
  0.351834236597E-03  0.375084902032E-03  0.399871863299E-03  0.426296603746E-03  0.454467306612E-03
  0.484499296823E-03  0.516515511865E-03  0.550647003604E-03  0.587033473111E-03  0.625823840623E-03
  0.667176852943E-03  0.711261730737E-03  0.758258858295E-03  0.808360518561E-03  0.861771676351E-03
  0.918710812900E-03  0.979410815073E-03  0.104411992279E-02  0.111310273841E-02  0.118664130212E-02
  0.126503623760E-02  0.134860797237E-02  0.143769803786E-02  0.153267045408E-02  0.163391320454E-02
  0.174183980695E-02  0.185689098609E-02  0.197953645513E-02  0.211027681245E-02  0.224964556116E-02
  0.239821125922E-02  0.255657980816E-02  0.272539688942E-02  0.290535055720E-02  0.309717399790E-02
  0.330164846618E-02  0.351960640882E-02  0.375193478772E-02  0.399957861440E-02  0.426354470866E-02
  0.454490569510E-02  0.484480425178E-02  0.516445762588E-02  0.550516243238E-02  0.586829975220E-02
  0.625534054717E-02  0.666785141025E-02  0.710750066984E-02  0.757606486821E-02  0.807543563475E-02
  0.860762697567E-02  0.917478300250E-02  0.977918612262E-02  0.104232657157E-01  0.111096073209E-01
  0.118409623597E-01  0.126202584205E-01  0.134506101314E-01  0.143353306467E-01  0.152779437753E-01
  0.162821967756E-01  0.173520738451E-01  0.184918103279E-01  0.197059076668E-01  0.209991491213E-01
  0.223766162737E-01  0.238437063409E-01  0.254061503089E-01  0.270700318995E-01  0.288418073775E-01
  0.307283261983E-01  0.327368524908E-01  0.348750873591E-01  0.371511919807E-01  0.395738114635E-01
  0.421520994120E-01  0.448957431369E-01  0.478149894241E-01  0.509206707557E-01  0.542242318536E-01
  0.577377563858E-01  0.614739936427E-01  0.654463849552E-01  0.696690895812E-01  0.741570097411E-01
  0.789258144263E-01  0.839919615429E-01  0.893727178845E-01  0.950861763459E-01  0.101151269705E+00
  0.107587780202E+00  0.114416344026E+00  0.121658449712E+00  0.129336429311E+00  0.137473441032E+00
  0.146093441922E+00  0.155221148942E+00  0.164881986622E+00  0.175102019270E+00  0.185907865465E+00
  0.197326592356E+00  0.209385587013E+00  0.222112401830E+00  0.235534570698E+00  0.249679392404E+00
  0.264573677435E+00  0.280243454115E+00  0.296713629747E+00  0.314007602257E+00  0.332146817645E+00
  0.351150268488E+00  0.371033928737E+00  0.391810120157E+00  0.413486806073E+00  0.436066808519E+00
  0.459546945643E+00  0.483917087192E+00  0.509159127307E+00  0.535245875632E+00  0.562139870043E+00
  0.589792117228E+00  0.618140770864E+00  0.647109761544E+00  0.676607397773E+00  0.706524963529E+00
  0.736735345073E+00  0.767091727941E+00  0.797426414387E+00  0.827549821945E+00  0.857249735053E+00
  0.886290893725E+00  0.914415015583E+00  0.941341359767E+00  0.966767952508E+00  0.990373603504E+00
  0.101182084840E+01  0.103075995392E+01  0.104683411652E+01  0.105968597031E+01  0.106896549245E+01
  0.107433935118E+01  0.107550167904E+01  0.107218616848E+01  0.106417927503E+01  0.105133417191E+01
  0.103358492718E+01  0.101096017214E+01  0.983595299144E+00  0.951741979706E+00  0.915773541411E+00
  0.876184509817E+00  0.833582440758E+00  0.788670084140E+00  0.742215989479E+00  0.695011955838E+00
  0.647816324520E+00  0.601283097394E+00  0.555878318387E+00  0.511814148662E+00  0.469260140314E+00
  0.428418936208E+00  0.389463370870E+00  0.352533345094E+00  0.317732926646E+00  0.285127865339E+00
  0.254745962291E+00  0.226581563205E+00  0.200602737049E+00  0.176758241455E+00  0.154982447148E+00
  0.135198250027E+00  0.117318867443E+00  0.101249291284E+00  0.868877666219E-01  0.741273782817E-01
  0.628577005244E-01  0.529664311646E-01  0.443409351964E-01  0.368696409112E-01  0.304432566861E-01
  0.249558053526E-01  0.203054986903E-01  0.163954865854E-01  0.131345086656E-01  0.104374559442E-01
  0.822582836809E-02  0.642806266244E-02  0.497970661139E-02  0.382342762171E-02  0.290885877163E-02
  0.219229942438E-02  0.163629715990E-02  0.120914264081E-02  0.884309718322E-03  0.639870710961E-03
  0.457912490024E-03  0.323973744416E-03  0.226518325479E-03  0.156454441396E-03  0.106705045380E-03
  0.718312256508E-04  0.477077764033E-04  0.312483049891E-04
 ae wavefunction
  0.694346563709E-05  0.734935329875E-05  0.777771859444E-05  0.822988250748E-05  0.870724065473E-05
  0.921126774980E-05  0.974352232644E-05  0.103056517384E-04  0.108993974553E-04  0.115266006678E-04
  0.121892082259E-04  0.128892789302E-04  0.136289901953E-04  0.144106451141E-04  0.152366799370E-04
  0.161096720073E-04  0.170323481664E-04  0.180075936677E-04  0.190384616247E-04  0.201281830304E-04
  0.212801773828E-04  0.224980639481E-04  0.237856737151E-04  0.251470620646E-04  0.265865222156E-04
  0.281085994831E-04  0.297181064094E-04  0.314201388120E-04  0.332200928114E-04  0.351236828987E-04
  0.371369611058E-04  0.392663373463E-04  0.415186010018E-04  0.439009438286E-04  0.464209842663E-04
  0.490867932370E-04  0.519069215265E-04  0.548904288434E-04  0.580469146634E-04  0.613865509669E-04
  0.649201169872E-04  0.686590360944E-04  0.726154149461E-04  0.768020850457E-04  0.812326468560E-04
  0.859215166260E-04  0.908839760983E-04  0.961362252738E-04  0.101695438422E-03  0.107579823537E-03
  0.113808685446E-03  0.120402492801E-03  0.127382949188E-03  0.134773068597E-03  0.142597255535E-03
  0.150881390050E-03  0.159652917964E-03  0.168940946647E-03  0.178776346641E-03  0.189191859508E-03
  0.200222212267E-03  0.211904238813E-03  0.224277008739E-03  0.237381964002E-03  0.251263063897E-03
  0.265966938832E-03  0.281543053424E-03  0.298043879463E-03  0.315525079318E-03  0.334045700409E-03
  0.353668381365E-03  0.374459570570E-03  0.396489757783E-03  0.419833719616E-03  0.444570779618E-03
  0.470785083839E-03  0.498565892712E-03  0.528007890191E-03  0.559211511099E-03  0.592283287698E-03
  0.627336216541E-03  0.664490146712E-03  0.703872190628E-03  0.745617158606E-03  0.789868018466E-03
  0.836776381525E-03  0.886503016312E-03  0.939218391533E-03  0.995103249704E-03  0.105434921308E-02
  0.111715942348E-02  0.118374921773E-02  0.125434684041E-02  0.132919419579E-02  0.140854764086E-02
  0.149267882119E-02  0.158187555193E-02  0.167644274569E-02  0.177670338960E-02  0.188299957366E-02
  0.199569357252E-02  0.211516898299E-02  0.224183191949E-02  0.237611226986E-02  0.251846501362E-02
  0.266937160524E-02  0.282934142463E-02  0.299891329700E-02  0.317865708471E-02  0.336917535287E-02
  0.357110511121E-02  0.378511963406E-02  0.401193036033E-02  0.425228887548E-02  0.450698897677E-02
  0.477686882350E-02  0.506281317302E-02  0.536575570369E-02  0.568668142499E-02  0.602662917503E-02
  0.638669420504E-02  0.676803085001E-02  0.717185528392E-02  0.759944835752E-02  0.805215851573E-02
  0.853140479094E-02  0.903867986763E-02  0.957555321253E-02  0.101436742635E-01  0.107447756690E-01
  0.113806765688E-01  0.120532859042E-01  0.127646057459E-01  0.135167346239E-01  0.143118708432E-01
  0.151523157661E-01  0.160404770400E-01  0.169788717454E-01  0.179701294390E-01  0.190169950598E-01
  0.201223316664E-01  0.212891229665E-01  0.225204756002E-01  0.238196211283E-01  0.251899176795E-01
  0.266348511999E-01  0.281580362455E-01  0.297632162534E-01  0.314542632213E-01  0.332351767170E-01
  0.351100821381E-01  0.370832281294E-01  0.391589830642E-01  0.413418304845E-01  0.436363633909E-01
  0.460472772637E-01  0.485793616885E-01  0.512374904551E-01  0.540266099869E-01  0.569517259526E-01
  0.600178879047E-01  0.632301717799E-01  0.665936600925E-01  0.701134196430E-01  0.737944765605E-01
  0.776417884906E-01  0.816602137379E-01  0.858544771704E-01  0.902291326895E-01  0.947885220728E-01
  0.995367299976E-01  0.104477535060E+00  0.109614356611E+00  0.114950197238E+00  0.120487580751E+00
  0.126228485524E+00  0.132174273087E+00  0.138325611888E+00  0.144682396165E+00  0.151243659923E+00
  0.158007486041E+00  0.164970910600E+00  0.172129822566E+00  0.179478859058E+00  0.187011296460E+00
  0.194718937783E+00  0.202591996727E+00  0.210618979020E+00  0.218786561744E+00  0.227079471434E+00
  0.235480361924E+00  0.243969692993E+00  0.252525611011E+00  0.261123832907E+00  0.269737534823E+00
  0.278337246925E+00  0.286890755843E+00  0.295363016244E+00  0.303716073101E+00  0.311908996361E+00
  0.319897829995E+00  0.327635557899E+00  0.335072089732E+00  0.342154270496E+00  0.348825918306E+00
  0.355027895225E+00  0.360698216186E+00  0.365772200771E+00  0.370182672102E+00  0.373860206311E+00
  0.376733435093E+00  0.378729403076E+00  0.379773981066E+00  0.379792336049E+00  0.378709458722E+00
  0.376450749271E+00  0.372942661838E+00  0.368113407586E+00  0.361893715524E+00  0.354217649420E+00
  0.345023478176E+00  0.334254596027E+00  0.321860487833E+00  0.307797733495E+00  0.292031044236E+00
  0.274534322003E+00  0.255291731767E+00  0.234298774875E+00  0.211563349985E+00  0.187106786519E+00
  0.160964834013E+00  0.133188589329E+00  0.103845342487E+00  0.730193208867E-01  0.408123110228E-01
  0.734413638527E-02 -0.272470298668E-01 -0.628045386921E-01 -0.991533459571E-01 -0.136100319010E+00
 -0.173434783837E+00 -0.210929319837E+00 -0.248340796529E+00 -0.285411630266E+00 -0.321871225305E+00
 -0.357437563865E+00 -0.391818935838E+00 -0.424715853119E+00 -0.455823256563E+00 -0.484833146484E+00
 -0.511437695652E+00 -0.535332751178E+00 -0.556221513888E+00 -0.573818200090E+00 -0.587851598505E+00
 -0.598068521250E+00 -0.604237163146E+00 -0.606150354506E+00 -0.603628658562E+00 -0.596523246497E+00
 -0.584718483910E+00 -0.568134176216E+00 -0.546727437950E+00 -0.520494166930E+00 -0.489470115187E+00
 -0.453731555147E+00 -0.413395542329E+00 -0.368619776013E+00 -0.319602057791E+00 -0.266579345539E+00
 -0.209826397978E+00 -0.149654003464E+00 -0.864067877373E-01 -0.204605992607E-01  0.477805209807E-01
  0.117887766982E+00  0.189411361441E+00  0.261884674889E+00  0.334828628221E+00  0.407756347316E+00
  0.480178056874E+00  0.551606203368E+00  0.621560740001E+00  0.689574329303E+00  0.755196922110E+00
  0.817998917904E+00  0.877572295413E+00  0.933530058367E+00  0.985505718274E+00  0.103315508652E+01
  0.107616140001E+01  0.111424261421E+01  0.114715859273E+01  0.117471660879E+01  0.119677488476E+01
  0.121324463835E+01  0.122409112544E+01  0.122933391609E+01  0.122904642746E+01  0.122335466263E+01
  0.121243512130E+01  0.119651190897E+01  0.117585311858E+01  0.115076659255E+01  0.112159517622E+01
  0.108871156731E+01  0.105251284576E+01  0.101341474980E+01  0.971845757028E+00  0.928241021258E+00
  0.883036246415E+00  0.836661606899E+00  0.789535878701E+00  0.742060992084E+00  0.694617245233E+00
  0.647559406659E+00  0.601213875236E+00  0.555876955867E+00  0.511814148662E+00  0.469260140314E+00
  0.428418936208E+00  0.389463370870E+00  0.352533345094E+00  0.317732926646E+00  0.285127865339E+00
  0.254745962291E+00  0.226581563205E+00  0.200602737049E+00  0.176758241455E+00  0.154982447148E+00
  0.135198250027E+00  0.117318867443E+00  0.101249291284E+00  0.868877666219E-01  0.741273782817E-01
  0.628577005244E-01  0.529664311646E-01  0.443409351964E-01  0.368696409112E-01  0.304432566861E-01
  0.249558053526E-01  0.203054986903E-01  0.163954865854E-01  0.131345086656E-01  0.104374559442E-01
  0.822582836809E-02  0.642806266244E-02  0.497970661139E-02  0.382342762171E-02  0.290885877163E-02
  0.219229942438E-02  0.163629715990E-02  0.120914264081E-02  0.884309718322E-03  0.639870710961E-03
  0.457912490024E-03  0.323973744416E-03  0.226518325479E-03  0.156454441396E-03  0.106705045380E-03
  0.718312256508E-04  0.477077764033E-04  0.312483049891E-04
 pseudo wavefunction
  0.119204388512E-07  0.127082892457E-07  0.135482105623E-07  0.144436442929E-07  0.153982593860E-07
  0.164159672799E-07  0.175009379290E-07  0.186576168899E-07  0.198907435370E-07  0.212053704811E-07
  0.226068842720E-07  0.241010274698E-07  0.256939221740E-07  0.273920951082E-07  0.292025043631E-07
  0.311325679058E-07  0.331901939751E-07  0.353838134839E-07  0.377224145643E-07  0.402155793959E-07
  0.428735234670E-07  0.457071374322E-07  0.487280317355E-07  0.519485841829E-07  0.553819906592E-07
  0.590423191965E-07  0.629445676171E-07  0.671047249850E-07  0.715398371195E-07  0.762680764391E-07
  0.813088164205E-07  0.866827109797E-07  0.924117790994E-07  0.985194950492E-07  0.105030884569E-06
  0.111972627410E-06  0.119373166651E-06  0.127262825241E-06  0.135673930246E-06  0.144640945304E-06
  0.154200611837E-06  0.164392099594E-06  0.175257167146E-06  0.186840332986E-06  0.199189057942E-06
  0.212353939638E-06  0.226388919814E-06  0.241351505349E-06  0.257303003886E-06  0.274308775035E-06
  0.292438498175E-06  0.311766457960E-06  0.332371848690E-06  0.354339098803E-06  0.377758216809E-06
  0.402725160089E-06  0.429342228074E-06  0.457718481399E-06  0.487970188770E-06  0.520221303363E-06
  0.554603970703E-06  0.591259070117E-06  0.630336791972E-06  0.671997253058E-06  0.716411152651E-06
  0.763760471927E-06  0.814239219615E-06  0.868054226915E-06  0.925425994967E-06  0.986589598324E-06
  0.105179564814E-05  0.112131131902E-05  0.119542144372E-05  0.127442968021E-05  0.135865975590E-05
  0.144845679403E-05  0.154418872776E-05  0.164624780777E-05  0.175505220938E-05  0.187104774603E-05
  0.199470969586E-05  0.212654474912E-05  0.226709308428E-05  0.241693058125E-05  0.257667118099E-05
  0.274696940104E-05  0.292852301722E-05  0.312207592271E-05  0.332842117593E-05  0.354840425001E-05
  0.378292649689E-05  0.403294884042E-05  0.429949571354E-05  0.458365925565E-05  0.488660378740E-05
  0.520957058119E-05  0.555388294694E-05  0.592095165405E-05  0.631228071156E-05  0.672947353045E-05
  0.717423949308E-05  0.764840095686E-05  0.815390072072E-05  0.869280998510E-05  0.926733683787E-05
  0.987983530118E-05  0.105328149761E-04  0.112289513246E-04  0.119710966311E-04  0.127622916885E-04
  0.136057782561E-04  0.145050123413E-04  0.154636783582E-04  0.164857042233E-04  0.175752774468E-04
  0.187368622887E-04  0.199752180482E-04  0.212954185614E-04  0.227028729875E-04  0.242033479685E-04
  0.258029912534E-04  0.275083568828E-04  0.293264320385E-04  0.312646656657E-04  0.333309989878E-04
  0.355338980367E-04  0.378823883320E-04  0.403860918518E-04  0.430552664462E-04  0.459008478541E-04
  0.489344944960E-04  0.521686352258E-04  0.556165202372E-04  0.592922753323E-04  0.632109597752E-04
  0.673886279668E-04  0.718423951932E-04  0.765905077161E-04  0.816524174928E-04  0.870488618297E-04
  0.928019482969E-04  0.989352452485E-04  0.105473878321E-03  0.112444633302E-03  0.119876065791E-03
  0.127798618096E-03  0.136244743856E-03  0.145249040871E-03  0.154848392722E-03  0.165082119713E-03
  0.175992139790E-03  0.187623140070E-03  0.200022759684E-03  0.213241784686E-03  0.227334355811E-03
  0.242358189938E-03  0.258374816150E-03  0.275449827361E-03  0.293653148524E-03  0.313059322516E-03
  0.333747814858E-03  0.355803338509E-03  0.379316200047E-03  0.404382668650E-03  0.431105369360E-03
  0.459593702229E-03  0.489964289042E-03  0.522341449422E-03  0.556857708231E-03  0.593654336333E-03
  0.632881926874E-03  0.674701009416E-03  0.719282704385E-03  0.766809420469E-03  0.817475597744E-03
  0.871488499529E-03  0.929069056109E-03  0.990452763715E-03  0.105589064232E-02  0.112565025608E-02
  0.120001680047E-02  0.127929426036E-02  0.136380664372E-02  0.145389929571E-02  0.154994029834E-02
  0.165232196125E-02  0.176146240931E-02  0.187780727340E-02  0.200183149071E-02  0.213404122170E-02
  0.227497589102E-02  0.242521036020E-02  0.258535724048E-02  0.275606935441E-02  0.293804235570E-02
  0.313201751701E-02  0.333878469614E-02  0.355918549161E-02  0.379411659925E-02  0.404453338203E-02
  0.431145366607E-02  0.459596177645E-02  0.489921282720E-02  0.522243728049E-02  0.556694579088E-02
  0.593413435138E-02  0.632548975863E-02  0.674259541543E-02  0.718713748989E-02  0.766091145092E-02
  0.816582900078E-02  0.870392542642E-02  0.927736739169E-02  0.988846119362E-02  0.105396615067E-01
  0.112335806390E-01  0.119729983266E-01  0.127608720892E-01  0.136003481761E-01  0.144947731252E-01
  0.154477059639E-01  0.164629310755E-01  0.175444717576E-01  0.186966044970E-01  0.199238739830E-01
  0.212311088829E-01  0.226234383976E-01  0.241063096140E-01  0.256855056688E-01  0.273671647307E-01
  0.291577998073E-01  0.310643193711E-01  0.330940487975E-01  0.352547525937E-01  0.375546573902E-01
  0.400024756520E-01  0.426074300535E-01  0.453792784442E-01  0.483283393108E-01  0.514655176218E-01
  0.548023309117E-01  0.583509354340E-01  0.621241521767E-01  0.661354924963E-01  0.703991830800E-01
  0.749301898972E-01  0.797442407432E-01  0.848578459141E-01  0.902883164793E-01  0.960537795360E-01
  0.102173189740E+00  0.108666336307E+00  0.115553844558E+00  0.122857170972E+00  0.130598590556E+00
  0.138801175199E+00  0.147488761511E+00  0.156685906461E+00  0.166417828941E+00  0.176710335174E+00
  0.187589725642E+00  0.199082681003E+00  0.211216124183E+00  0.224017055615E+00  0.237512358290E+00
  0.251728569061E+00  0.266691612379E+00  0.282426492392E+00  0.298956939146E+00  0.316305004470E+00
  0.334490602989E+00  0.353530993730E+00  0.373440197830E+00  0.394228348118E+00  0.415900966711E+00
  0.438458167399E+00  0.461893780499E+00  0.486194399051E+00  0.511338346869E+00  0.537294571039E+00
  0.564021464106E+00  0.591465624443E+00  0.619560567349E+00  0.648225404228E+00  0.677363512963E+00
  0.706861229377E+00  0.736586597447E+00  0.766388224896E+00  0.796094300743E+00  0.825511842404E+00
  0.854426251794E+00  0.882601272227E+00  0.909779450475E+00  0.935683220275E+00  0.960016734219E+00
  0.982468578918E+00  0.100271551232E+01  0.102042735991E+01  0.103527319621E+01  0.104692891617E+01
  0.105508626521E+01  0.105946334240E+01  0.105981651477E+01  0.105595357882E+01  0.104774787270E+01
  0.103515287793E+01  0.101821665070E+01  0.997095191184E+00  0.972063600202E+00  0.943523596391E+00
  0.912005691419E+00  0.878164073175E+00  0.842762065310E+00  0.806645967906E+00  0.770705203840E+00
  0.735817078216E+00  0.702775194339E+00  0.672201754417E+00  0.644479023286E+00  0.620004325359E+00
  0.599281684501E+00  0.582852075897E+00  0.000000000000E+00  0.000000000000E+00  0.000000000000E+00
  0.000000000000E+00  0.000000000000E+00  0.000000000000E+00  0.000000000000E+00  0.000000000000E+00
  0.000000000000E+00  0.000000000000E+00  0.000000000000E+00  0.000000000000E+00  0.000000000000E+00
  0.000000000000E+00  0.000000000000E+00  0.000000000000E+00  0.000000000000E+00  0.000000000000E+00
  0.000000000000E+00  0.000000000000E+00  0.000000000000E+00  0.000000000000E+00  0.000000000000E+00
  0.000000000000E+00  0.000000000000E+00  0.000000000000E+00  0.000000000000E+00  0.000000000000E+00
  0.000000000000E+00  0.000000000000E+00  0.000000000000E+00  0.000000000000E+00  0.000000000000E+00
  0.000000000000E+00  0.000000000000E+00  0.000000000000E+00  0.000000000000E+00  0.000000000000E+00
  0.000000000000E+00  0.000000000000E+00  0.000000000000E+00
 ae wavefunction
  0.668501095035E-05  0.707579034894E-05  0.748821070228E-05  0.792354382300E-05  0.838313337919E-05
  0.886839919151E-05  0.938084178073E-05  0.992204718146E-05  0.104936920411E-04  0.110975490158E-04
  0.117354924885E-04  0.124095046255E-04  0.131216817920E-04  0.138742413531E-04  0.146695288754E-04
  0.155100257661E-04  0.163983573660E-04  0.173373015313E-04  0.183297977300E-04  0.193789566886E-04
  0.204880706217E-04  0.216606240762E-04  0.229003054409E-04  0.242110191438E-04  0.255968985983E-04
  0.270623199300E-04  0.286119165448E-04  0.302505945796E-04  0.319835492961E-04  0.338162824760E-04
  0.357546208773E-04  0.378047358189E-04  0.399731639623E-04  0.422668293663E-04  0.446930668909E-04
  0.472596470356E-04  0.499748023017E-04  0.528472551700E-04  0.558862477967E-04  0.591015735322E-04
  0.625036103765E-04  0.661033564893E-04  0.699124678845E-04  0.739432984406E-04  0.782089423726E-04
  0.827232793161E-04  0.875010221840E-04  0.925577679676E-04  0.979100516616E-04  0.103575403507E-03
  0.109572409750E-03  0.115920777143E-03  0.122641401402E-03  0.129756439873E-03  0.137289388657E-03
  0.145265164474E-03  0.153710191536E-03  0.162652493753E-03  0.172121792581E-03  0.182149610847E-03
  0.192769382934E-03  0.204016571676E-03  0.215928792386E-03  0.228545944436E-03  0.241910350833E-03
  0.256066906271E-03  0.271063234157E-03  0.286949853134E-03  0.303780353665E-03  0.321611585261E-03
  0.340503854968E-03  0.360521137777E-03  0.381731299628E-03  0.404206333740E-03  0.428022611024E-03
  0.453261145386E-03  0.480007874742E-03  0.508353958655E-03  0.538396093494E-03  0.570236846105E-03
  0.603985007007E-03  0.639755964185E-03  0.677672098598E-03  0.717863202567E-03  0.760466922279E-03
  0.805629225686E-03  0.853504897099E-03  0.904258059944E-03  0.958062729044E-03  0.101510339399E-02
  0.107557563517E-02  0.113968677403E-02  0.120765655933E-02  0.127971789111E-02  0.135611758411E-02
  0.143711717263E-02  0.152299375868E-02  0.161404090531E-02  0.171056957737E-02  0.181290913152E-02
  0.192140835775E-02  0.203643657460E-02  0.215838478007E-02  0.228766686071E-02  0.242472086081E-02
  0.257001031422E-02  0.272402564074E-02  0.288728560961E-02  0.306033887190E-02  0.324376556429E-02
  0.343817898602E-02  0.364422735114E-02  0.386259561786E-02  0.409400739663E-02  0.433922693868E-02
  0.459906120609E-02  0.487436202471E-02  0.516602832061E-02  0.547500844053E-02  0.580230255643E-02
  0.614896515386E-02  0.651610760315E-02  0.690490081221E-02  0.731657795864E-02  0.775243729865E-02
  0.821384504899E-02  0.870223833751E-02  0.921912821692E-02  0.976610273506E-02  0.103448300539E-01
  0.109570616080E-01  0.116046352921E-01  0.122894786647E-01  0.130136121547E-01  0.137791522532E-01
  0.145883146745E-01  0.154434174633E-01  0.163468840262E-01  0.173012460615E-01  0.183091463577E-01
  0.193733414287E-01  0.204967039503E-01  0.216822249580E-01  0.229330157621E-01  0.242523095345E-01
  0.256434625113E-01  0.271099547571E-01  0.286553904268E-01  0.302834974570E-01  0.319981266141E-01
  0.338032498192E-01  0.357029576628E-01  0.377014560178E-01  0.398030616514E-01  0.420121967283E-01
  0.443333820934E-01  0.467712292107E-01  0.493304306328E-01  0.520157488630E-01  0.548320034674E-01
  0.577840562883E-01  0.608767945980E-01  0.641151120335E-01  0.675038871378E-01  0.710479593347E-01
  0.747521021567E-01  0.786209935407E-01  0.826591830057E-01  0.868710555264E-01  0.912607919129E-01
  0.958323255159E-01  0.100589295076E+00  0.105534993544E+00  0.110672312717E+00  0.116003683539E+00
  0.121531011931E+00  0.127255610058E+00  0.133178122934E+00  0.139298450331E+00  0.145615663971E+00
  0.152127920028E+00  0.158832367033E+00  0.165725049313E+00  0.172800806166E+00  0.180053167052E+00
  0.187474243165E+00  0.195054615825E+00  0.202783222266E+00  0.210647239466E+00  0.218631966810E+00
  0.226720708508E+00  0.234894656772E+00  0.243132776943E+00  0.251411695786E+00  0.259705594315E+00
  0.267986106545E+00  0.276222225578E+00  0.284380218481E+00  0.292423551467E+00  0.300312827000E+00
  0.308005734745E+00  0.315457018738E+00  0.322618463737E+00  0.329438904426E+00  0.335864261751E+00
  0.341837611069E+00  0.347299286963E+00  0.352187029290E+00  0.356436174582E+00  0.359979896106E+00
  0.362749495024E+00  0.364674744286E+00  0.365684286302E+00  0.365706085218E+00  0.364667934539E+00
  0.362498020803E+00  0.359125543704E+00  0.354481392587E+00  0.348498878509E+00  0.341114520238E+00
  0.332268881669E+00  0.321907457160E+00  0.309981600205E+00  0.296449489729E+00  0.281277126984E+00
  0.264439354658E+00  0.245920888336E+00  0.225717348912E+00  0.203836283008E+00  0.180298156884E+00
  0.155137307847E+00  0.128402835829E+00  0.100159416592E+00  0.704880171194E-01  0.394864930965E-01
  0.727004797759E-02 -0.260284669397E-01 -0.602584318480E-01 -0.952515369170E-01 -0.130822077977E+00
 -0.166767483614E+00 -0.202869080401E+00 -0.238893090782E+00 -0.274591842421E+00 -0.309705154672E+00
 -0.343961868049E+00 -0.377081507593E+00 -0.408776123328E+00 -0.438752411681E+00 -0.466714243812E+00
 -0.492365657628E+00 -0.515414223402E+00 -0.535574579482E+00 -0.552571950228E+00 -0.566145562123E+00
 -0.576051956889E+00 -0.582068215353E+00 -0.583995077719E+00 -0.581659913252E+00 -0.574919474828E+00
 -0.563662374640E+00 -0.547811230509E+00 -0.527324449094E+00 -0.502197627681E+00 -0.472464566824E+00
 -0.438197892459E+00 -0.399509288844E+00 -0.356549343859E+00 -0.309507006790E+00 -0.258608656452E+00
 -0.204116775236E+00 -0.146328223241E+00 -0.855721076541E-01 -0.222072463559E-01  0.433807674441E-01
  0.110782881750E+00  0.179570253407E+00  0.249298227333E+00  0.319510586701E+00  0.389744043686E+00
  0.459532958201E+00  0.528414274902E+00  0.595932614383E+00  0.661645284470E+00  0.725126692045E+00
  0.785971390512E+00  0.843795172197E+00  0.898234531825E+00  0.948946152879E+00  0.995608604643E+00
  0.103792724461E+01  0.107564121523E+01  0.110853035566E+01  0.113642050335E+01  0.115918692101E+01
  0.117675630111E+01  0.118910782366E+01  0.119627350019E+01  0.119833783296E+01  0.119543674571E+01
  0.118775575994E+01  0.117552744942E+01  0.115902825306E+01  0.113857476108E+01  0.111451959417E+01
  0.108724699205E+01  0.105716821044E+01  0.102471681013E+01  0.990343917785E+00  0.954513533047E+00
  0.917697990465E+00  0.880373718339E+00  0.843017500976E+00  0.806103513851E+00  0.770101456353E+00
  0.735476133483E+00  0.702688834889E+00  0.672200805836E+00  0.644479023286E+00  0.620004325359E+00
  0.599281684501E+00  0.582852075897E+00  0.000000000000E+00  0.000000000000E+00  0.000000000000E+00
  0.000000000000E+00  0.000000000000E+00  0.000000000000E+00  0.000000000000E+00  0.000000000000E+00
  0.000000000000E+00  0.000000000000E+00  0.000000000000E+00  0.000000000000E+00  0.000000000000E+00
  0.000000000000E+00  0.000000000000E+00  0.000000000000E+00  0.000000000000E+00  0.000000000000E+00
  0.000000000000E+00  0.000000000000E+00  0.000000000000E+00  0.000000000000E+00  0.000000000000E+00
  0.000000000000E+00  0.000000000000E+00  0.000000000000E+00  0.000000000000E+00  0.000000000000E+00
  0.000000000000E+00  0.000000000000E+00  0.000000000000E+00  0.000000000000E+00  0.000000000000E+00
  0.000000000000E+00  0.000000000000E+00  0.000000000000E+00  0.000000000000E+00  0.000000000000E+00
  0.000000000000E+00  0.000000000000E+00  0.000000000000E+00
 pseudo wavefunction
  0.437982070403E-12  0.482112733729E-12  0.530689961363E-12  0.584161784958E-12  0.643021379417E-12
  0.707811611483E-12  0.779130046644E-12  0.857634460526E-12  0.944048905609E-12  0.103917038922E-11
  0.114387622441E-11  0.125913212145E-11  0.138600109468E-11  0.152565326677E-11  0.167937666084E-11
  0.184858908003E-11  0.203485118398E-11  0.223988088292E-11  0.246556918212E-11  0.271399762275E-11
  0.298745748012E-11  0.328847089628E-11  0.361981414193E-11  0.398454322221E-11  0.438602206245E-11
  0.482795353393E-11  0.531441360575E-11  0.584988893782E-11  0.643931826166E-11  0.708813793073E-11
  0.780233206031E-11  0.858848771952E-11  0.945385568429E-11  0.104064173119E-10  0.114549581537E-10
  0.126091489847E-10  0.138796349981E-10  0.152781339869E-10  0.168175444175E-10  0.185120643935E-10
  0.203773226062E-10  0.224305224786E-10  0.246906008345E-10  0.271784025538E-10  0.299168728266E-10
  0.329312687784E-10  0.362493924184E-10  0.399018470598E-10  0.439223195758E-10  0.483478910967E-10
  0.532193790118E-10  0.585817134308E-10  0.644843515779E-10  0.709817339391E-10  0.781337863706E-10
  0.860064727995E-10  0.946724036137E-10  0.104211505352E-09  0.114711757874E-09  0.126270005800E-09
  0.138992851721E-09  0.152997639398E-09  0.168413536032E-09  0.185382723582E-09  0.204061710116E-09
  0.224622773300E-09  0.247255549318E-09  0.272168781905E-09  0.299592247598E-09  0.329778874982E-09
  0.363007077460E-09  0.399583321080E-09  0.439844951083E-09  0.484163303259E-09  0.532947128794E-09
  0.586646364200E-09  0.645756281101E-09  0.710822054146E-09  0.782443789172E-09  0.861282058007E-09
  0.948063990946E-09  0.104358998310E-08  0.114874107644E-08  0.126448708572E-08  0.139189554304E-08
  0.153214154375E-08  0.168651858436E-08  0.185645049249E-08  0.204350455878E-08  0.224940599209E-08
  0.247605383102E-08  0.272553845877E-08  0.300016088269E-08  0.330245395639E-08  0.363520574023E-08
  0.400148521542E-08  0.440467058916E-08  0.484848045161E-08  0.533700807225E-08  0.587475915176E-08
  0.646669337777E-08  0.711827016755E-08  0.783549901969E-08  0.862499493894E-08  0.949403944558E-08
  0.104506477318E-07  0.115036425846E-07  0.126627357567E-07  0.139386175362E-07  0.153430553409E-07
  0.168890022466E-07  0.185907164498E-07  0.204638927675E-07  0.225258073854E-07  0.247954771912E-07
  0.272938351605E-07  0.300439234137E-07  0.330711057242E-07  0.364033014377E-07  0.400712429588E-07
  0.441087591806E-07  0.485530874699E-07  0.534452170861E-07  0.588302671985E-07  0.647579029905E-07
  0.712827936849E-07  0.784651167159E-07  0.863711126944E-07  0.950736962865E-07  0.104653128634E-06
  0.115197757522E-06  0.126804832109E-06  0.139581399745E-06  0.153645293131E-06  0.169126216931E-06
  0.186166943846E-06  0.204924631191E-06  0.225572270092E-06  0.248300280674E-06  0.273318267947E-06
  0.300856954567E-06  0.331170308288E-06  0.364537883720E-06  0.401267399966E-06  0.441697577903E-06
  0.486201263245E-06  0.535188864175E-06  0.589112135212E-06  0.648468342195E-06  0.713804846730E-06
  0.785724152363E-06  0.864889458946E-06  0.952030776360E-06  0.104795165392E-05  0.115353658741E-05
  0.126975917198E-05  0.139769107599E-05  0.153851191834E-05  0.169352014034E-05  0.186414497207E-05
  0.205195960343E-05  0.225869568106E-05  0.248625926454E-05  0.273674838852E-05  0.301247239255E-05
  0.331597319611E-05  0.365004871461E-05  0.401777863152E-05  0.442255276349E-05  0.486810227916E-05
  0.535853405819E-05  0.589836850636E-05  0.649258117357E-05  0.714664855691E-05  0.786659850894E-05
  0.865906571344E-05  0.953135273732E-05  0.104914972181E-04  0.115483458026E-04  0.127116355133E-04
  0.139920832877E-04  0.154014845095E-04  0.169528214320E-04  0.186603824843E-04  0.205398935505E-04
  0.226086624191E-04  0.248857377194E-04  0.273920837939E-04  0.301507730978E-04  0.331871978764E-04
  0.365293030435E-04  0.402078423751E-04  0.442566603417E-04  0.487130021327E-04  0.536178546763E-04
  0.590163217394E-04  0.649580364882E-04  0.714976152304E-04  0.786951564184E-04  0.866167893971E-04
  0.953352778130E-04  0.104930683087E-03  0.115491093873E-03  0.127113428000E-03  0.139904314034E-03
  0.153981060259E-03  0.169472719672E-03  0.186521260352E-03  0.205282851512E-03  0.225929276494E-03
  0.248649485043E-03  0.273651298357E-03  0.301163281683E-03  0.331436800614E-03  0.364748278722E-03
  0.401401675828E-03  0.441731207938E-03  0.486104331830E-03  0.534925019333E-03  0.588637348589E-03
  0.647729442020E-03  0.712737783335E-03  0.784251948717E-03  0.862919790374E-03  0.949453113840E-03
  0.104463389392E-02  0.114932107783E-02  0.126445802803E-02  0.139108066133E-02  0.153032634546E-02
  0.168344361850E-02  0.185180280185E-02  0.203690758205E-02  0.224040764210E-02  0.246411242810E-02
  0.271000614259E-02  0.298026406082E-02  0.327727027206E-02  0.360363695244E-02  0.396222528096E-02
  0.435616811429E-02  0.478889453943E-02  0.526415642595E-02  0.578605710064E-02  0.635908226724E-02
  0.698813329142E-02  0.767856296655E-02  0.843621386755E-02  0.926745938889E-02  0.101792475461E-01
  0.111791475987E-01  0.122753995246E-01  0.134769663391E-01  0.147935892072E-01  0.162358452433E-01
  0.178152078207E-01  0.195441091353E-01  0.214360046635E-01  0.235054390406E-01  0.257681127404E-01
  0.282409487761E-01  0.309421584454E-01  0.338913049215E-01  0.371093632292E-01  0.406187748511E-01
  0.444434948680E-01  0.486090291571E-01  0.531424587384E-01  0.580724478867E-01  0.634292320940E-01
  0.692445813970E-01  0.755517339647E-01  0.823852941822E-01  0.897810887901E-01  0.977759739376E-01
  0.106407585331E+00  0.115714023012E+00  0.125733461737E+00  0.136503677502E+00  0.148061480502E+00
  0.160442044879E+00  0.173678125974E+00  0.187799156733E+00  0.202830216401E+00  0.218790866948E+00
  0.235693855936E+00  0.253543688930E+00  0.272335080373E+00  0.292051299204E+00  0.312662434656E+00
  0.334123618798E+00  0.356373255607E+00  0.379331321632E+00  0.402897820596E+00  0.426951493187E+00
  0.451348903165E+00  0.475924040807E+00  0.500488603053E+00  0.524833124480E+00  0.548729141460E+00
  0.571932570108E+00  0.594188462080E+00  0.615237265851E+00  0.634822658209E+00  0.652700914989E+00
  0.668651654523E+00  0.682489606231E+00  0.694076826292E+00  0.703334502494E+00  0.710253167258E+00
  0.714899786610E+00  0.717419841169E+00  0.718032206553E+00  0.717014438338E+00  0.714676056085E+00
  0.711317709862E+00  0.707174827879E+00  0.702345622002E+00  0.696737196623E+00  0.690325040676E+00
  0.683180531003E+00  0.675381507261E+00  0.667006003125E+00  0.658124496771E+00  0.648789469679E+00
  0.639027165938E+00  0.628836675637E+00  0.618196847144E+00  0.607076458001E+00  0.595442638797E+00
  0.583265677577E+00  0.570521015665E+00  0.557189957568E+00  0.543260201232E+00  0.528726729690E+00
  0.513593212278E+00  0.497873824604E+00  0.481595229577E+00  0.464798297710E+00  0.447539038517E+00
  0.429888247966E+00  0.411929566964E+00  0.393756053586E+00  0.375465709161E+00  0.357156677021E+00
  0.338922805203E+00  0.320850115705E+00  0.303014466135E+00  0.285480463817E+00  0.268301525884E+00
  0.251520876870E+00  0.235173221293E+00  0.219286803560E+00  0.203885562876E+00  0.188991104934E+00
  0.174624252775E+00  0.160806009381E+00  0.147557863276E+00  0.134901460530E+00  0.122857795508E+00
  0.111446086142E+00  0.100682552128E+00  0.905792787211E-01
 ae wavefunction
 -0.637084355119E-09 -0.696307495814E-09 -0.760579726578E-09 -0.830369323387E-09 -0.906185224239E-09
 -0.988580817773E-09 -0.107815806829E-08 -0.117557200889E-08 -0.128153563802E-08 -0.139682525588E-08
 -0.152228628338E-08 -0.165883960852E-08 -0.180748850867E-08 -0.196932620455E-08 -0.214554410197E-08
 -0.233744078945E-08 -0.254643185932E-08 -0.277406063114E-08 -0.302200986106E-08 -0.329211452993E-08
 -0.358637581178E-08 -0.390697633084E-08 -0.425629683340E-08 -0.463693440012E-08 -0.505172235047E-08
 -0.550375199318E-08 -0.599639640094E-08 -0.653333639645E-08 -0.711858895972E-08 -0.775653828628E-08
 -0.845196974480E-08 -0.921010700933E-08 -0.100366526663E-07 -0.109378326257E-07 -0.119204446960E-07
 -0.129919117190E-07 -0.141603396980E-07 -0.154345813906E-07 -0.168243058911E-07 -0.183400747675E-07
 -0.199934253817E-07 -0.217969620741E-07 -0.237644559668E-07 -0.259109542048E-07 -0.282528995392E-07
 -0.308082612418E-07 -0.335966784328E-07 -0.366396170130E-07 -0.399605415023E-07 -0.435851032142E-07
 -0.475413463331E-07 -0.518599336118E-07 -0.565743935757E-07 -0.617213912956E-07 -0.673410249983E-07
 -0.734771509979E-07 -0.801777396693E-07 -0.874952654556E-07 -0.954871341799E-07 -0.104216151258E-06
 -0.113751034745E-06 -0.124166977541E-06 -0.135546263482E-06 -0.147978942520E-06 -0.161563570675E-06
 -0.176408021008E-06 -0.192630372450E-06 -0.210359884005E-06 -0.229738062534E-06 -0.250919833160E-06
 -0.274074822150E-06 -0.299388763147E-06 -0.327065038594E-06 -0.357326369393E-06 -0.390416667053E-06
 -0.426603063978E-06 -0.466178138999E-06 -0.509462356973E-06 -0.556806742972E-06 -0.608595813626E-06
 -0.665250790308E-06 -0.727233121193E-06 -0.795048341816E-06 -0.869250306578E-06 -0.950445826688E-06
 -0.103929975351E-05 -0.113654054973E-05 -0.124296639521E-05 -0.135945187828E-05 -0.148695532846E-05
 -0.162652685159E-05 -0.177931713437E-05 -0.194658709119E-05 -0.212971843334E-05 -0.233022524812E-05
 -0.254976668313E-05 -0.279016084065E-05 -0.305339999593E-05 -0.334166726452E-05 -0.365735485462E-05
 -0.400308405377E-05 -0.438172711211E-05 -0.479643119998E-05 -0.525064463361E-05 -0.574814558020E-05
 -0.629307347337E-05 -0.688996339022E-05 -0.754378366459E-05 -0.825997703548E-05 -0.904450565631E-05
 -0.990390032019E-05 -0.108453142876E-04 -0.118765821370E-04 -0.130062840972E-04 -0.142438163579E-04
 -0.155994679016E-04 -0.170845044451E-04 -0.187112601297E-04 -0.204932376552E-04 -0.224452176115E-04
 -0.245833778262E-04 -0.269254236147E-04 -0.294907298958E-04 -0.323004962119E-04 -0.353779157850E-04
 -0.387483598253E-04 -0.424395784153E-04 -0.464819193924E-04 -0.509085667724E-04 -0.557558003743E-04
 -0.610632784393E-04 -0.668743451746E-04 -0.732363653015E-04 -0.802010878430E-04 -0.878250415559E-04
 -0.961699645866E-04 -0.105303271119E-03 -0.115298557982E-03 -0.126236154385E-03 -0.138203718184E-03
 -0.151296882290E-03 -0.165619955094E-03 -0.181286679010E-03 -0.198421051518E-03 -0.217158213341E-03
 -0.237645408680E-03 -0.260043022696E-03 -0.284525701750E-03 -0.311283562159E-03 -0.340523493563E-03
 -0.372470563263E-03 -0.407369528201E-03 -0.445486461505E-03 -0.487110500829E-03 -0.532555725944E-03
 -0.582163173278E-03 -0.636302995306E-03 -0.695376772864E-03 -0.759819988572E-03 -0.830104669642E-03
 -0.906742208340E-03 -0.990286368312E-03 -0.108133648484E-02 -0.118054086680E-02 -0.128860040786E-02
 -0.140627241366E-02 -0.153437465143E-02 -0.167378962745E-02 -0.182546909662E-02 -0.199043880759E-02
 -0.216980348490E-02 -0.236475204812E-02 -0.257656306603E-02 -0.280661044105E-02 -0.305636931691E-02
 -0.332742219899E-02 -0.362146527347E-02 -0.394031490716E-02 -0.428591430561E-02 -0.466034030175E-02
 -0.506581024199E-02 -0.550468893024E-02 -0.597949558372E-02 -0.649291074683E-02 -0.704778310136E-02
 -0.764713610277E-02 -0.829417436268E-02 -0.899228968825E-02 -0.974506667836E-02 -0.105562877658E-01
 -0.114299375827E-01 -0.123702065151E-01 -0.133814932963E-01 -0.144684064777E-01 -0.156357645931E-01
 -0.168885948144E-01 -0.182321298701E-01 -0.196718029662E-01 -0.212132404195E-01 -0.228622516783E-01
 -0.246248163847E-01 -0.265070681192E-01 -0.285152744831E-01 -0.306558132033E-01 -0.329351439955E-01
 -0.353597759754E-01 -0.379362304589E-01 -0.406709990293E-01 -0.435704967599E-01 -0.466410104737E-01
 -0.498886418777E-01 -0.533192453705E-01 -0.569383602874E-01 -0.607511373631E-01 -0.647622592509E-01
 -0.689758550314E-01 -0.733954087442E-01 -0.780236620794E-01 -0.828625114592E-01 -0.879128998474E-01
 -0.931747037362E-01 -0.986466159050E-01 -0.104326024694E+00 -0.110208890714E+00 -0.116289622086E+00
 -0.122560949518E+00 -0.129013802690E+00 -0.135637189636E+00 -0.142418080977E+00 -0.149341301042E+00
 -0.156389428040E+00 -0.163542705575E+00 -0.170778967899E+00 -0.178073581354E+00 -0.185399404556E+00
 -0.192726769931E+00 -0.200023489318E+00 -0.207254886302E+00 -0.214383857615E+00 -0.221370964874E+00
 -0.228174555576E+00 -0.234750908228E+00 -0.241054391035E+00 -0.247037618658E+00 -0.252651591192E+00
 -0.257845808427E+00 -0.262568373368E+00 -0.266766127902E+00 -0.270384886718E+00 -0.273369829703E+00
 -0.275666060849E+00 -0.277219266069E+00 -0.277976365286E+00 -0.277886088253E+00 -0.276899468030E+00
 -0.274970283951E+00 -0.272055484834E+00 -0.268115604082E+00 -0.263115161189E+00 -0.257023036262E+00
 -0.249812804831E+00 -0.241463025490E+00 -0.231957478761E+00 -0.221285360215E+00 -0.209441433181E+00
 -0.196426146982E+00 -0.182245725981E+00 -0.166912233235E+00 -0.150443610679E+00 -0.132863695560E+00
 -0.114202210742E+00 -0.944947244867E-01 -0.737825741168E-01 -0.521127474777E-01 -0.295377170362E-01
 -0.611522343418E-02  0.180919918589E-01  0.430165029526E-01  0.685865631192E-01  0.947265176544E-01
  0.121357275333E+00  0.148396852180E+00  0.175760988390E+00  0.203363786805E+00  0.231118220680E+00
  0.258936251951E+00  0.286728318169E+00  0.314402227476E+00  0.341861983888E+00  0.369007350336E+00
  0.395734643049E+00  0.421938518105E+00  0.447514041374E+00  0.472358471401E+00  0.496372608914E+00
  0.519461847319E+00  0.541537092881E+00  0.562515642118E+00  0.582322021285E+00  0.600888754584E+00
  0.618157024869E+00  0.634077207920E+00  0.648609279198E+00  0.661723104512E+00  0.673398627648E+00
  0.683625963801E+00  0.692405394259E+00  0.699747241804E+00  0.705671593854E+00  0.710207824250E+00
  0.713393873589E+00  0.715275262043E+00  0.715903853378E+00  0.715336448745E+00  0.713633358806E+00
  0.710857161948E+00  0.707071890286E+00  0.702342852669E+00  0.696737196623E+00  0.690325040676E+00
  0.683180531003E+00  0.675381507261E+00  0.667006003125E+00  0.658124496771E+00  0.648789469679E+00
  0.639027165938E+00  0.628836675637E+00  0.618196847144E+00  0.607076458001E+00  0.595442638797E+00
  0.583265677577E+00  0.570521015665E+00  0.557189957568E+00  0.543260201232E+00  0.528726729690E+00
  0.513593212278E+00  0.497873824604E+00  0.481595229577E+00  0.464798297710E+00  0.447539038517E+00
  0.429888247966E+00  0.411929566964E+00  0.393756053586E+00  0.375465709161E+00  0.357156677021E+00
  0.338922805203E+00  0.320850115705E+00  0.303014466135E+00  0.285480463817E+00  0.268301525884E+00
  0.251520876870E+00  0.235173221293E+00  0.219286803560E+00  0.203885562876E+00  0.188991104934E+00
  0.174624252775E+00  0.160806009381E+00  0.147557863276E+00  0.134901460530E+00  0.122857795508E+00
  0.111446086142E+00  0.100682552128E+00  0.905792787211E-01
 pseudo wavefunction
  0.699034308371E-12  0.769468350767E-12  0.846999261310E-12  0.932342113787E-12  0.102628403215E-11
  0.112969145021E-11  0.124351810285E-11  0.136881382239E-11  0.150673422126E-11  0.165855135031E-11
  0.182566543104E-11  0.200961776997E-11  0.221210497421E-11  0.243499459939E-11  0.268034237434E-11
  0.295041116113E-11  0.324769182575E-11  0.357492621147E-11  0.393513242711E-11  0.433163268332E-11
  0.476808393356E-11  0.524851160246E-11  0.577734671268E-11  0.635946675254E-11  0.700024066149E-11
  0.770557834825E-11  0.848198519839E-11  0.933662207398E-11  0.102773713588E-10  0.113129096582E-10
  0.124527878241E-10  0.137075190432E-10  0.150886758010E-10  0.166089966156E-10  0.182825035261E-10
  0.201246314192E-10  0.221523703860E-10  0.243844224230E-10  0.268413739221E-10  0.295458855406E-10
  0.325229012021E-10  0.357998781559E-10  0.394070402178E-10  0.433776565264E-10  0.477483483867E-10
  0.525594270315E-10  0.578552654146E-10  0.636847074663E-10  0.701015185839E-10  0.771648815146E-10
  0.849399422019E-10  0.934984106316E-10  0.102919222218E-09  0.113289265831E-09  0.124704185179E-09
  0.137269260936E-09  0.151100381754E-09  0.166325113111E-09  0.183083873858E-09  0.201531231310E-09
  0.221837326832E-09  0.244189445062E-09  0.268793741250E-09  0.295877142645E-09  0.325689441454E-09
  0.358505598695E-09  0.394628280176E-09  0.434390648005E-09  0.478159433356E-09  0.526338318859E-09
  0.579371661785E-09  0.637748592375E-09  0.702007525116E-09  0.772741124565E-09  0.850601771523E-09
  0.936307579972E-09  0.103064902027E-08  0.113449620971E-08  0.124880693762E-08  0.137463549909E-08
  0.151314241881E-08  0.166560515458E-08  0.183342987936E-08  0.201816445043E-08  0.222151268532E-08
  0.244535007614E-08  0.269174108727E-08  0.296295819592E-08  0.326150285121E-08  0.359012854503E-08
  0.395186620746E-08  0.435005216101E-08  0.478835889148E-08  0.527082891914E-08  0.580191208283E-08
  0.638650658061E-08  0.703000414561E-08  0.773833977368E-08  0.851804646146E-08  0.937631545974E-08
  0.103210625977E-07  0.113610012900E-07  0.125057228992E-07  0.137657851966E-07  0.151528097341E-07
  0.166795890289E-07  0.183602045464E-07  0.202101565711E-07  0.222465071626E-07  0.244880375156E-07
  0.269554211741E-07  0.296714146984E-07  0.326610675428E-07  0.359519530785E-07  0.395744228947E-07
  0.435618867200E-07  0.479511205476E-07  0.527826058055E-07  0.581009026986E-07  0.639550611659E-07
  0.703990732432E-07  0.774923710012E-07  0.853003746526E-07  0.938950958801E-07  0.103355801951E-06
  0.113769746740E-06  0.125232975404E-06  0.137851210121E-06  0.151740825074E-06  0.167029919653E-06
  0.183859499780E-06  0.202384778252E-06  0.222776606080E-06  0.245223048025E-06  0.269931116865E-06
  0.297128682363E-06  0.327066572555E-06  0.360020886711E-06  0.396295541298E-06  0.436225072421E-06
  0.480177720554E-06  0.528558826013E-06  0.581814566453E-06  0.640436070847E-06  0.704963947841E-06
  0.775993270242E-06  0.854179061547E-06  0.940242335082E-06  0.103497674139E-05  0.113925588509E-05
  0.125404137870E-05  0.138039170744E-05  0.151947198688E-05  0.167256470313E-05  0.184108153461E-05
  0.202657636416E-05  0.223075960134E-05  0.245551394680E-05  0.270291174386E-05  0.297523407683E-05
  0.327499179214E-05  0.360494863540E-05  0.396814671744E-05  0.436793454355E-05  0.480799786368E-05
  0.529239362727E-05  0.582558735491E-05  0.641249427035E-05  0.705852457079E-05  0.776963325134E-05
  0.855237494142E-05  0.941396425646E-05  0.103623422190E-04  0.114062493588E-04  0.125553061624E-04
  0.138201016096E-04  0.152122906099E-04  0.167447012292E-04  0.184314526919E-04  0.202880852358E-04
  0.223317030104E-04  0.245811313240E-04  0.270570896782E-04  0.297823821686E-04  0.327821069928E-04
  0.360838869738E-04  0.397181232031E-04  0.437182741129E-04  0.481211625171E-04  0.529673134144E-04
  0.583013256213E-04  0.641722806097E-04  0.706341922542E-04  0.777465015624E-04  0.855746208644E-04
  0.941905323751E-04  0.103673446530E-03  0.114110526026E-03  0.125597682071E-03  0.138240450001E-03
  0.152154952105E-03  0.167468956265E-03  0.184323039870E-03  0.202871869358E-03  0.223285606761E-03
  0.245751455709E-03  0.270475360559E-03  0.297683873630E-03  0.327626206917E-03  0.360576486279E-03
  0.396836227734E-03  0.436737057400E-03  0.480643698596E-03  0.528957251858E-03  0.582118795971E-03
  0.640613340748E-03  0.704974165079E-03  0.775787576833E-03  0.853698134502E-03  0.939414374031E-03
  0.103371508816E-02  0.113745620971E-02  0.125157835477E-02  0.137711508648E-02  0.151520196526E-02
  0.166708645688E-02  0.183413877547E-02  0.201786374495E-02  0.221991376877E-02  0.244210300496E-02
  0.268642285047E-02  0.295505884671E-02  0.325040912587E-02  0.357510452554E-02  0.393203050784E-02
  0.432435102702E-02  0.475553449844E-02  0.522938202918E-02  0.575005807896E-02  0.632212372668E-02
  0.695057272455E-02  0.764087052635E-02  0.839899648058E-02  0.923148937992E-02  0.101454965577E-01
  0.111488267171E-01  0.122500066713E-01  0.134583421561E-01  0.147839828614E-01  0.162379917955E-01
  0.178324190634E-01  0.195803800916E-01  0.214961382731E-01  0.235951919323E-01  0.258943654150E-01
  0.284119040007E-01  0.311675721947E-01  0.341827547973E-01  0.374805599516E-01  0.410859231432E-01
  0.450257108535E-01  0.493288222548E-01  0.540262869697E-01  0.591513564932E-01  0.647395863955E-01
  0.708289058722E-01  0.774596705852E-01  0.846746940454E-01  0.925192520072E-01  0.101041053496E+00
  0.110290171158E+00  0.120318922623E+00  0.131181693503E+00  0.142934691571E+00  0.155635620506E+00
  0.169343260538E+00  0.184116942252E+00  0.200015898938E+00  0.217098482175E+00  0.235421224960E+00
  0.255037736764E+00  0.275997415589E+00  0.298343963521E+00  0.322113694772E+00  0.347333628915E+00
  0.374019367286E+00  0.402172757684E+00  0.431779361795E+00  0.462805751678E+00  0.495196676329E+00
  0.528872157222E+00  0.563724592820E+00  0.599615976536E+00  0.636375360087E+00  0.673796724239E+00
  0.711637450363E+00  0.749617617545E+00  0.787420378575E+00  0.824693690811E+00  0.861053689933E+00
  0.896089990358E+00  0.929373168254E+00  0.960464623263E+00  0.988928913554E+00  0.101434850538E+01
  0.103634066287E+01  0.105457591807E+01  0.106879719994E+01  0.107883826696E+01  0.108463959150E+01
  0.108625931352E+01  0.108387636174E+01  0.107778240557E+01  0.106835905254E+01  0.105603678149E+01
  0.104123266997E+01  0.102426523102E+01  0.100524682418E+01  0.984005484988E+00  0.960447557751E+00
  0.934618702562E+00  0.906567267861E+00  0.000000000000E+00  0.000000000000E+00  0.000000000000E+00
  0.000000000000E+00  0.000000000000E+00  0.000000000000E+00  0.000000000000E+00  0.000000000000E+00
  0.000000000000E+00  0.000000000000E+00  0.000000000000E+00  0.000000000000E+00  0.000000000000E+00
  0.000000000000E+00  0.000000000000E+00  0.000000000000E+00  0.000000000000E+00  0.000000000000E+00
  0.000000000000E+00  0.000000000000E+00  0.000000000000E+00  0.000000000000E+00  0.000000000000E+00
  0.000000000000E+00  0.000000000000E+00  0.000000000000E+00  0.000000000000E+00  0.000000000000E+00
  0.000000000000E+00  0.000000000000E+00  0.000000000000E+00  0.000000000000E+00  0.000000000000E+00
  0.000000000000E+00  0.000000000000E+00  0.000000000000E+00  0.000000000000E+00  0.000000000000E+00
  0.000000000000E+00  0.000000000000E+00  0.000000000000E+00
 ae wavefunction
 -0.101545153918E-08 -0.110984756974E-08 -0.121229136734E-08 -0.132352931917E-08 -0.144437262383E-08
 -0.157570332997E-08 -0.171848091123E-08 -0.187374942785E-08 -0.204264533128E-08 -0.222640596995E-08
 -0.242637886407E-08 -0.264403182120E-08 -0.288096396973E-08 -0.313891779913E-08 -0.341979229654E-08
 -0.372565728813E-08 -0.405876909294E-08 -0.442158761508E-08 -0.481679500726E-08 -0.524731605383E-08
 -0.571634043523E-08 -0.622734704623E-08 -0.678413056923E-08 -0.739083050301E-08 -0.805196288848E-08
 -0.877245497681E-08 -0.955768312410E-08 -0.104135142106E-07 -0.113463509192E-07 -0.123631812394E-07
 -0.134716325925E-07 -0.146800310166E-07 -0.159974658906E-07 -0.174338607213E-07 -0.190000505672E-07
 -0.207078667304E-07 -0.225702294067E-07 -0.246012490482E-07 -0.268163372688E-07 -0.292323282015E-07
 -0.318676113007E-07 -0.347422766838E-07 -0.378782742065E-07 -0.412995875835E-07 -0.450324249931E-07
 -0.491054277415E-07 -0.535498987147E-07 -0.584000525128E-07 -0.636932893442E-07 -0.694704949585E-07
 -0.757763691127E-07 -0.826597853136E-07 -0.901741848354E-07 -0.983780083078E-07 -0.107335168484E-06
 -0.117115568150E-06 -0.127795667513E-06 -0.139459105838E-06 -0.152197382536E-06 -0.166110603457E-06
 -0.181308298638E-06 -0.197910318394E-06 -0.216047815326E-06 -0.235864320478E-06 -0.257516922759E-06
 -0.281177561552E-06 -0.307034443428E-06 -0.335293594926E-06 -0.366180564506E-06 -0.399942288054E-06
 -0.436849133687E-06 -0.477197143139E-06 -0.521310488650E-06 -0.569544166126E-06 -0.622286947278E-06
 -0.679964615709E-06 -0.743043514207E-06 -0.812034433224E-06 -0.887496873282E-06 -0.970043717257E-06
 -0.106034635188E-05 -0.115914028158E-05 -0.126723128182E-05 -0.138550214374E-05 -0.151492006657E-05
 -0.165654476000E-05 -0.181153732413E-05 -0.198116998157E-05 -0.216683674271E-05 -0.237006509341E-05
 -0.259252880224E-05 -0.283606195404E-05 -0.310267432605E-05 -0.339456823423E-05 -0.371415698921E-05
 -0.406408511391E-05 -0.444725048976E-05 -0.486682861325E-05 -0.532629916201E-05 -0.582947508736E-05
 -0.638053447110E-05 -0.698405540534E-05 -0.764505417861E-05 -0.836902707711E-05 -0.916199613776E-05
 -0.100305592214E-04 -0.109819448067E-04 -0.120240719415E-04 -0.131656158301E-04 -0.144160795733E-04
 -0.157858726285E-04 -0.172863966059E-04 -0.189301390712E-04 -0.207307760840E-04 -0.227032842666E-04
 -0.248640632670E-04 -0.272310695522E-04 -0.298239625543E-04 -0.326642642735E-04 -0.357755335425E-04
 -0.391835562543E-04 -0.429165529685E-04 -0.470054054280E-04 -0.514839036472E-04 -0.563890153694E-04
 -0.617611798366E-04 -0.676446279778E-04 -0.740877312861E-04 -0.811433818414E-04 -0.888694061255E-04
 -0.973290154879E-04 -0.106591296339E-03 -0.116731743383E-03 -0.127832839461E-03 -0.139984685824E-03
 -0.153285686962E-03 -0.167843294389E-03 -0.183774814119E-03 -0.201208282891E-03 -0.220283418544E-03
 -0.241152650327E-03 -0.263982235295E-03 -0.288953467341E-03 -0.316263985846E-03 -0.346129191331E-03
 -0.378783775955E-03 -0.414483377149E-03 -0.453506363131E-03 -0.496155759525E-03 -0.542761326759E-03
 -0.593681798416E-03 -0.649307291118E-03 -0.710061897036E-03 -0.776406470513E-03 -0.848841620678E-03
 -0.927910922346E-03 -0.101420435778E-02 -0.110836200216E-02 -0.121107796589E-02 -0.132310460674E-02
 -0.144525702530E-02 -0.157841785649E-02 -0.172354237025E-02 -0.188166389368E-02 -0.205389956651E-02
 -0.224145644098E-02 -0.244563793609E-02 -0.266785065489E-02 -0.290961157182E-02 -0.317255559524E-02
 -0.345844350771E-02 -0.376917028402E-02 -0.410677378344E-02 -0.447344380914E-02 -0.487153152298E-02
 -0.530355919927E-02 -0.577223029508E-02 -0.628043980830E-02 -0.683128488768E-02 -0.742807565064E-02
 -0.807434615593E-02 -0.877386546824E-02 -0.953064874108E-02 -0.103489682322E-01 -0.112333641534E-01
 -0.121886552417E-01 -0.132199489261E-01 -0.143326509456E-01 -0.155324742607E-01 -0.168254470794E-01
 -0.182179198048E-01 -0.197165706868E-01 -0.213284099420E-01 -0.230607820808E-01 -0.249213661510E-01
 -0.269181735739E-01 -0.290595432080E-01 -0.313541332279E-01 -0.338109093507E-01 -0.364391288972E-01
 -0.392483201311E-01 -0.422482563073E-01 -0.454489238767E-01 -0.488604843463E-01 -0.524932293722E-01
 -0.563575287491E-01 -0.604637710438E-01 -0.648222966758E-01 -0.694433232684E-01 -0.743368630776E-01
 -0.795126322440E-01 -0.849799515408E-01 -0.907476382441E-01 -0.968238887745E-01 -0.103216151851E+00
 -0.109930992048E+00 -0.116973943817E+00 -0.124349356170E+00 -0.132060228421E+00 -0.140108037491E+00
 -0.148492557523E+00 -0.157211672724E+00 -0.166261184646E+00 -0.175634615354E+00 -0.185323008245E+00
 -0.195314728569E+00 -0.205595266040E+00 -0.216147042199E+00 -0.226949225500E+00 -0.237977557360E+00
 -0.249204192631E+00 -0.260597558156E+00 -0.272122233212E+00 -0.283738855769E+00 -0.295404058630E+00
 -0.307070439638E+00 -0.318686570252E+00 -0.330197046776E+00 -0.341542587960E+00 -0.352660181017E+00
 -0.363483274330E+00 -0.373942008733E+00 -0.383963470506E+00 -0.393471941460E+00 -0.402389120875E+00
 -0.410634308327E+00 -0.418124569684E+00 -0.424774954654E+00 -0.430498871176E+00 -0.435208712561E+00
 -0.438816750105E+00 -0.441236183470E+00 -0.442382182233E+00 -0.442172806328E+00 -0.440529795805E+00
 -0.437379280652E+00 -0.432652459676E+00 -0.426286267007E+00 -0.418224017518E+00 -0.408416009891E+00
 -0.396820067145E+00 -0.383402002817E+00 -0.368136010336E+00 -0.351004980504E+00 -0.332000755630E+00
 -0.311124329845E+00 -0.288386004056E+00 -0.263805501621E+00 -0.237412047806E+00 -0.209244412608E+00
 -0.179350913135E+00 -0.147789368558E+00 -0.114626998714E+00 -0.799402567260E-01 -0.438145874373E-01
 -0.634410670367E-02  0.323687989672E-01  0.722139494218E-01  0.113073921540E+00  0.154824677043E+00
  0.197336282451E+00  0.240473743105E+00  0.284097952119E+00  0.328066670652E+00  0.372235294406E+00
  0.416456991586E+00  0.460581827266E+00  0.504454942613E+00  0.547914631192E+00  0.590791606713E+00
  0.632910247135E+00  0.674091423941E+00  0.714155777187E+00  0.752926523818E+00  0.790231567938E+00
  0.825905130037E+00  0.859789165298E+00  0.891734710121E+00  0.921603163714E+00  0.949267450922E+00
  0.974613006941E+00  0.997538554996E+00  0.101795667259E+01  0.103579416490E+01  0.105099226432E+01
  0.106350666888E+01  0.107330741115E+01  0.108037852438E+01  0.108471745466E+01  0.108633414463E+01
  0.108524973152E+01  0.108149482751E+01  0.107510742297E+01  0.106613054604E+01  0.105460991669E+01
  0.104059191427E+01  0.102412221364E+01  0.100524537432E+01  0.984005484988E+00  0.960447557751E+00
  0.934618702562E+00  0.906567267861E+00  0.000000000000E+00  0.000000000000E+00  0.000000000000E+00
  0.000000000000E+00  0.000000000000E+00  0.000000000000E+00  0.000000000000E+00  0.000000000000E+00
  0.000000000000E+00  0.000000000000E+00  0.000000000000E+00  0.000000000000E+00  0.000000000000E+00
  0.000000000000E+00  0.000000000000E+00  0.000000000000E+00  0.000000000000E+00  0.000000000000E+00
  0.000000000000E+00  0.000000000000E+00  0.000000000000E+00  0.000000000000E+00  0.000000000000E+00
  0.000000000000E+00  0.000000000000E+00  0.000000000000E+00  0.000000000000E+00  0.000000000000E+00
  0.000000000000E+00  0.000000000000E+00  0.000000000000E+00  0.000000000000E+00  0.000000000000E+00
  0.000000000000E+00  0.000000000000E+00  0.000000000000E+00  0.000000000000E+00  0.000000000000E+00
  0.000000000000E+00  0.000000000000E+00  0.000000000000E+00
 End of Dataset
