<?xml version="1.0" encoding="ISO-8859-1"?>
<modeling>
 <generator>
  <i name="program" type="string">vasp </i>
  <i name="version" type="string">6.1.2  </i>
  <i name="subversion" type="string">22Jul20 (build Apr 14 2021 21:39:43) complex                          parallel </i>
  <i name="platform" type="string">LinuxIFC </i>
  <i name="date" type="string">2024 02 25 </i>
  <i name="time" type="string">15:53:09 </i>
 </generator>
 <incar>
  <i type="string" name="PREC"> Accurate</i>
  <i type="string" name="ALGO"> Normal</i>
  <i type="int" name="NSIM">     4</i>
  <i type="int" name="ISPIN">     2</i>
  <i type="int" name="ICHARG">     1</i>
  <i type="int" name="NELM">   100</i>
  <i type="int" name="NELMIN">     6</i>
  <i type="int" name="IBRION">     2</i>
  <i name="EDIFF">      0.00001000</i>
  <i name="EDIFFG">     -0.01000000</i>
  <i type="int" name="NSW">    99</i>
  <i type="int" name="ISIF">     3</i>
  <i type="int" name="ISYM">     0</i>
  <i name="ENCUT">    520.00000000</i>
  <v name="MAGMOM">      0.06000000      0.06000000      0.06000000      0.06000000      0.06000000      0.06000000      0.06000000      0.06000000      0.06000000      0.06000000      0.06000000      0.06000000      0.06000000      0.06000000</v>
  <i type="string" name="LREAL"> Auto</i>
  <i type="logical" name="LPLANE"> T  </i>
  <i type="int" name="ISMEAR">     0</i>
  <i name="SIGMA">      0.05000000</i>
  <i type="logical" name="LWAVE"> F  </i>
  <i type="logical" name="LASPH"> T  </i>
  <i type="int" name="NCORE">    16</i>
  <i type="string" name="ALGO"> Normal</i>
  <i type="int" name="NELM">   100</i>
  <i name="EDIFF">      0.00001000</i>
  <i type="string" name="METAGGA"> SCAN</i>
  <i type="logical" name="LASPH"> T  </i>
  <i type="int" name="ISPIN">     2</i>
 </incar>
 <structure name="primitive_cell" >
  <crystal>
   <varray name="basis" >
    <v>       4.93059421      -0.00166812      -0.43176448 </v>
    <v>      -0.00217957       4.64982784      -0.05343989 </v>
    <v>      -4.14257211      -2.51490289      18.42506112 </v>
   </varray>
   <i name="volume">    413.43837327 </i>
   <varray name="rec_basis" >
    <v>       0.20689653       0.00063259       0.04660363 </v>
    <v>       0.00270072       0.21540788       0.03000901 </v>
    <v>       0.00485615       0.00063959       0.05545303 </v>
   </varray>
  </crystal>
  <varray name="positions" >
   <v>       0.35235477       0.65640362       0.83234581 </v>
   <v>       0.59712049       0.43577087       0.32572996 </v>
   <v>       0.64859556       0.34347044       0.16759718 </v>
   <v>       0.40087481       0.56406377       0.67382500 </v>
   <v>       0.76313393       0.23332659       0.97263679 </v>
   <v>       0.12167564       0.98392603       0.40259060 </v>
   <v>       0.23856942       0.76597690       0.02736906 </v>
   <v>       0.87525988       0.01680773       0.59756890 </v>
   <v>       0.72534805       0.89659658       0.25873223 </v>
   <v>       0.90585513       0.68459934       0.88159562 </v>
   <v>       0.27488863       0.10353941       0.74117777 </v>
   <v>       0.09567184       0.31546343       0.11869943 </v>
   <v>       0.14992619       0.86156920       0.19901850 </v>
   <v>       0.85072566       0.13848608       0.80111316 </v>
  </varray>
 </structure>
 <varray name="primitive_index" >
  <v type="int" >        1 </v>
  <v type="int" >        2 </v>
  <v type="int" >        3 </v>
  <v type="int" >        4 </v>
  <v type="int" >        5 </v>
  <v type="int" >        6 </v>
  <v type="int" >        7 </v>
  <v type="int" >        8 </v>
  <v type="int" >        9 </v>
  <v type="int" >       10 </v>
  <v type="int" >       11 </v>
  <v type="int" >       12 </v>
  <v type="int" >       13 </v>
  <v type="int" >       14 </v>
 </varray>
 <kpoints>
  <generation param="Gamma">
   <v type="int" name="divisions">       9        9        3 </v>
   <v name="usershift">      0.00000000       0.00000000       0.00000000 </v>
   <v name="genvec1">      0.11111111      -0.00000000       0.00000000 </v>
   <v name="genvec2">     -0.00000000       0.11111111       0.00000000 </v>
   <v name="genvec3">      0.00000000       0.00000000       0.33333333 </v>
   <v name="shift">      0.00000000       0.00000000       0.00000000 </v>
  </generation>
  <varray name="kpointlist" >
   <v>       0.00000000       0.00000000       0.00000000 </v>
   <v>       0.11111111      -0.00000000      -0.00000000 </v>
   <v>       0.22222222       0.00000000      -0.00000000 </v>
   <v>       0.33333333       0.00000000       0.00000000 </v>
   <v>       0.44444444       0.00000000       0.00000000 </v>
   <v>      -0.00000000       0.11111111      -0.00000000 </v>
   <v>       0.11111111       0.11111111      -0.00000000 </v>
   <v>       0.22222222       0.11111111      -0.00000000 </v>
   <v>       0.33333333       0.11111111      -0.00000000 </v>
   <v>       0.44444444       0.11111111       0.00000000 </v>
   <v>      -0.44444444       0.11111111      -0.00000000 </v>
   <v>      -0.33333333       0.11111111      -0.00000000 </v>
   <v>      -0.22222222       0.11111111       0.00000000 </v>
   <v>      -0.11111111       0.11111111       0.00000000 </v>
   <v>      -0.00000000       0.22222222      -0.00000000 </v>
   <v>       0.11111111       0.22222222      -0.00000000 </v>
   <v>       0.22222222       0.22222222      -0.00000000 </v>
   <v>       0.33333333       0.22222222      -0.00000000 </v>
   <v>       0.44444444       0.22222222       0.00000000 </v>
   <v>      -0.44444444       0.22222222      -0.00000000 </v>
   <v>      -0.33333333       0.22222222      -0.00000000 </v>
   <v>      -0.22222222       0.22222222       0.00000000 </v>
   <v>      -0.11111111       0.22222222       0.00000000 </v>
   <v>      -0.00000000       0.33333333       0.00000000 </v>
   <v>       0.11111111       0.33333333      -0.00000000 </v>
   <v>       0.22222222       0.33333333      -0.00000000 </v>
   <v>       0.33333333       0.33333333       0.00000000 </v>
   <v>       0.44444444       0.33333333      -0.00000000 </v>
   <v>      -0.44444444       0.33333333      -0.00000000 </v>
   <v>      -0.33333333       0.33333333      -0.00000000 </v>
   <v>      -0.22222222       0.33333333      -0.00000000 </v>
   <v>      -0.11111111       0.33333333       0.00000000 </v>
   <v>       0.00000000       0.44444444       0.00000000 </v>
   <v>       0.11111111       0.44444444      -0.00000000 </v>
   <v>       0.22222222       0.44444444       0.00000000 </v>
   <v>       0.33333333       0.44444444       0.00000000 </v>
   <v>       0.44444444       0.44444444      -0.00000000 </v>
   <v>      -0.44444444       0.44444444      -0.00000000 </v>
   <v>      -0.33333333       0.44444444       0.00000000 </v>
   <v>      -0.22222222       0.44444444      -0.00000000 </v>
   <v>      -0.11111111       0.44444444       0.00000000 </v>
   <v>      -0.00000000      -0.00000000       0.33333333 </v>
   <v>       0.11111111      -0.00000000       0.33333333 </v>
   <v>       0.22222222       0.00000000       0.33333333 </v>
   <v>       0.33333333      -0.00000000       0.33333333 </v>
   <v>       0.44444444       0.00000000       0.33333333 </v>
   <v>      -0.44444444      -0.00000000       0.33333333 </v>
   <v>      -0.33333333      -0.00000000       0.33333333 </v>
   <v>      -0.22222222      -0.00000000       0.33333333 </v>
   <v>      -0.11111111       0.00000000       0.33333333 </v>
   <v>      -0.00000000       0.11111111       0.33333333 </v>
   <v>       0.11111111       0.11111111       0.33333333 </v>
   <v>       0.22222222       0.11111111       0.33333333 </v>
   <v>       0.33333333       0.11111111       0.33333333 </v>
   <v>       0.44444444       0.11111111       0.33333333 </v>
   <v>      -0.44444444       0.11111111       0.33333333 </v>
   <v>      -0.33333333       0.11111111       0.33333333 </v>
   <v>      -0.22222222       0.11111111       0.33333333 </v>
   <v>      -0.11111111       0.11111111       0.33333333 </v>
   <v>      -0.00000000       0.22222222       0.33333333 </v>
   <v>       0.11111111       0.22222222       0.33333333 </v>
   <v>       0.22222222       0.22222222       0.33333333 </v>
   <v>       0.33333333       0.22222222       0.33333333 </v>
   <v>       0.44444444       0.22222222       0.33333333 </v>
   <v>      -0.44444444       0.22222222       0.33333333 </v>
   <v>      -0.33333333       0.22222222       0.33333333 </v>
   <v>      -0.22222222       0.22222222       0.33333333 </v>
   <v>      -0.11111111       0.22222222       0.33333333 </v>
   <v>      -0.00000000       0.33333333       0.33333333 </v>
   <v>       0.11111111       0.33333333       0.33333333 </v>
   <v>       0.22222222       0.33333333       0.33333333 </v>
   <v>       0.33333333       0.33333333       0.33333333 </v>
   <v>       0.44444444       0.33333333       0.33333333 </v>
   <v>      -0.44444444       0.33333333       0.33333333 </v>
   <v>      -0.33333333       0.33333333       0.33333333 </v>
   <v>      -0.22222222       0.33333333       0.33333333 </v>
   <v>      -0.11111111       0.33333333       0.33333333 </v>
   <v>      -0.00000000       0.44444444       0.33333333 </v>
   <v>       0.11111111       0.44444444       0.33333333 </v>
   <v>       0.22222222       0.44444444       0.33333333 </v>
   <v>       0.33333333       0.44444444       0.33333333 </v>
   <v>       0.44444444       0.44444444       0.33333333 </v>
   <v>      -0.44444444       0.44444444       0.33333333 </v>
   <v>      -0.33333333       0.44444444       0.33333333 </v>
   <v>      -0.22222222       0.44444444       0.33333333 </v>
   <v>      -0.11111111       0.44444444       0.33333333 </v>
   <v>       0.00000000      -0.44444444       0.33333333 </v>
   <v>       0.11111111      -0.44444444       0.33333333 </v>
   <v>       0.22222222      -0.44444444       0.33333333 </v>
   <v>       0.33333333      -0.44444444       0.33333333 </v>
   <v>       0.44444444      -0.44444444       0.33333333 </v>
   <v>      -0.44444444      -0.44444444       0.33333333 </v>
   <v>      -0.33333333      -0.44444444       0.33333333 </v>
   <v>      -0.22222222      -0.44444444       0.33333333 </v>
   <v>      -0.11111111      -0.44444444       0.33333333 </v>
   <v>      -0.00000000      -0.33333333       0.33333333 </v>
   <v>       0.11111111      -0.33333333       0.33333333 </v>
   <v>       0.22222222      -0.33333333       0.33333333 </v>
   <v>       0.33333333      -0.33333333       0.33333333 </v>
   <v>       0.44444444      -0.33333333       0.33333333 </v>
   <v>      -0.44444444      -0.33333333       0.33333333 </v>
   <v>      -0.33333333      -0.33333333       0.33333333 </v>
   <v>      -0.22222222      -0.33333333       0.33333333 </v>
   <v>      -0.11111111      -0.33333333       0.33333333 </v>
   <v>      -0.00000000      -0.22222222       0.33333333 </v>
   <v>       0.11111111      -0.22222222       0.33333333 </v>
   <v>       0.22222222      -0.22222222       0.33333333 </v>
   <v>       0.33333333      -0.22222222       0.33333333 </v>
   <v>       0.44444444      -0.22222222       0.33333333 </v>
   <v>      -0.44444444      -0.22222222       0.33333333 </v>
   <v>      -0.33333333      -0.22222222       0.33333333 </v>
   <v>      -0.22222222      -0.22222222       0.33333333 </v>
   <v>      -0.11111111      -0.22222222       0.33333333 </v>
   <v>      -0.00000000      -0.11111111       0.33333333 </v>
   <v>       0.11111111      -0.11111111       0.33333333 </v>
   <v>       0.22222222      -0.11111111       0.33333333 </v>
   <v>       0.33333333      -0.11111111       0.33333333 </v>
   <v>       0.44444444      -0.11111111       0.33333333 </v>
   <v>      -0.44444444      -0.11111111       0.33333333 </v>
   <v>      -0.33333333      -0.11111111       0.33333333 </v>
   <v>      -0.22222222      -0.11111111       0.33333333 </v>
   <v>      -0.11111111      -0.11111111       0.33333333 </v>
  </varray>
  <varray name="weights" >
   <v>       0.00411523 </v>
   <v>       0.00823045 </v>
   <v>       0.00823045 </v>
   <v>       0.00823045 </v>
   <v>       0.00823045 </v>
   <v>       0.00823045 </v>
   <v>       0.00823045 </v>
   <v>       0.00823045 </v>
   <v>       0.00823045 </v>
   <v>       0.00823045 </v>
   <v>       0.00823045 </v>
   <v>       0.00823045 </v>
   <v>       0.00823045 </v>
   <v>       0.00823045 </v>
   <v>       0.00823045 </v>
   <v>       0.00823045 </v>
   <v>       0.00823045 </v>
   <v>       0.00823045 </v>
   <v>       0.00823045 </v>
   <v>       0.00823045 </v>
   <v>       0.00823045 </v>
   <v>       0.00823045 </v>
   <v>       0.00823045 </v>
   <v>       0.00823045 </v>
   <v>       0.00823045 </v>
   <v>       0.00823045 </v>
   <v>       0.00823045 </v>
   <v>       0.00823045 </v>
   <v>       0.00823045 </v>
   <v>       0.00823045 </v>
   <v>       0.00823045 </v>
   <v>       0.00823045 </v>
   <v>       0.00823045 </v>
   <v>       0.00823045 </v>
   <v>       0.00823045 </v>
   <v>       0.00823045 </v>
   <v>       0.00823045 </v>
   <v>       0.00823045 </v>
   <v>       0.00823045 </v>
   <v>       0.00823045 </v>
   <v>       0.00823045 </v>
   <v>       0.00823045 </v>
   <v>       0.00823045 </v>
   <v>       0.00823045 </v>
   <v>       0.00823045 </v>
   <v>       0.00823045 </v>
   <v>       0.00823045 </v>
   <v>       0.00823045 </v>
   <v>       0.00823045 </v>
   <v>       0.00823045 </v>
   <v>       0.00823045 </v>
   <v>       0.00823045 </v>
   <v>       0.00823045 </v>
   <v>       0.00823045 </v>
   <v>       0.00823045 </v>
   <v>       0.00823045 </v>
   <v>       0.00823045 </v>
   <v>       0.00823045 </v>
   <v>       0.00823045 </v>
   <v>       0.00823045 </v>
   <v>       0.00823045 </v>
   <v>       0.00823045 </v>
   <v>       0.00823045 </v>
   <v>       0.00823045 </v>
   <v>       0.00823045 </v>
   <v>       0.00823045 </v>
   <v>       0.00823045 </v>
   <v>       0.00823045 </v>
   <v>       0.00823045 </v>
   <v>       0.00823045 </v>
   <v>       0.00823045 </v>
   <v>       0.00823045 </v>
   <v>       0.00823045 </v>
   <v>       0.00823045 </v>
   <v>       0.00823045 </v>
   <v>       0.00823045 </v>
   <v>       0.00823045 </v>
   <v>       0.00823045 </v>
   <v>       0.00823045 </v>
   <v>       0.00823045 </v>
   <v>       0.00823045 </v>
   <v>       0.00823045 </v>
   <v>       0.00823045 </v>
   <v>       0.00823045 </v>
   <v>       0.00823045 </v>
   <v>       0.00823045 </v>
   <v>       0.00823045 </v>
   <v>       0.00823045 </v>
   <v>       0.00823045 </v>
   <v>       0.00823045 </v>
   <v>       0.00823045 </v>
   <v>       0.00823045 </v>
   <v>       0.00823045 </v>
   <v>       0.00823045 </v>
   <v>       0.00823045 </v>
   <v>       0.00823045 </v>
   <v>       0.00823045 </v>
   <v>       0.00823045 </v>
   <v>       0.00823045 </v>
   <v>       0.00823045 </v>
   <v>       0.00823045 </v>
   <v>       0.00823045 </v>
   <v>       0.00823045 </v>
   <v>       0.00823045 </v>
   <v>       0.00823045 </v>
   <v>       0.00823045 </v>
   <v>       0.00823045 </v>
   <v>       0.00823045 </v>
   <v>       0.00823045 </v>
   <v>       0.00823045 </v>
   <v>       0.00823045 </v>
   <v>       0.00823045 </v>
   <v>       0.00823045 </v>
   <v>       0.00823045 </v>
   <v>       0.00823045 </v>
   <v>       0.00823045 </v>
   <v>       0.00823045 </v>
   <v>       0.00823045 </v>
   <v>       0.00823045 </v>
   <v>       0.00823045 </v>
   <v>       0.00823045 </v>
   <v>       0.00823045 </v>
  </varray>
 </kpoints>
 <parameters>
  <separator name="general" >
   <i type="string" name="SYSTEM">unknown system</i>
   <i type="logical" name="LCOMPAT"> F  </i>
  </separator>
  <separator name="electronic" >
   <i type="string" name="PREC">accura</i>
   <i name="ENMAX">    520.00000000</i>
   <i name="ENAUG">    627.11200000</i>
   <i name="EDIFF">      0.00001000</i>
   <i type="int" name="IALGO">    38</i>
   <i type="int" name="IWAVPR">    11</i>
   <i type="int" name="NBANDS">    68</i>
   <i type="int" name="NBANDSLOW">    -1</i>
   <i type="int" name="NBANDSHIGH">    -1</i>
   <i name="NELECT">    112.00000000</i>
   <i type="int" name="TURBO">     0</i>
   <i type="int" name="IRESTART">     0</i>
   <i type="int" name="NREBOOT">     0</i>
   <i type="int" name="NMIN">     0</i>
   <i name="EREF">      0.00000000</i>
   <separator name="electronic smearing" >
    <i type="int" name="ISMEAR">     0</i>
    <i name="SIGMA">      0.05000000</i>
    <i name="KSPACING">      0.50000000</i>
    <i type="logical" name="KGAMMA"> T  </i>
    <i type="logical" name="KBLOWUP"> T  </i>
   </separator>
   <separator name="electronic projectors" >
    <i type="logical" name="LREAL"> T  </i>
    <v name="ROPT">     -0.00025000     -0.00025000     -0.00025000</v>
    <i type="int" name="LMAXPAW">  -100</i>
    <i type="int" name="LMAXMIX">     2</i>
    <i type="logical" name="NLSPLINE"> F  </i>
   </separator>
   <separator name="electronic startup" >
    <i type="int" name="ISTART">     0</i>
    <i type="int" name="ICHARG">     1</i>
    <i type="int" name="INIWAV">     1</i>
   </separator>
   <separator name="electronic spin" >
    <i type="int" name="ISPIN">     2</i>
    <i type="logical" name="LNONCOLLINEAR"> F  </i>
    <v name="MAGMOM">      0.06000000      0.06000000      0.06000000      0.06000000      0.06000000      0.06000000      0.06000000      0.06000000      0.06000000      0.06000000      0.06000000      0.06000000      0.06000000      0.06000000</v>
    <i name="NUPDOWN">     -1.00000000</i>
    <i type="logical" name="LSORBIT"> F  </i>
    <v name="SAXIS">      0.00000000      0.00000000      1.00000000</v>
    <i type="logical" name="LSPIRAL"> F  </i>
    <v name="QSPIRAL">      0.00000000      0.00000000      0.00000000</v>
    <i type="logical" name="LZEROZ"> F  </i>
   </separator>
   <separator name="electronic exchange-correlation" >
    <i type="logical" name="LASPH"> T  </i>
    <i type="logical" name="LMETAGGA"> F  </i>
   </separator>
   <separator name="electronic convergence" >
    <i type="int" name="NELM">   100</i>
    <i type="int" name="NELMDL">    -5</i>
    <i type="int" name="NELMIN">     6</i>
    <i name="ENINI">    520.00000000</i>
    <separator name="electronic convergence detail" >
     <i type="logical" name="LDIAG"> T  </i>
     <i type="logical" name="LSUBROT"> F  </i>
     <i name="WEIMIN">      0.00100000</i>
     <i name="EBREAK">      0.00000004</i>
     <i name="DEPER">      0.30000000</i>
     <i type="int" name="NRMM">     4</i>
     <i name="TIME">      0.40000000</i>
    </separator>
   </separator>
   <separator name="electronic mixer" >
    <i name="AMIX">      0.40000000</i>
    <i name="BMIX">      1.00000000</i>
    <i name="AMIN">      0.10000000</i>
    <i name="AMIX_MAG">      1.60000000</i>
    <i name="BMIX_MAG">      1.00000000</i>
    <separator name="electronic mixer details" >
     <i type="int" name="IMIX">     4</i>
     <i type="logical" name="MIXFIRST"> F  </i>
     <i type="int" name="MAXMIX">   -45</i>
     <i name="WC">    100.00000000</i>
     <i type="int" name="INIMIX">     1</i>
     <i type="int" name="MIXPRE">     1</i>
     <i type="int" name="MREMOVE">     5</i>
    </separator>
   </separator>
   <separator name="electronic dipolcorrection" >
    <i type="logical" name="LDIPOL"> F  </i>
    <i type="logical" name="LMONO"> F  </i>
    <i type="int" name="IDIPOL">     0</i>
    <i name="EPSILON">      1.00000000</i>
    <v name="DIPOL">   -100.00000000   -100.00000000   -100.00000000</v>
    <i name="EFIELD">      0.00000000</i>
   </separator>
  </separator>
  <separator name="grids" >
   <i type="int" name="NGX">    40</i>
   <i type="int" name="NGY">    36</i>
   <i type="int" name="NGZ">   144</i>
   <i type="int" name="NGXF">    80</i>
   <i type="int" name="NGYF">    72</i>
   <i type="int" name="NGZF">   288</i>
   <i type="logical" name="ADDGRID"> F  </i>
  </separator>
  <separator name="ionic" >
   <i type="int" name="NSW">    99</i>
   <i type="int" name="IBRION">     2</i>
   <i type="int" name="MDALGO">     0</i>
   <i type="int" name="ISIF">     3</i>
   <i name="PSTRESS">      0.00000000</i>
   <i name="EDIFFG">     -0.01000000</i>
   <i type="int" name="NFREE">     1</i>
   <i name="POTIM">      0.50000000</i>
   <i name="SMASS">     -3.00000000</i>
   <i name="SCALEE">      1.00000000</i>
  </separator>
  <separator name="ionic md" >
   <i name="TEBEG">      0.00010000</i>
   <i name="TEEND">      0.00010000</i>
   <i type="int" name="NBLOCK">     1</i>
   <i type="int" name="KBLOCK">    99</i>
   <i type="int" name="NPACO">   256</i>
   <i name="APACO">     16.00000000</i>
  </separator>
  <separator name="symmetry" >
   <i type="int" name="ISYM">     0</i>
   <i name="SYMPREC">      0.00001000</i>
  </separator>
  <separator name="dos" >
   <i type="int" name="LORBIT">    11</i>
   <v name="RWIGS">     -1.00000000     -1.00000000     -1.00000000</v>
   <i type="int" name="NEDOS">   301</i>
   <i name="EMIN">     10.00000000</i>
   <i name="EMAX">    -10.00000000</i>
   <i name="EFERMI">      0.00000000</i>
  </separator>
  <separator name="writing" >
   <i type="int" name="NWRITE">     2</i>
   <i type="logical" name="LWAVE"> F  </i>
   <i type="logical" name="LDOWNSAMPLE"> F  </i>
   <i type="logical" name="LCHARG"> T  </i>
   <i type="logical" name="LPARD"> F  </i>
   <i type="logical" name="LVTOT"> F  </i>
   <i type="logical" name="LVHAR"> F  </i>
   <i type="logical" name="LELF"> F  </i>
   <i type="logical" name="LOPTICS"> F  </i>
   <v name="STM">      0.00000000      0.00000000      0.00000000      0.00000000      0.00000000      0.00000000      0.00000000</v>
  </separator>
  <separator name="performance" >
   <i type="int" name="NPAR">     4</i>
   <i type="int" name="NSIM">     4</i>
   <i type="int" name="NBLK">    -1</i>
   <i type="logical" name="LPLANE"> T  </i>
   <i type="logical" name="LSCALAPACK"> T  </i>
   <i type="logical" name="LSCAAWARE"> F  </i>
   <i type="logical" name="LSCALU"> F  </i>
   <i type="logical" name="LASYNC"> F  </i>
   <i type="logical" name="LORBITALREAL"> F  </i>
  </separator>
  <separator name="miscellaneous" >
   <i type="int" name="IDIOT">     3</i>
   <i type="int" name="PHON_NSTRUCT">    -1</i>
   <i type="logical" name="LMUSIC"> F  </i>
   <v name="POMASS">     39.09800000     14.00100000     87.62000000</v>
   <v name="DARWINR">      0.00000000      0.00000000      0.00000000</v>
   <v name="DARWINV">      1.00000000      1.00000000      1.00000000</v>
   <i type="logical" name="LCORR"> T  </i>
  </separator>
  <i type="logical" name="GGA_COMPAT"> T  </i>
  <i type="logical" name="LBERRY"> F  </i>
  <i type="int" name="ICORELEVEL">     0</i>
  <i type="logical" name="LDAU"> F  </i>
  <i type="int" name="I_CONSTRAINED_M">     0</i>
  <separator name="electronic exchange-correlation" >
   <i type="string" name="GGA">--</i>
   <i type="int" name="VOSKOWN">     0</i>
   <i type="logical" name="LHFCALC"> F  </i>
   <i type="string" name="PRECFOCK"></i>
   <i type="logical" name="LSYMGRAD"> F  </i>
   <i type="logical" name="LHFONE"> F  </i>
   <i type="logical" name="LRHFCALC"> F  </i>
   <i type="logical" name="LTHOMAS"> F  </i>
   <i type="logical" name="LMODELHF"> F  </i>
   <i type="logical" name="LFOCKACE"> F  </i>
   <i name="ENCUT4O">     -1.00000000</i>
   <i type="int" name="EXXOEP">     0</i>
   <i type="int" name="FOURORBIT">     0</i>
   <i name="AEXX">      0.00000000</i>
   <i name="HFALPHA">      0.00000000</i>
   <i name="MCALPHA">      0.00000000</i>
   <i name="ALDAX">      1.00000000</i>
   <i name="AGGAX">      1.00000000</i>
   <i name="ALDAC">      1.00000000</i>
   <i name="AGGAC">      1.00000000</i>
   <i type="int" name="NKREDX">     1</i>
   <i type="int" name="NKREDY">     1</i>
   <i type="int" name="NKREDZ">     1</i>
   <i type="logical" name="SHIFTRED"> F  </i>
   <i type="logical" name="ODDONLY"> F  </i>
   <i type="logical" name="EVENONLY"> F  </i>
   <i type="int" name="LMAXFOCK">     0</i>
   <i type="int" name="NMAXFOCKAE">     0</i>
   <i type="logical" name="LFOCKAEDFT"> F  </i>
   <i name="HFSCREEN">      0.00000000</i>
   <i name="HFSCREENC">      0.00000000</i>
   <i type="int" name="NBANDSGWLOW">     0</i>
  </separator>
  <separator name="vdW DFT" >
   <i type="logical" name="LUSE_VDW"> F  </i>
   <i name="Zab_VDW">     -0.84910000</i>
   <i name="PARAM1">      0.12340000</i>
   <i name="PARAM2">      1.00000000</i>
   <i name="PARAM3">      0.00000000</i>
  </separator>
  <separator name="model GW" >
   <i type="int" name="MODEL_GW">     0</i>
   <i name="MODEL_EPS0">     17.71878743</i>
   <i name="MODEL_ALPHA">      1.00000000</i>
  </separator>
  <separator name="linear response parameters" >
   <i type="logical" name="LEPSILON"> F  </i>
   <i type="logical" name="LRPA"> F  </i>
   <i type="logical" name="LNABLA"> F  </i>
   <i type="logical" name="LVEL"> F  </i>
   <i type="int" name="KINTER">     0</i>
   <i name="CSHIFT">      0.10000000</i>
   <i name="OMEGAMAX">     -1.00000000</i>
   <i name="DEG_THRESHOLD">      0.00200000</i>
   <i name="RTIME">     -0.10000000</i>
   <i name="WPLASMAI">      0.00000000</i>
   <v name="DFIELD">      0.00000000      0.00000000      0.00000000</v>
   <v name="WPLASMA">      0.00000000      0.00000000      0.00000000      0.00000000      0.00000000      0.00000000      0.00000000      0.00000000      0.00000000</v>
  </separator>
  <separator name="orbital magnetization" >
   <i type="logical" name="NUCIND"> F  </i>
   <v name="MAGPOS">      0.00000000      0.00000000      0.00000000</v>
   <i type="logical" name="LNICSALL"> T  </i>
   <i type="logical" name="ORBITALMAG"> F  </i>
   <i type="logical" name="LMAGBLOCH"> F  </i>
   <i type="logical" name="LCHIMAG"> F  </i>
   <i type="logical" name="LGAUGE"> T  </i>
   <i type="int" name="MAGATOM">     0</i>
   <v name="MAGDIPOL">      0.00000000      0.00000000      0.00000000</v>
   <v name="AVECCONST">      0.00000000      0.00000000      0.00000000</v>
  </separator>
  <separator name="response functions" >
   <i type="logical" name="LFINITE_TEMPERATURE"> F  </i>
   <i type="logical" name="LADDER"> F  </i>
   <i type="logical" name="LRPAFORCE"> F  </i>
   <i type="logical" name="LFXC"> F  </i>
   <i type="logical" name="LHARTREE"> T  </i>
   <i type="int" name="IBSE">     0</i>
   <v type="int" name="KPOINT">    -1     0     0     0</v>
   <i type="logical" name="LTCTC"> F  </i>
   <i type="logical" name="LTCTE"> F  </i>
   <i type="logical" name="LTETE"> F  </i>
   <i type="logical" name="LTRIPLET"> F  </i>
   <i type="logical" name="LFXCEPS"> F  </i>
   <i type="logical" name="LFXHEG"> F  </i>
   <i type="int" name="NATURALO">     2</i>
   <i type="logical" name="LHOLEGF"> F  </i>
   <i type="logical" name="L2ORDER"> F  </i>
   <i type="logical" name="LDMP1"> F  </i>
   <i type="logical" name="LMP2LT"> F  </i>
   <i type="logical" name="LSMP2LT"> F  </i>
   <i type="logical" name="LGWLF"> F  </i>
   <i name="ENCUTGW">     -2.00000000</i>
   <i name="ENCUTGWSOFT">     -2.00000000</i>
   <i name="ENCUTLF">     -1.00000000</i>
   <i type="logical" name="LESF_SPLINES"> F  </i>
   <i type="int" name="LMAXMP2">    -1</i>
   <i name="SCISSOR">      0.00000000</i>
   <i type="int" name="NOMEGA">     0</i>
   <i type="int" name="NOMEGAR">     0</i>
   <i type="int" name="NBANDSGW">    -1</i>
   <i type="int" name="NBANDSO">    -1</i>
   <i type="int" name="NBANDSV">    -1</i>
   <i type="int" name="NELM">   100</i>
   <i type="int" name="NELMHF">     1</i>
   <i type="int" name="DIM">     3</i>
   <i type="int" name="IESPILON">     4</i>
   <i type="int" name="ANTIRES">     0</i>
   <i name="OMEGAMAX">    -30.00000000</i>
   <i name="OMEGAMIN">    -30.00000000</i>
   <i name="OMEGATL">   -200.00000000</i>
   <i type="int" name="OMEGAGRID">     0</i>
   <i name="CSHIFT">     -0.10000000</i>
   <i type="logical" name="LSELFENERGY"> F  </i>
   <i type="logical" name="LSPECTRAL"> F  </i>
   <i type="logical" name="LSPECTRALGW"> F  </i>
   <i type="logical" name="LSINGLES"> F  </i>
   <i type="logical" name="LFERMIGW"> F  </i>
   <i type="logical" name="ODDONLYGW"> F  </i>
   <i type="logical" name="EVENONLYGW"> F  </i>
   <i type="int" name="NKREDLFX">     1</i>
   <i type="int" name="NKREDLFY">     1</i>
   <i type="int" name="NKREDLFZ">     1</i>
   <i type="int" name="MAXMEM">  2800</i>
   <i type="int" name="TELESCOPE">     0</i>
   <i type="int" name="NTAUPAR">    -1</i>
   <i type="int" name="NOMEGAPAR">    -1</i>
   <i name="LAMBDA">      1.00000000</i>
  </separator>
  <separator name="External order field" >
   <i name="OFIELD_KAPPA">      0.00000000</i>
   <v name="OFIELD_K">      0.00000000      0.00000000      0.00000000</v>
   <i name="OFIELD_Q6_NEAR">      0.00000000</i>
   <i name="OFIELD_Q6_FAR">      0.00000000</i>
   <i name="OFIELD_A">      0.00000000</i>
  </separator>
 </parameters>
 <atominfo>
  <atoms>      14 </atoms>
  <types>       3 </types>
  <array name="atoms" >
   <dimension dim="1">ion</dimension>
   <field type="string">element</field>
   <field type="int">atomtype</field>
   <set>
    <rc><c>K </c><c>   1</c></rc>
    <rc><c>K </c><c>   1</c></rc>
    <rc><c>K </c><c>   1</c></rc>
    <rc><c>K </c><c>   1</c></rc>
    <rc><c>K </c><c>   1</c></rc>
    <rc><c>K </c><c>   1</c></rc>
    <rc><c>K </c><c>   1</c></rc>
    <rc><c>K </c><c>   1</c></rc>
    <rc><c>N </c><c>   2</c></rc>
    <rc><c>N </c><c>   2</c></rc>
    <rc><c>N </c><c>   2</c></rc>
    <rc><c>N </c><c>   2</c></rc>
    <rc><c>Sr</c><c>   3</c></rc>
    <rc><c>Sr</c><c>   3</c></rc>
   </set>
  </array>
  <array name="atomtypes" >
   <dimension dim="1">type</dimension>
   <field type="int">atomspertype</field>
   <field type="string">element</field>
   <field>mass</field>
   <field>valence</field>
   <field type="string">pseudopotential</field>
   <set>
    <rc><c>   8</c><c>K </c><c>     39.09800000</c><c>      9.00000000</c><c>  PAW_PBE K_sv 06Sep2000                </c></rc>
    <rc><c>   4</c><c>N </c><c>     14.00100000</c><c>      5.00000000</c><c>  PAW_PBE N 08Apr2002                   </c></rc>
    <rc><c>   2</c><c>Sr</c><c>     87.62000000</c><c>     10.00000000</c><c>  PAW_PBE Sr_sv 07Sep2000               </c></rc>
   </set>
  </array>
 </atominfo>
 <structure name="initialpos" >
  <crystal>
   <varray name="basis" >
    <v>       4.93059421      -0.00166812      -0.43176448 </v>
    <v>      -0.00217957       4.64982784      -0.05343989 </v>
    <v>      -4.14257211      -2.51490289      18.42506112 </v>
   </varray>
   <i name="volume">    413.43837327 </i>
   <varray name="rec_basis" >
    <v>       0.20689653       0.00063259       0.04660363 </v>
    <v>       0.00270072       0.21540788       0.03000901 </v>
    <v>       0.00485615       0.00063959       0.05545303 </v>
   </varray>
  </crystal>
  <varray name="positions" >
   <v>       0.35235477       0.65640362       0.83234581 </v>
   <v>       0.59712049       0.43577087       0.32572996 </v>
   <v>       0.64859556       0.34347044       0.16759718 </v>
   <v>       0.40087481       0.56406377       0.67382500 </v>
   <v>       0.76313393       0.23332659       0.97263679 </v>
   <v>       0.12167564       0.98392603       0.40259060 </v>
   <v>       0.23856942       0.76597690       0.02736906 </v>
   <v>       0.87525988       0.01680773       0.59756890 </v>
   <v>       0.72534805       0.89659658       0.25873223 </v>
   <v>       0.90585513       0.68459934       0.88159562 </v>
   <v>       0.27488863       0.10353941       0.74117777 </v>
   <v>       0.09567184       0.31546343       0.11869943 </v>
   <v>       0.14992619       0.86156920       0.19901850 </v>
   <v>       0.85072566       0.13848608       0.80111316 </v>
  </varray>
 </structure>
 <calculation>
  <scstep>
   <time name="dav">   32.96   32.97</time>
   <time name="total">   34.04   34.09</time>
   <energy>
    <i name="alphaZ">    423.72797092 </i>
    <i name="ewald">  -4826.17089699 </i>
    <i name="hartreedc">  -3480.74929469 </i>
    <i name="XCdc">    496.01544285 </i>
    <i name="pawpsdc">   6754.29874767 </i>
    <i name="pawaedc">  -6790.92691564 </i>
    <i name="eentropy">     -0.00530418 </i>
    <i name="bandstr">   -708.82063850 </i>
    <i name="atom">   8944.24845171 </i>
    <i name="e_fr_energy">    811.61756316 </i>
    <i name="e_wo_entrp">    811.62286734 </i>
    <i name="e_0_energy">    811.62021525 </i>
   </energy>
  </scstep>
  <scstep>
   <time name="dav">   38.63   38.67</time>
   <time name="total">   38.64   38.68</time>
   <energy>
    <i name="e_fr_energy">   -110.12491483 </i>
    <i name="e_wo_entrp">   -110.12462150 </i>
    <i name="e_0_energy">   -110.12476816 </i>
   </energy>
  </scstep>
  <scstep>
   <time name="dav">   42.08   42.10</time>
   <time name="total">   42.09   42.10</time>
   <energy>
    <i name="e_fr_energy">   -200.73665195 </i>
    <i name="e_wo_entrp">   -200.73665195 </i>
    <i name="e_0_energy">   -200.73665195 </i>
   </energy>
  </scstep>
  <scstep>
   <time name="dav">   46.20   46.23</time>
   <time name="total">   46.21   46.24</time>
   <energy>
    <i name="e_fr_energy">   -205.93064021 </i>
    <i name="e_wo_entrp">   -205.93064021 </i>
    <i name="e_0_energy">   -205.93064021 </i>
   </energy>
  </scstep>
  <scstep>
   <time name="dav">   43.25   43.26</time>
   <time name="total">   48.36   48.38</time>
   <energy>
    <i name="e_fr_energy">   -206.47117846 </i>
    <i name="e_wo_entrp">   -206.47117846 </i>
    <i name="e_0_energy">   -206.47117846 </i>
   </energy>
  </scstep>
  <scstep>
   <time name="dav">   39.71   39.71</time>
   <time name="total">   45.91   45.92</time>
   <energy>
    <i name="e_fr_energy">   -145.17671997 </i>
    <i name="e_wo_entrp">   -145.16829369 </i>
    <i name="e_0_energy">   -145.17250683 </i>
   </energy>
  </scstep>
  <scstep>
   <time name="dav">   40.93   40.93</time>
   <time name="total">   47.10   47.12</time>
   <energy>
    <i name="e_fr_energy">   -147.20170402 </i>
    <i name="e_wo_entrp">   -147.19227726 </i>
    <i name="e_0_energy">   -147.19699064 </i>
   </energy>
  </scstep>
  <scstep>
   <time name="dav">   41.24   41.24</time>
   <time name="total">   47.41   47.43</time>
   <energy>
    <i name="e_fr_energy">   -148.57367523 </i>
    <i name="e_wo_entrp">   -148.55804499 </i>
    <i name="e_0_energy">   -148.56586011 </i>
   </energy>
  </scstep>
  <scstep>
   <time name="dav">   36.83   36.83</time>
   <time name="total">   42.99   43.00</time>
   <energy>
    <i name="e_fr_energy">   -146.04725962 </i>
    <i name="e_wo_entrp">   -146.03534912 </i>
    <i name="e_0_energy">   -146.04130437 </i>
   </energy>
  </scstep>
  <scstep>
   <time name="dav">   37.65   37.66</time>
   <time name="total">   43.86   43.87</time>
   <energy>
    <i name="e_fr_energy">   -145.46735157 </i>
    <i name="e_wo_entrp">   -145.44274025 </i>
    <i name="e_0_energy">   -145.45504591 </i>
   </energy>
  </scstep>
  <scstep>
   <time name="dav">   38.44   38.44</time>
   <time name="total">   44.61   44.62</time>
   <energy>
    <i name="e_fr_energy">   -145.43541246 </i>
    <i name="e_wo_entrp">   -145.42095707 </i>
    <i name="e_0_energy">   -145.42818476 </i>
   </energy>
  </scstep>
  <scstep>
   <time name="dav">   34.83   34.83</time>
   <time name="total">   41.00   41.01</time>
   <energy>
    <i name="e_fr_energy">   -145.44358108 </i>
    <i name="e_wo_entrp">   -145.43303633 </i>
    <i name="e_0_energy">   -145.43830870 </i>
   </energy>
  </scstep>
  <scstep>
   <time name="dav">   36.90   36.91</time>
   <time name="total">   43.07   43.08</time>
   <energy>
    <i name="e_fr_energy">   -145.44097304 </i>
    <i name="e_wo_entrp">   -145.42712117 </i>
    <i name="e_0_energy">   -145.43404710 </i>
   </energy>
  </scstep>
  <scstep>
   <time name="dav">   36.25   36.25</time>
   <time name="total">   42.44   42.45</time>
   <energy>
    <i name="e_fr_energy">   -145.36987950 </i>
    <i name="e_wo_entrp">   -145.35325612 </i>
    <i name="e_0_energy">   -145.36156781 </i>
   </energy>
  </scstep>
  <scstep>
   <time name="dav">   35.48   35.49</time>
   <time name="total">   42.10   42.11</time>
   <energy>
    <i name="e_fr_energy">   -145.36358144 </i>
    <i name="e_wo_entrp">   -145.34335678 </i>
    <i name="e_0_energy">   -145.35346911 </i>
   </energy>
  </scstep>
  <scstep>
   <time name="dav">   34.77   34.77</time>
   <time name="total">   40.95   40.98</time>
   <energy>
    <i name="e_fr_energy">   -145.38649244 </i>
    <i name="e_wo_entrp">   -145.36982677 </i>
    <i name="e_0_energy">   -145.37815960 </i>
   </energy>
  </scstep>
  <scstep>
   <time name="dav">   34.99   34.99</time>
   <time name="total">   41.18   41.20</time>
   <energy>
    <i name="e_fr_energy">   -145.38803145 </i>
    <i name="e_wo_entrp">   -145.37234141 </i>
    <i name="e_0_energy">   -145.38018643 </i>
   </energy>
  </scstep>
  <scstep>
   <time name="dav">   34.34   34.34</time>
   <time name="total">   40.51   40.52</time>
   <energy>
    <i name="e_fr_energy">   -145.38423221 </i>
    <i name="e_wo_entrp">   -145.36553553 </i>
    <i name="e_0_energy">   -145.37488387 </i>
   </energy>
  </scstep>
  <scstep>
   <time name="dav">   34.82   34.82</time>
   <time name="total">   40.99   41.02</time>
   <energy>
    <i name="e_fr_energy">   -145.36997644 </i>
    <i name="e_wo_entrp">   -145.35136118 </i>
    <i name="e_0_energy">   -145.36066881 </i>
   </energy>
  </scstep>
  <scstep>
   <time name="dav">   33.32   33.33</time>
   <time name="total">   39.51   39.54</time>
   <energy>
    <i name="e_fr_energy">   -145.36640018 </i>
    <i name="e_wo_entrp">   -145.34485898 </i>
    <i name="e_0_energy">   -145.35562958 </i>
   </energy>
  </scstep>
  <scstep>
   <time name="dav">   33.34   33.35</time>
   <time name="total">   39.41   39.43</time>
   <energy>
    <i name="e_fr_energy">   -145.36661830 </i>
    <i name="e_wo_entrp">   -145.34468661 </i>
    <i name="e_0_energy">   -145.35565245 </i>
   </energy>
  </scstep>
  <scstep>
   <time name="dav">   33.12   33.12</time>
   <time name="total">   39.29   39.32</time>
   <energy>
    <i name="e_fr_energy">   -145.36634938 </i>
    <i name="e_wo_entrp">   -145.34368555 </i>
    <i name="e_0_energy">   -145.35501746 </i>
   </energy>
  </scstep>
  <scstep>
   <time name="dav">   33.07   33.07</time>
   <time name="total">   39.25   39.27</time>
   <energy>
    <i name="e_fr_energy">   -145.36848684 </i>
    <i name="e_wo_entrp">   -145.34583739 </i>
    <i name="e_0_energy">   -145.35716211 </i>
   </energy>
  </scstep>
  <scstep>
   <time name="dav">   33.68   33.68</time>
   <time name="total">   39.86   39.88</time>
   <energy>
    <i name="e_fr_energy">   -145.36806121 </i>
    <i name="e_wo_entrp">   -145.34521288 </i>
    <i name="e_0_energy">   -145.35663704 </i>
   </energy>
  </scstep>
  <scstep>
   <time name="dav">   33.66   33.66</time>
   <time name="total">   39.84   39.86</time>
   <energy>
    <i name="e_fr_energy">   -145.37016459 </i>
    <i name="e_wo_entrp">   -145.34748583 </i>
    <i name="e_0_energy">   -145.35882521 </i>
   </energy>
  </scstep>
  <scstep>
   <time name="dav">   33.32   33.32</time>
   <time name="total">   39.49   39.51</time>
   <energy>
    <i name="e_fr_energy">   -145.37570610 </i>
    <i name="e_wo_entrp">   -145.35321611 </i>
    <i name="e_0_energy">   -145.36446111 </i>
   </energy>
  </scstep>
  <scstep>
   <time name="dav">   33.05   33.05</time>
   <time name="total">   39.22   39.23</time>
   <energy>
    <i name="e_fr_energy">   -145.37369466 </i>
    <i name="e_wo_entrp">   -145.35118720 </i>
    <i name="e_0_energy">   -145.36244093 </i>
   </energy>
  </scstep>
  <scstep>
   <time name="dav">   32.98   32.98</time>
   <time name="total">   39.15   39.17</time>
   <energy>
    <i name="e_fr_energy">   -145.37573903 </i>
    <i name="e_wo_entrp">   -145.35311882 </i>
    <i name="e_0_energy">   -145.36442892 </i>
   </energy>
  </scstep>
  <scstep>
   <time name="dav">   33.03   33.03</time>
   <time name="total">   39.16   39.17</time>
   <energy>
    <i name="e_fr_energy">   -145.37192952 </i>
    <i name="e_wo_entrp">   -145.34966699 </i>
    <i name="e_0_energy">   -145.36079825 </i>
   </energy>
  </scstep>
  <scstep>
   <time name="dav">   33.54   33.54</time>
   <time name="total">   39.72   39.75</time>
   <energy>
    <i name="e_fr_energy">   -145.38227385 </i>
    <i name="e_wo_entrp">   -145.36121542 </i>
    <i name="e_0_energy">   -145.37174464 </i>
   </energy>
  </scstep>
  <scstep>
   <time name="dav">   32.96   32.96</time>
   <time name="total">   39.15   39.18</time>
   <energy>
    <i name="e_fr_energy">   -145.38397891 </i>
    <i name="e_wo_entrp">   -145.36324002 </i>
    <i name="e_0_energy">   -145.37360947 </i>
   </energy>
  </scstep>
  <scstep>
   <time name="dav">   32.97   32.97</time>
   <time name="total">   39.15   39.16</time>
   <energy>
    <i name="e_fr_energy">   -145.38782840 </i>
    <i name="e_wo_entrp">   -145.36723347 </i>
    <i name="e_0_energy">   -145.37753093 </i>
   </energy>
  </scstep>
  <scstep>
   <time name="dav">   33.09   33.09</time>
   <time name="total">   39.26   39.29</time>
   <energy>
    <i name="e_fr_energy">   -145.38814888 </i>
    <i name="e_wo_entrp">   -145.36751788 </i>
    <i name="e_0_energy">   -145.37783338 </i>
   </energy>
  </scstep>
  <scstep>
   <time name="dav">   32.95   32.95</time>
   <time name="total">   39.14   39.16</time>
   <energy>
    <i name="e_fr_energy">   -145.38935727 </i>
    <i name="e_wo_entrp">   -145.36886291 </i>
    <i name="e_0_energy">   -145.37911009 </i>
   </energy>
  </scstep>
  <scstep>
   <time name="dav">   33.29   33.29</time>
   <time name="total">   39.48   39.52</time>
   <energy>
    <i name="e_fr_energy">   -145.38962032 </i>
    <i name="e_wo_entrp">   -145.36907105 </i>
    <i name="e_0_energy">   -145.37934568 </i>
   </energy>
  </scstep>
  <scstep>
   <time name="dav">   33.02   33.02</time>
   <time name="total">   39.20   39.24</time>
   <energy>
    <i name="e_fr_energy">   -145.39093575 </i>
    <i name="e_wo_entrp">   -145.37054740 </i>
    <i name="e_0_energy">   -145.38074157 </i>
   </energy>
  </scstep>
  <scstep>
   <time name="dav">   33.03   33.03</time>
   <time name="total">   39.17   39.18</time>
   <energy>
    <i name="e_fr_energy">   -145.39191041 </i>
    <i name="e_wo_entrp">   -145.37163212 </i>
    <i name="e_0_energy">   -145.38177126 </i>
   </energy>
  </scstep>
  <scstep>
   <time name="dav">   33.00   33.00</time>
   <time name="total">   39.18   39.20</time>
   <energy>
    <i name="e_fr_energy">   -145.39170124 </i>
    <i name="e_wo_entrp">   -145.37140118 </i>
    <i name="e_0_energy">   -145.38155121 </i>
   </energy>
  </scstep>
  <scstep>
   <time name="dav">   33.00   33.01</time>
   <time name="total">   39.18   39.22</time>
   <energy>
    <i name="e_fr_energy">   -145.39391010 </i>
    <i name="e_wo_entrp">   -145.37412805 </i>
    <i name="e_0_energy">   -145.38401907 </i>
   </energy>
  </scstep>
  <scstep>
   <time name="dav">   32.97   32.97</time>
   <time name="total">   39.16   39.18</time>
   <energy>
    <i name="e_fr_energy">   -145.39426157 </i>
    <i name="e_wo_entrp">   -145.37427863 </i>
    <i name="e_0_energy">   -145.38427010 </i>
   </energy>
  </scstep>
  <scstep>
   <time name="dav">   32.86   32.87</time>
   <time name="total">   39.48   39.51</time>
   <energy>
    <i name="e_fr_energy">   -145.39423072 </i>
    <i name="e_wo_entrp">   -145.37436371 </i>
    <i name="e_0_energy">   -145.38429722 </i>
   </energy>
  </scstep>
  <scstep>
   <time name="dav">   33.00   33.00</time>
   <time name="total">   39.18   39.21</time>
   <energy>
    <i name="e_fr_energy">   -145.38748397 </i>
    <i name="e_wo_entrp">   -145.36727943 </i>
    <i name="e_0_energy">   -145.37738170 </i>
   </energy>
  </scstep>
  <scstep>
   <time name="dav">   33.97   33.97</time>
   <time name="total">   40.15   40.18</time>
   <energy>
    <i name="e_fr_energy">   -145.38387156 </i>
    <i name="e_wo_entrp">   -145.36374700 </i>
    <i name="e_0_energy">   -145.37380928 </i>
   </energy>
  </scstep>
  <scstep>
   <time name="dav">   33.24   33.24</time>
   <time name="total">   39.42   39.47</time>
   <energy>
    <i name="e_fr_energy">   -145.37752822 </i>
    <i name="e_wo_entrp">   -145.35733387 </i>
    <i name="e_0_energy">   -145.36743104 </i>
   </energy>
  </scstep>
  <scstep>
   <time name="dav">   33.16   33.16</time>
   <time name="total">   39.30   39.31</time>
   <energy>
    <i name="e_fr_energy">   -145.37524183 </i>
    <i name="e_wo_entrp">   -145.35531681 </i>
    <i name="e_0_energy">   -145.36527932 </i>
   </energy>
  </scstep>
  <scstep>
   <time name="dav">   33.19   33.19</time>
   <time name="total">   39.38   39.41</time>
   <energy>
    <i name="e_fr_energy">   -145.37155072 </i>
    <i name="e_wo_entrp">   -145.35151953 </i>
    <i name="e_0_energy">   -145.36153512 </i>
   </energy>
  </scstep>
  <scstep>
   <time name="dav">   33.68   33.68</time>
   <time name="total">   39.87   39.88</time>
   <energy>
    <i name="e_fr_energy">   -145.36947756 </i>
    <i name="e_wo_entrp">   -145.34949210 </i>
    <i name="e_0_energy">   -145.35948483 </i>
   </energy>
  </scstep>
  <scstep>
   <time name="dav">   33.07   33.07</time>
   <time name="total">   39.25   39.26</time>
   <energy>
    <i name="e_fr_energy">   -145.37074717 </i>
    <i name="e_wo_entrp">   -145.35195499 </i>
    <i name="e_0_energy">   -145.36135108 </i>
   </energy>
  </scstep>
  <scstep>
   <time name="dav">   33.05   33.05</time>
   <time name="total">   39.24   39.27</time>
   <energy>
    <i name="e_fr_energy">   -145.36783176 </i>
    <i name="e_wo_entrp">   -145.34935728 </i>
    <i name="e_0_energy">   -145.35859452 </i>
   </energy>
  </scstep>
  <scstep>
   <time name="dav">   33.08   33.08</time>
   <time name="total">   39.25   39.26</time>
   <energy>
    <i name="e_fr_energy">   -145.37340044 </i>
    <i name="e_wo_entrp">   -145.35548671 </i>
    <i name="e_0_energy">   -145.36444358 </i>
   </energy>
  </scstep>
  <scstep>
   <time name="dav">   33.04   33.04</time>
   <time name="total">   39.22   39.24</time>
   <energy>
    <i name="e_fr_energy">   -145.37761880 </i>
    <i name="e_wo_entrp">   -145.35984427 </i>
    <i name="e_0_energy">   -145.36873153 </i>
   </energy>
  </scstep>
  <scstep>
   <time name="dav">   33.10   33.10</time>
   <time name="total">   39.29   39.32</time>
   <energy>
    <i name="e_fr_energy">   -145.37466864 </i>
    <i name="e_wo_entrp">   -145.35705053 </i>
    <i name="e_0_energy">   -145.36585958 </i>
   </energy>
  </scstep>
  <scstep>
   <time name="dav">   33.76   33.76</time>
   <time name="total">   39.91   39.92</time>
   <energy>
    <i name="e_fr_energy">   -145.37896214 </i>
    <i name="e_wo_entrp">   -145.36169349 </i>
    <i name="e_0_energy">   -145.37032782 </i>
   </energy>
  </scstep>
  <scstep>
   <time name="dav">   32.98   32.98</time>
   <time name="total">   39.18   39.20</time>
   <energy>
    <i name="e_fr_energy">   -145.38157873 </i>
    <i name="e_wo_entrp">   -145.36413182 </i>
    <i name="e_0_energy">   -145.37285528 </i>
   </energy>
  </scstep>
  <scstep>
   <time name="dav">   33.00   33.00</time>
   <time name="total">   39.20   39.21</time>
   <energy>
    <i name="e_fr_energy">   -145.37856244 </i>
    <i name="e_wo_entrp">   -145.36116595 </i>
    <i name="e_0_energy">   -145.36986420 </i>
   </energy>
  </scstep>
  <scstep>
   <time name="dav">   33.14   33.14</time>
   <time name="total">   39.17   39.20</time>
   <energy>
    <i name="e_fr_energy">   -145.38464194 </i>
    <i name="e_wo_entrp">   -145.36766345 </i>
    <i name="e_0_energy">   -145.37615270 </i>
   </energy>
  </scstep>
  <scstep>
   <time name="dav">   33.02   33.02</time>
   <time name="total">   39.15   39.16</time>
   <energy>
    <i name="e_fr_energy">   -145.38152541 </i>
    <i name="e_wo_entrp">   -145.36433928 </i>
    <i name="e_0_energy">   -145.37293235 </i>
   </energy>
  </scstep>
  <scstep>
   <time name="dav">   33.00   33.01</time>
   <time name="total">   39.20   39.22</time>
   <energy>
    <i name="e_fr_energy">   -145.38556685 </i>
    <i name="e_wo_entrp">   -145.36813575 </i>
    <i name="e_0_energy">   -145.37685130 </i>
   </energy>
  </scstep>
  <scstep>
   <time name="dav">   33.00   33.01</time>
   <time name="total">   39.10   39.11</time>
   <energy>
    <i name="e_fr_energy">   -145.38242055 </i>
    <i name="e_wo_entrp">   -145.36491883 </i>
    <i name="e_0_energy">   -145.37366969 </i>
   </energy>
  </scstep>
  <scstep>
   <time name="dav">   32.90   32.91</time>
   <time name="total">   39.09   39.12</time>
   <energy>
    <i name="e_fr_energy">   -145.38565317 </i>
    <i name="e_wo_entrp">   -145.36750110 </i>
    <i name="e_0_energy">   -145.37657714 </i>
   </energy>
  </scstep>
  <scstep>
   <time name="dav">   33.03   33.04</time>
   <time name="total">   39.22   39.23</time>
   <energy>
    <i name="e_fr_energy">   -145.38427565 </i>
    <i name="e_wo_entrp">   -145.36635235 </i>
    <i name="e_0_energy">   -145.37531400 </i>
   </energy>
  </scstep>
  <scstep>
   <time name="dav">   32.96   32.96</time>
   <time name="total">   39.06   39.07</time>
   <energy>
    <i name="e_fr_energy">   -145.38947779 </i>
    <i name="e_wo_entrp">   -145.37147264 </i>
    <i name="e_0_energy">   -145.38047521 </i>
   </energy>
  </scstep>
  <scstep>
   <time name="dav">   32.94   32.94</time>
   <time name="total">   39.11   39.13</time>
   <energy>
    <i name="e_fr_energy">   -145.38583074 </i>
    <i name="e_wo_entrp">   -145.36787142 </i>
    <i name="e_0_energy">   -145.37685108 </i>
   </energy>
  </scstep>
  <scstep>
   <time name="dav">   33.26   33.26</time>
   <time name="total">   39.44   39.48</time>
   <energy>
    <i name="e_fr_energy">   -145.39088459 </i>
    <i name="e_wo_entrp">   -145.37297996 </i>
    <i name="e_0_energy">   -145.38193227 </i>
   </energy>
  </scstep>
  <scstep>
   <time name="dav">   33.59   33.59</time>
   <time name="total">   39.75   39.80</time>
   <energy>
    <i name="e_fr_energy">   -145.38780466 </i>
    <i name="e_wo_entrp">   -145.37008501 </i>
    <i name="e_0_energy">   -145.37894484 </i>
   </energy>
  </scstep>
  <scstep>
   <time name="dav">   32.95   32.95</time>
   <time name="total">   39.13   39.16</time>
   <energy>
    <i name="e_fr_energy">   -145.39146333 </i>
    <i name="e_wo_entrp">   -145.37348298 </i>
    <i name="e_0_energy">   -145.38247315 </i>
   </energy>
  </scstep>
  <scstep>
   <time name="dav">   32.96   32.97</time>
   <time name="total">   39.15   39.15</time>
   <energy>
    <i name="e_fr_energy">   -145.38802483 </i>
    <i name="e_wo_entrp">   -145.37011886 </i>
    <i name="e_0_energy">   -145.37907184 </i>
   </energy>
  </scstep>
  <scstep>
   <time name="dav">   33.22   33.22</time>
   <time name="total">   39.40   39.42</time>
   <energy>
    <i name="e_fr_energy">   -145.39195597 </i>
    <i name="e_wo_entrp">   -145.37401743 </i>
    <i name="e_0_energy">   -145.38298670 </i>
   </energy>
  </scstep>
  <scstep>
   <time name="dav">   32.94   32.94</time>
   <time name="total">   39.13   39.17</time>
   <energy>
    <i name="e_fr_energy">   -145.38822419 </i>
    <i name="e_wo_entrp">   -145.37028445 </i>
    <i name="e_0_energy">   -145.37925432 </i>
   </energy>
  </scstep>
  <scstep>
   <time name="dav">   33.01   33.01</time>
   <time name="total">   39.19   39.21</time>
   <energy>
    <i name="e_fr_energy">   -145.39214902 </i>
    <i name="e_wo_entrp">   -145.37421551 </i>
    <i name="e_0_energy">   -145.38318227 </i>
   </energy>
  </scstep>
  <scstep>
   <time name="dav">   32.96   32.96</time>
   <time name="total">   39.14   39.15</time>
   <energy>
    <i name="e_fr_energy">   -145.38978673 </i>
    <i name="e_wo_entrp">   -145.37208519 </i>
    <i name="e_0_energy">   -145.38093596 </i>
   </energy>
  </scstep>
  <scstep>
   <time name="dav">   32.93   32.93</time>
   <time name="total">   39.12   39.14</time>
   <energy>
    <i name="e_fr_energy">   -145.39383844 </i>
    <i name="e_wo_entrp">   -145.37615922 </i>
    <i name="e_0_energy">   -145.38499883 </i>
   </energy>
  </scstep>
  <scstep>
   <time name="dav">   32.99   32.99</time>
   <time name="total">   39.20   39.22</time>
   <energy>
    <i name="e_fr_energy">   -145.39001255 </i>
    <i name="e_wo_entrp">   -145.37231751 </i>
    <i name="e_0_energy">   -145.38116503 </i>
   </energy>
  </scstep>
  <scstep>
   <time name="dav">   33.07   33.07</time>
   <time name="total">   39.21   39.22</time>
   <energy>
    <i name="e_fr_energy">   -145.39417471 </i>
    <i name="e_wo_entrp">   -145.37669766 </i>
    <i name="e_0_energy">   -145.38543619 </i>
   </energy>
  </scstep>
  <scstep>
   <time name="dav">   32.96   32.96</time>
   <time name="total">   39.15   39.16</time>
   <energy>
    <i name="e_fr_energy">   -145.39060655 </i>
    <i name="e_wo_entrp">   -145.37319430 </i>
    <i name="e_0_energy">   -145.38190042 </i>
   </energy>
  </scstep>
  <scstep>
   <time name="dav">   33.31   33.31</time>
   <time name="total">   39.50   39.52</time>
   <energy>
    <i name="e_fr_energy">   -145.39471965 </i>
    <i name="e_wo_entrp">   -145.37751109 </i>
    <i name="e_0_energy">   -145.38611537 </i>
   </energy>
  </scstep>
  <scstep>
   <time name="dav">   32.98   32.98</time>
   <time name="total">   39.16   39.17</time>
   <energy>
    <i name="e_fr_energy">   -145.39152899 </i>
    <i name="e_wo_entrp">   -145.37434692 </i>
    <i name="e_0_energy">   -145.38293795 </i>
   </energy>
  </scstep>
  <scstep>
   <time name="dav">   33.04   33.04</time>
   <time name="total">   39.55   39.56</time>
   <energy>
    <i name="e_fr_energy">   -145.39471162 </i>
    <i name="e_wo_entrp">   -145.37748801 </i>
    <i name="e_0_energy">   -145.38609982 </i>
   </energy>
  </scstep>
  <scstep>
   <time name="dav">   32.98   32.98</time>
   <time name="total">   39.15   39.17</time>
   <energy>
    <i name="e_fr_energy">   -145.39158921 </i>
    <i name="e_wo_entrp">   -145.37451163 </i>
    <i name="e_0_energy">   -145.38305042 </i>
   </energy>
  </scstep>
  <scstep>
   <time name="dav">   32.98   32.98</time>
   <time name="total">   39.17   39.19</time>
   <energy>
    <i name="e_fr_energy">   -145.39436299 </i>
    <i name="e_wo_entrp">   -145.37724229 </i>
    <i name="e_0_energy">   -145.38580264 </i>
   </energy>
  </scstep>
  <scstep>
   <time name="dav">   32.97   32.97</time>
   <time name="total">   39.17   39.20</time>
   <energy>
    <i name="e_fr_energy">   -145.39247536 </i>
    <i name="e_wo_entrp">   -145.37475541 </i>
    <i name="e_0_energy">   -145.38361539 </i>
   </energy>
  </scstep>
  <scstep>
   <time name="dav">   33.05   33.06</time>
   <time name="total">   39.21   39.23</time>
   <energy>
    <i name="e_fr_energy">   -145.39803888 </i>
    <i name="e_wo_entrp">   -145.38024982 </i>
    <i name="e_0_energy">   -145.38914435 </i>
   </energy>
  </scstep>
  <scstep>
   <time name="dav">   32.97   32.97</time>
   <time name="total">   39.16   39.17</time>
   <energy>
    <i name="e_fr_energy">   -145.39478988 </i>
    <i name="e_wo_entrp">   -145.37699159 </i>
    <i name="e_0_energy">   -145.38589074 </i>
   </energy>
  </scstep>
  <scstep>
   <time name="dav">   33.29   33.29</time>
   <time name="total">   39.64   39.67</time>
   <energy>
    <i name="e_fr_energy">   -145.40078804 </i>
    <i name="e_wo_entrp">   -145.38313693 </i>
    <i name="e_0_energy">   -145.39196249 </i>
   </energy>
  </scstep>
  <scstep>
   <time name="dav">   33.41   33.41</time>
   <time name="total">   39.60   39.61</time>
   <energy>
    <i name="e_fr_energy">   -145.39628454 </i>
    <i name="e_wo_entrp">   -145.37858568 </i>
    <i name="e_0_energy">   -145.38743511 </i>
   </energy>
  </scstep>
  <scstep>
   <time name="dav">   32.96   32.96</time>
   <time name="total">   39.16   39.18</time>
   <energy>
    <i name="e_fr_energy">   -145.39893670 </i>
    <i name="e_wo_entrp">   -145.38077895 </i>
    <i name="e_0_energy">   -145.38985782 </i>
   </energy>
  </scstep>
  <scstep>
   <time name="dav">   32.98   32.98</time>
   <time name="total">   39.17   39.18</time>
   <energy>
    <i name="e_fr_energy">   -145.39850295 </i>
    <i name="e_wo_entrp">   -145.38015163 </i>
    <i name="e_0_energy">   -145.38932729 </i>
   </energy>
  </scstep>
  <scstep>
   <time name="dav">   33.01   33.01</time>
   <time name="total">   39.20   39.22</time>
   <energy>
    <i name="e_fr_energy">   -145.39954449 </i>
    <i name="e_wo_entrp">   -145.38128590 </i>
    <i name="e_0_energy">   -145.39041520 </i>
   </energy>
  </scstep>
  <scstep>
   <time name="dav">   32.97   32.97</time>
   <time name="total">   39.16   39.18</time>
   <energy>
    <i name="e_fr_energy">   -145.39928871 </i>
    <i name="e_wo_entrp">   -145.38086660 </i>
    <i name="e_0_energy">   -145.39007766 </i>
   </energy>
  </scstep>
  <scstep>
   <time name="dav">   32.99   32.99</time>
   <time name="total">   39.14   39.18</time>
   <energy>
    <i name="e_fr_energy">   -145.40005232 </i>
    <i name="e_wo_entrp">   -145.38179893 </i>
    <i name="e_0_energy">   -145.39092562 </i>
   </energy>
  </scstep>
  <scstep>
   <time name="dav">   32.99   32.99</time>
   <time name="total">   39.18   39.18</time>
   <energy>
    <i name="e_fr_energy">   -145.39810287 </i>
    <i name="e_wo_entrp">   -145.37954317 </i>
    <i name="e_0_energy">   -145.38882302 </i>
   </energy>
  </scstep>
  <scstep>
   <time name="dav">   32.98   32.98</time>
   <time name="total">   39.16   39.18</time>
   <energy>
    <i name="e_fr_energy">   -145.39860475 </i>
    <i name="e_wo_entrp">   -145.38022226 </i>
    <i name="e_0_energy">   -145.38941350 </i>
   </energy>
  </scstep>
  <scstep>
   <time name="dav">   33.00   33.00</time>
   <time name="total">   39.18   39.19</time>
   <energy>
    <i name="e_fr_energy">   -145.39815356 </i>
    <i name="e_wo_entrp">   -145.37959730 </i>
    <i name="e_0_energy">   -145.38887543 </i>
   </energy>
  </scstep>
  <scstep>
   <time name="dav">   32.97   32.97</time>
   <time name="total">   39.15   39.17</time>
   <energy>
    <i name="e_fr_energy">   -145.39965538 </i>
    <i name="e_wo_entrp">   -145.38141275 </i>
    <i name="e_0_energy">   -145.39053406 </i>
   </energy>
  </scstep>
  <scstep>
   <time name="dav">   32.95   32.95</time>
   <time name="total">   39.13   39.14</time>
   <energy>
    <i name="e_fr_energy">   -145.39891092 </i>
    <i name="e_wo_entrp">   -145.38038315 </i>
    <i name="e_0_energy">   -145.38964703 </i>
   </energy>
  </scstep>
  <scstep>
   <time name="dav">   33.05   33.05</time>
   <time name="total">   39.57   39.59</time>
   <energy>
    <i name="e_fr_energy">   -145.39563266 </i>
    <i name="e_wo_entrp">   -145.37682378 </i>
    <i name="e_0_energy">   -145.38622822 </i>
   </energy>
  </scstep>
  <scstep>
   <time name="dav">   33.46   33.46</time>
   <time name="total">   39.97   39.99</time>
   <energy>
    <i name="e_fr_energy">   -145.39486549 </i>
    <i name="e_wo_entrp">   -145.37605272 </i>
    <i name="e_0_energy">   -145.38545911 </i>
   </energy>
  </scstep>
  <scstep>
   <time name="dav">   32.96   32.96</time>
   <time name="total">   39.10   39.15</time>
   <energy>
    <i name="e_fr_energy">   -145.39500233 </i>
    <i name="e_wo_entrp">   -145.37633404 </i>
    <i name="e_0_energy">   -145.38566819 </i>
   </energy>
  </scstep>
  <scstep>
   <time name="dav">   33.27   33.27</time>
   <time name="total">   39.44   39.45</time>
   <energy>
    <i name="e_fr_energy">   -145.39458645 </i>
    <i name="e_wo_entrp">   -145.37569473 </i>
    <i name="e_0_energy">   -145.38514059 </i>
   </energy>
  </scstep>
  <scstep>
   <time name="dav">   33.33   33.33</time>
   <time name="total">   34.38   34.40</time>
   <energy>
    <i name="alphaZ">    423.72797092 </i>
    <i name="ewald">  -4826.17089699 </i>
    <i name="hartreedc">  -3569.50893380 </i>
    <i name="XCdc">    513.82034578 </i>
    <i name="pawpsdc">   8681.66894736 </i>
    <i name="pawaedc">  -8732.47188368 </i>
    <i name="eentropy">     -0.01879488 </i>
    <i name="bandstr">  -1580.68846890 </i>
    <i name="atom">   8944.24845171 </i>
    <i name="e_fr_energy">   -145.39326248 </i>
    <i name="e_wo_entrp">   -145.37446759 </i>
    <i name="e_0_energy">   -145.38386504 </i>
   </energy>
  </scstep>
  <structure>
   <crystal>
    <varray name="basis" >
     <v>       4.93059421      -0.00166812      -0.43176448 </v>
     <v>      -0.00217957       4.64982784      -0.05343989 </v>
     <v>      -4.14257211      -2.51490289      18.42506112 </v>
    </varray>
    <i name="volume">    413.43837327 </i>
    <varray name="rec_basis" >
     <v>       0.20689653       0.00063259       0.04660363 </v>
     <v>       0.00270072       0.21540788       0.03000901 </v>
     <v>       0.00485615       0.00063959       0.05545303 </v>
    </varray>
   </crystal>
   <varray name="positions" >
    <v>       0.35235477       0.65640362       0.83234581 </v>
    <v>       0.59712049       0.43577087       0.32572996 </v>
    <v>       0.64859556       0.34347044       0.16759718 </v>
    <v>       0.40087481       0.56406377       0.67382500 </v>
    <v>       0.76313393       0.23332659       0.97263679 </v>
    <v>       0.12167564       0.98392603       0.40259060 </v>
    <v>       0.23856942       0.76597690       0.02736906 </v>
    <v>       0.87525988       0.01680773       0.59756890 </v>
    <v>       0.72534805       0.89659658       0.25873223 </v>
    <v>       0.90585513       0.68459934       0.88159562 </v>
    <v>       0.27488863       0.10353941       0.74117777 </v>
    <v>       0.09567184       0.31546343       0.11869943 </v>
    <v>       0.14992619       0.86156920       0.19901850 </v>
    <v>       0.85072566       0.13848608       0.80111316 </v>
   </varray>
  </structure>
  <varray name="forces" >
   <v>      -0.03466293       0.00053966       0.11536836 </v>
   <v>       0.03993055       0.00263156      -0.09237336 </v>
   <v>       0.03349299       0.00326552      -0.12755703 </v>
   <v>      -0.03686823       0.00079209       0.11055069 </v>
   <v>       0.00863552       0.00130806      -0.02630374 </v>
   <v>      -0.01768080       0.00553798      -0.04879478 </v>
   <v>      -0.00805186      -0.00063722       0.03717607 </v>
   <v>       0.04005631      -0.00686541       0.06777055 </v>
   <v>       0.01280041       0.00345212       0.39463170 </v>
   <v>       0.01046216       0.00838526      -0.15376197 </v>
   <v>      -0.02399694      -0.00614239      -0.39462100 </v>
   <v>      -0.02636024      -0.01002287       0.14077218 </v>
   <v>      -0.00935336      -0.00674159      -0.42808994 </v>
   <v>       0.01159643       0.00449723       0.40523227 </v>
  </varray>
  <varray name="stress" >
   <v>       1.77627530      -0.04323002      -0.51131066 </v>
   <v>      -0.04318299      -2.21755123      -0.22679380 </v>
   <v>      -0.51281796      -0.22712726      -2.99021041 </v>
  </varray>
  <energy>
   <i name="e_fr_energy">   -145.39326248 </i>
   <i name="e_wo_entrp">   -145.37446759 </i>
   <i name="e_0_energy">   -145.38386504 </i>
  </energy>
  <time name="totalsc"> 4096.50 4098.71</time>
 </calculation>
 <calculation>
  <scstep>
   <time name="dav">   33.00   33.00</time>
   <time name="total">   39.18   39.20</time>
   <energy>
    <i name="alphaZ">    425.02583712 </i>
    <i name="ewald">  -4824.28465673 </i>
    <i name="hartreedc">  -3580.24625671 </i>
    <i name="XCdc">    514.16603084 </i>
    <i name="pawpsdc">   8682.43623805 </i>
    <i name="pawaedc">  -8733.24398673 </i>
    <i name="eentropy">     -0.01905752 </i>
    <i name="bandstr">  -1573.51105389 </i>
    <i name="atom">   8944.24845171 </i>
    <i name="e_fr_energy">   -145.42845387 </i>
    <i name="e_wo_entrp">   -145.40939635 </i>
    <i name="e_0_energy">   -145.41892511 </i>
   </energy>
  </scstep>
  <scstep>
   <time name="dav">   34.06   34.06</time>
   <time name="total">   40.22   40.23</time>
   <energy>
    <i name="e_fr_energy">   -145.47123101 </i>
    <i name="e_wo_entrp">   -145.45623221 </i>
    <i name="e_0_energy">   -145.46373161 </i>
   </energy>
  </scstep>
  <scstep>
   <time name="dav">   36.03   36.04</time>
   <time name="total">   42.20   42.22</time>
   <energy>
    <i name="e_fr_energy">   -145.45169743 </i>
    <i name="e_wo_entrp">   -145.43492880 </i>
    <i name="e_0_energy">   -145.44331312 </i>
   </energy>
  </scstep>
  <scstep>
   <time name="dav">   33.20   33.20</time>
   <time name="total">   39.37   39.38</time>
   <energy>
    <i name="e_fr_energy">   -145.45302936 </i>
    <i name="e_wo_entrp">   -145.43727108 </i>
    <i name="e_0_energy">   -145.44515022 </i>
   </energy>
  </scstep>
  <scstep>
   <time name="dav">   33.50   33.50</time>
   <time name="total">   39.68   39.70</time>
   <energy>
    <i name="e_fr_energy">   -145.44478041 </i>
    <i name="e_wo_entrp">   -145.42716307 </i>
    <i name="e_0_energy">   -145.43597174 </i>
   </energy>
  </scstep>
  <scstep>
   <time name="dav">   33.22   33.22</time>
   <time name="total">   39.37   39.40</time>
   <energy>
    <i name="e_fr_energy">   -145.45173997 </i>
    <i name="e_wo_entrp">   -145.43532038 </i>
    <i name="e_0_energy">   -145.44353017 </i>
   </energy>
  </scstep>
  <scstep>
   <time name="dav">   33.12   33.12</time>
   <time name="total">   39.27   39.29</time>
   <energy>
    <i name="e_fr_energy">   -145.44695980 </i>
    <i name="e_wo_entrp">   -145.42994504 </i>
    <i name="e_0_energy">   -145.43845242 </i>
   </energy>
  </scstep>
  <scstep>
   <time name="dav">   33.12   33.12</time>
   <time name="total">   39.29   39.30</time>
   <energy>
    <i name="e_fr_energy">   -145.44232580 </i>
    <i name="e_wo_entrp">   -145.42602974 </i>
    <i name="e_0_energy">   -145.43417777 </i>
   </energy>
  </scstep>
  <scstep>
   <time name="dav">   33.18   33.18</time>
   <time name="total">   39.35   39.38</time>
   <energy>
    <i name="e_fr_energy">   -145.44055855 </i>
    <i name="e_wo_entrp">   -145.42381060 </i>
    <i name="e_0_energy">   -145.43218457 </i>
   </energy>
  </scstep>
  <scstep>
   <time name="dav">   33.28   33.28</time>
   <time name="total">   39.46   39.46</time>
   <energy>
    <i name="e_fr_energy">   -145.43914915 </i>
    <i name="e_wo_entrp">   -145.42258738 </i>
    <i name="e_0_energy">   -145.43086826 </i>
   </energy>
  </scstep>
  <scstep>
   <time name="dav">   33.40   33.40</time>
   <time name="total">   39.57   39.58</time>
   <energy>
    <i name="e_fr_energy">   -145.44073183 </i>
    <i name="e_wo_entrp">   -145.42434916 </i>
    <i name="e_0_energy">   -145.43254049 </i>
   </energy>
  </scstep>
  <scstep>
   <time name="dav">   33.22   33.22</time>
   <time name="total">   39.39   39.40</time>
   <energy>
    <i name="e_fr_energy">   -145.44313425 </i>
    <i name="e_wo_entrp">   -145.42711591 </i>
    <i name="e_0_energy">   -145.43512508 </i>
   </energy>
  </scstep>
  <scstep>
   <time name="dav">   33.01   33.01</time>
   <time name="total">   39.18   39.20</time>
   <energy>
    <i name="e_fr_energy">   -145.44394816 </i>
    <i name="e_wo_entrp">   -145.42831547 </i>
    <i name="e_0_energy">   -145.43613182 </i>
   </energy>
  </scstep>
  <scstep>
   <time name="dav">   33.37   33.37</time>
   <time name="total">   39.53   39.55</time>
   <energy>
    <i name="e_fr_energy">   -145.44606333 </i>
    <i name="e_wo_entrp">   -145.43058349 </i>
    <i name="e_0_energy">   -145.43832341 </i>
   </energy>
  </scstep>
  <scstep>
   <time name="dav">   32.98   32.98</time>
   <time name="total">   39.13   39.14</time>
   <energy>
    <i name="e_fr_energy">   -145.44584302 </i>
    <i name="e_wo_entrp">   -145.43035654 </i>
    <i name="e_0_energy">   -145.43809978 </i>
   </energy>
  </scstep>
  <scstep>
   <time name="dav">   32.96   32.96</time>
   <time name="total">   39.13   39.15</time>
   <energy>
    <i name="e_fr_energy">   -145.44679299 </i>
    <i name="e_wo_entrp">   -145.43139200 </i>
    <i name="e_0_energy">   -145.43909250 </i>
   </energy>
  </scstep>
  <scstep>
   <time name="dav">   32.96   32.96</time>
   <time name="total">   39.13   39.14</time>
   <energy>
    <i name="e_fr_energy">   -145.44677943 </i>
    <i name="e_wo_entrp">   -145.43135599 </i>
    <i name="e_0_energy">   -145.43906771 </i>
   </energy>
  </scstep>
  <scstep>
   <time name="dav">   32.98   32.98</time>
   <time name="total">   39.62   39.63</time>
   <energy>
    <i name="e_fr_energy">   -145.44764962 </i>
    <i name="e_wo_entrp">   -145.43234938 </i>
    <i name="e_0_energy">   -145.43999950 </i>
   </energy>
  </scstep>
  <scstep>
   <time name="dav">   32.99   32.99</time>
   <time name="total">   39.17   39.18</time>
   <energy>
    <i name="e_fr_energy">   -145.44788090 </i>
    <i name="e_wo_entrp">   -145.43261276 </i>
    <i name="e_0_energy">   -145.44024683 </i>
   </energy>
  </scstep>
  <scstep>
   <time name="dav">   33.25   33.25</time>
   <time name="total">   39.43   39.44</time>
   <energy>
    <i name="e_fr_energy">   -145.44849705 </i>
    <i name="e_wo_entrp">   -145.43332508 </i>
    <i name="e_0_energy">   -145.44091107 </i>
   </energy>
  </scstep>
  <scstep>
   <time name="dav">   33.28   33.28</time>
   <time name="total">   39.81   39.83</time>
   <energy>
    <i name="e_fr_energy">   -145.44831888 </i>
    <i name="e_wo_entrp">   -145.43310201 </i>
    <i name="e_0_energy">   -145.44071044 </i>
   </energy>
  </scstep>
  <scstep>
   <time name="dav">   33.13   33.13</time>
   <time name="total">   39.28   39.29</time>
   <energy>
    <i name="e_fr_energy">   -145.44876410 </i>
    <i name="e_wo_entrp">   -145.43363620 </i>
    <i name="e_0_energy">   -145.44120015 </i>
   </energy>
  </scstep>
  <scstep>
   <time name="dav">   33.25   33.25</time>
   <time name="total">   39.40   39.44</time>
   <energy>
    <i name="e_fr_energy">   -145.44861299 </i>
    <i name="e_wo_entrp">   -145.43342878 </i>
    <i name="e_0_energy">   -145.44102089 </i>
   </energy>
  </scstep>
  <scstep>
   <time name="dav">   33.23   33.23</time>
   <time name="total">   39.40   39.41</time>
   <energy>
    <i name="e_fr_energy">   -145.44891127 </i>
    <i name="e_wo_entrp">   -145.43380169 </i>
    <i name="e_0_energy">   -145.44135648 </i>
   </energy>
  </scstep>
  <scstep>
   <time name="dav">   33.28   33.28</time>
   <time name="total">   39.45   39.47</time>
   <energy>
    <i name="e_fr_energy">   -145.44882519 </i>
    <i name="e_wo_entrp">   -145.43366243 </i>
    <i name="e_0_energy">   -145.44124381 </i>
   </energy>
  </scstep>
  <scstep>
   <time name="dav">   32.93   32.93</time>
   <time name="total">   39.09   39.11</time>
   <energy>
    <i name="e_fr_energy">   -145.44901417 </i>
    <i name="e_wo_entrp">   -145.43391898 </i>
    <i name="e_0_energy">   -145.44146657 </i>
   </energy>
  </scstep>
  <scstep>
   <time name="dav">   33.24   33.24</time>
   <time name="total">   39.40   39.41</time>
   <energy>
    <i name="e_fr_energy">   -145.44896788 </i>
    <i name="e_wo_entrp">   -145.43381806 </i>
    <i name="e_0_energy">   -145.44139297 </i>
   </energy>
  </scstep>
  <scstep>
   <time name="dav">   32.94   32.94</time>
   <time name="total">   39.11   39.12</time>
   <energy>
    <i name="e_fr_energy">   -145.44909471 </i>
    <i name="e_wo_entrp">   -145.43401116 </i>
    <i name="e_0_energy">   -145.44155294 </i>
   </energy>
  </scstep>
  <scstep>
   <time name="dav">   33.21   33.21</time>
   <time name="total">   39.37   39.39</time>
   <energy>
    <i name="e_fr_energy">   -145.44906842 </i>
    <i name="e_wo_entrp">   -145.43392745 </i>
    <i name="e_0_energy">   -145.44149794 </i>
   </energy>
  </scstep>
  <scstep>
   <time name="dav">   32.96   32.96</time>
   <time name="total">   39.10   39.13</time>
   <energy>
    <i name="e_fr_energy">   -145.44917450 </i>
    <i name="e_wo_entrp">   -145.43410061 </i>
    <i name="e_0_energy">   -145.44163755 </i>
   </energy>
  </scstep>
  <scstep>
   <time name="dav">   33.04   33.04</time>
   <time name="total">   39.18   39.20</time>
   <energy>
    <i name="e_fr_energy">   -145.44910665 </i>
    <i name="e_wo_entrp">   -145.43396996 </i>
    <i name="e_0_energy">   -145.44153831 </i>
   </energy>
  </scstep>
  <scstep>
   <time name="dav">   32.79   32.80</time>
   <time name="total">   38.89   38.91</time>
   <energy>
    <i name="e_fr_energy">   -145.44922587 </i>
    <i name="e_wo_entrp">   -145.43415852 </i>
    <i name="e_0_energy">   -145.44169220 </i>
   </energy>
  </scstep>
  <scstep>
   <time name="dav">   32.65   32.65</time>
   <time name="total">   38.72   38.74</time>
   <energy>
    <i name="e_fr_energy">   -145.44913253 </i>
    <i name="e_wo_entrp">   -145.43399892 </i>
    <i name="e_0_energy">   -145.44156572 </i>
   </energy>
  </scstep>
  <scstep>
   <time name="dav">   32.64   32.64</time>
   <time name="total">   38.71   38.71</time>
   <energy>
    <i name="e_fr_energy">   -145.44926080 </i>
    <i name="e_wo_entrp">   -145.43419773 </i>
    <i name="e_0_energy">   -145.44172926 </i>
   </energy>
  </scstep>
  <scstep>
   <time name="dav">   32.64   32.64</time>
   <time name="total">   38.71   38.73</time>
   <energy>
    <i name="e_fr_energy">   -145.44914835 </i>
    <i name="e_wo_entrp">   -145.43401705 </i>
    <i name="e_0_energy">   -145.44158270 </i>
   </energy>
  </scstep>
  <scstep>
   <time name="dav">   32.65   32.65</time>
   <time name="total">   38.72   38.73</time>
   <energy>
    <i name="e_fr_energy">   -145.44928568 </i>
    <i name="e_wo_entrp">   -145.43422517 </i>
    <i name="e_0_energy">   -145.44175542 </i>
   </energy>
  </scstep>
  <scstep>
   <time name="dav">   32.99   32.99</time>
   <time name="total">   39.05   39.06</time>
   <energy>
    <i name="e_fr_energy">   -145.44915842 </i>
    <i name="e_wo_entrp">   -145.43402898 </i>
    <i name="e_0_energy">   -145.44159370 </i>
   </energy>
  </scstep>
  <scstep>
   <time name="dav">   32.62   32.62</time>
   <time name="total">   38.69   38.70</time>
   <energy>
    <i name="e_fr_energy">   -145.44930625 </i>
    <i name="e_wo_entrp">   -145.43424745 </i>
    <i name="e_0_energy">   -145.44177685 </i>
   </energy>
  </scstep>
  <scstep>
   <time name="dav">   32.63   32.63</time>
   <time name="total">   38.72   38.74</time>
   <energy>
    <i name="e_fr_energy">   -145.44916397 </i>
    <i name="e_wo_entrp">   -145.43403578 </i>
    <i name="e_0_energy">   -145.44159988 </i>
   </energy>
  </scstep>
  <scstep>
   <time name="dav">   32.60   32.60</time>
   <time name="total">   38.75   38.78</time>
   <energy>
    <i name="e_fr_energy">   -145.44932420 </i>
    <i name="e_wo_entrp">   -145.43426666 </i>
    <i name="e_0_energy">   -145.44179543 </i>
   </energy>
  </scstep>
  <scstep>
   <time name="dav">   32.64   32.64</time>
   <time name="total">   38.68   38.71</time>
   <energy>
    <i name="e_fr_energy">   -145.44916650 </i>
    <i name="e_wo_entrp">   -145.43403907 </i>
    <i name="e_0_energy">   -145.44160279 </i>
   </energy>
  </scstep>
  <scstep>
   <time name="dav">   32.65   32.65</time>
   <time name="total">   38.72   38.73</time>
   <energy>
    <i name="e_fr_energy">   -145.44934072 </i>
    <i name="e_wo_entrp">   -145.43428413 </i>
    <i name="e_0_energy">   -145.44181242 </i>
   </energy>
  </scstep>
  <scstep>
   <time name="dav">   32.57   32.57</time>
   <time name="total">   38.68   38.71</time>
   <energy>
    <i name="e_fr_energy">   -145.44916684 </i>
    <i name="e_wo_entrp">   -145.43403978 </i>
    <i name="e_0_energy">   -145.44160331 </i>
   </energy>
  </scstep>
  <scstep>
   <time name="dav">   32.63   32.63</time>
   <time name="total">   38.76   38.78</time>
   <energy>
    <i name="e_fr_energy">   -145.44935633 </i>
    <i name="e_wo_entrp">   -145.43430047 </i>
    <i name="e_0_energy">   -145.44182840 </i>
   </energy>
  </scstep>
  <scstep>
   <time name="dav">   32.99   32.99</time>
   <time name="total">   39.05   39.08</time>
   <energy>
    <i name="e_fr_energy">   -145.44916555 </i>
    <i name="e_wo_entrp">   -145.43403858 </i>
    <i name="e_0_energy">   -145.44160207 </i>
   </energy>
  </scstep>
  <scstep>
   <time name="dav">   32.66   32.66</time>
   <time name="total">   38.67   38.68</time>
   <energy>
    <i name="e_fr_energy">   -145.44937149 </i>
    <i name="e_wo_entrp">   -145.43431624 </i>
    <i name="e_0_energy">   -145.44184386 </i>
   </energy>
  </scstep>
  <scstep>
   <time name="dav">   32.65   32.66</time>
   <time name="total">   38.74   38.75</time>
   <energy>
    <i name="e_fr_energy">   -145.44916134 </i>
    <i name="e_wo_entrp">   -145.43403403 </i>
    <i name="e_0_energy">   -145.44159769 </i>
   </energy>
  </scstep>
  <scstep>
   <time name="dav">   32.64   32.64</time>
   <time name="total">   38.72   38.73</time>
   <energy>
    <i name="e_fr_energy">   -145.44938368 </i>
    <i name="e_wo_entrp">   -145.43432857 </i>
    <i name="e_0_energy">   -145.44185613 </i>
   </energy>
  </scstep>
  <scstep>
   <time name="dav">   32.63   32.63</time>
   <time name="total">   38.71   38.72</time>
   <energy>
    <i name="e_fr_energy">   -145.44915829 </i>
    <i name="e_wo_entrp">   -145.43403071 </i>
    <i name="e_0_energy">   -145.44159450 </i>
   </energy>
  </scstep>
  <scstep>
   <time name="dav">   32.65   32.65</time>
   <time name="total">   38.71   38.73</time>
   <energy>
    <i name="e_fr_energy">   -145.44939882 </i>
    <i name="e_wo_entrp">   -145.43434427 </i>
    <i name="e_0_energy">   -145.44187155 </i>
   </energy>
  </scstep>
  <scstep>
   <time name="dav">   32.64   32.64</time>
   <time name="total">   38.71   38.74</time>
   <energy>
    <i name="e_fr_energy">   -145.44915396 </i>
    <i name="e_wo_entrp">   -145.43402596 </i>
    <i name="e_0_energy">   -145.44158996 </i>
   </energy>
  </scstep>
  <scstep>
   <time name="dav">   32.94   32.94</time>
   <time name="total">   39.05   39.05</time>
   <energy>
    <i name="e_fr_energy">   -145.44941060 </i>
    <i name="e_wo_entrp">   -145.43435618 </i>
    <i name="e_0_energy">   -145.44188339 </i>
   </energy>
  </scstep>
  <scstep>
   <time name="dav">   32.67   32.67</time>
   <time name="total">   38.74   38.76</time>
   <energy>
    <i name="e_fr_energy">   -145.44915285 </i>
    <i name="e_wo_entrp">   -145.43402462 </i>
    <i name="e_0_energy">   -145.44158873 </i>
   </energy>
  </scstep>
  <scstep>
   <time name="dav">   32.65   32.66</time>
   <time name="total">   38.73   38.74</time>
   <energy>
    <i name="e_fr_energy">   -145.44942332 </i>
    <i name="e_wo_entrp">   -145.43436917 </i>
    <i name="e_0_energy">   -145.44189624 </i>
   </energy>
  </scstep>
  <scstep>
   <time name="dav">   32.63   32.63</time>
   <time name="total">   38.72   38.74</time>
   <energy>
    <i name="e_fr_energy">   -145.44915067 </i>
    <i name="e_wo_entrp">   -145.43402208 </i>
    <i name="e_0_energy">   -145.44158637 </i>
   </energy>
  </scstep>
  <scstep>
   <time name="dav">   32.66   32.66</time>
   <time name="total">   38.81   38.83</time>
   <energy>
    <i name="e_fr_energy">   -145.44943582 </i>
    <i name="e_wo_entrp">   -145.43438197 </i>
    <i name="e_0_energy">   -145.44190889 </i>
   </energy>
  </scstep>
  <scstep>
   <time name="dav">   32.70   32.70</time>
   <time name="total">   38.75   38.78</time>
   <energy>
    <i name="e_fr_energy">   -145.44914789 </i>
    <i name="e_wo_entrp">   -145.43401872 </i>
    <i name="e_0_energy">   -145.44158331 </i>
   </energy>
  </scstep>
  <scstep>
   <time name="dav">   32.64   32.64</time>
   <time name="total">   38.71   38.72</time>
   <energy>
    <i name="e_fr_energy">   -145.44944979 </i>
    <i name="e_wo_entrp">   -145.43439585 </i>
    <i name="e_0_energy">   -145.44192282 </i>
   </energy>
  </scstep>
  <scstep>
   <time name="dav">   32.65   32.65</time>
   <time name="total">   38.71   38.73</time>
   <energy>
    <i name="e_fr_energy">   -145.44914490 </i>
    <i name="e_wo_entrp">   -145.43401485 </i>
    <i name="e_0_energy">   -145.44157988 </i>
   </energy>
  </scstep>
  <scstep>
   <time name="dav">   33.01   33.01</time>
   <time name="total">   39.08   39.09</time>
   <energy>
    <i name="e_fr_energy">   -145.44946432 </i>
    <i name="e_wo_entrp">   -145.43440983 </i>
    <i name="e_0_energy">   -145.44193707 </i>
   </energy>
  </scstep>
  <scstep>
   <time name="dav">   32.66   32.66</time>
   <time name="total">   38.72   38.73</time>
   <energy>
    <i name="e_fr_energy">   -145.44914262 </i>
    <i name="e_wo_entrp">   -145.43401154 </i>
    <i name="e_0_energy">   -145.44157708 </i>
   </energy>
  </scstep>
  <scstep>
   <time name="dav">   32.63   32.63</time>
   <time name="total">   38.69   38.71</time>
   <energy>
    <i name="e_fr_energy">   -145.44945590 </i>
    <i name="e_wo_entrp">   -145.43439737 </i>
    <i name="e_0_energy">   -145.44192664 </i>
   </energy>
  </scstep>
  <scstep>
   <time name="dav">   32.63   32.63</time>
   <time name="total">   38.70   38.72</time>
   <energy>
    <i name="e_fr_energy">   -145.44912261 </i>
    <i name="e_wo_entrp">   -145.43398803 </i>
    <i name="e_0_energy">   -145.44155532 </i>
   </energy>
  </scstep>
  <scstep>
   <time name="dav">   32.65   32.65</time>
   <time name="total">   38.72   38.73</time>
   <energy>
    <i name="e_fr_energy">   -145.44946865 </i>
    <i name="e_wo_entrp">   -145.43441089 </i>
    <i name="e_0_energy">   -145.44193977 </i>
   </energy>
  </scstep>
  <scstep>
   <time name="dav">   32.62   32.62</time>
   <time name="total">   38.69   38.71</time>
   <energy>
    <i name="e_fr_energy">   -145.44912320 </i>
    <i name="e_wo_entrp">   -145.43398946 </i>
    <i name="e_0_energy">   -145.44155633 </i>
   </energy>
  </scstep>
  <scstep>
   <time name="dav">   32.58   32.58</time>
   <time name="total">   38.68   38.69</time>
   <energy>
    <i name="e_fr_energy">   -145.44947424 </i>
    <i name="e_wo_entrp">   -145.43441617 </i>
    <i name="e_0_energy">   -145.44194520 </i>
   </energy>
  </scstep>
  <scstep>
   <time name="dav">   32.64   32.64</time>
   <time name="total">   38.77   38.79</time>
   <energy>
    <i name="e_fr_energy">   -145.44912879 </i>
    <i name="e_wo_entrp">   -145.43399555 </i>
    <i name="e_0_energy">   -145.44156217 </i>
   </energy>
  </scstep>
  <scstep>
   <time name="dav">   32.93   32.93</time>
   <time name="total">   39.55   39.56</time>
   <energy>
    <i name="e_fr_energy">   -145.44949077 </i>
    <i name="e_wo_entrp">   -145.43443372 </i>
    <i name="e_0_energy">   -145.44196224 </i>
   </energy>
  </scstep>
  <scstep>
   <time name="dav">   32.62   32.62</time>
   <time name="total">   38.69   38.72</time>
   <energy>
    <i name="e_fr_energy">   -145.44912481 </i>
    <i name="e_wo_entrp">   -145.43399114 </i>
    <i name="e_0_energy">   -145.44155798 </i>
   </energy>
  </scstep>
  <scstep>
   <time name="dav">   32.62   32.62</time>
   <time name="total">   38.70   38.71</time>
   <energy>
    <i name="e_fr_energy">   -145.44950447 </i>
    <i name="e_wo_entrp">   -145.43444865 </i>
    <i name="e_0_energy">   -145.44197656 </i>
   </energy>
  </scstep>
  <scstep>
   <time name="dav">   32.62   32.62</time>
   <time name="total">   38.69   38.70</time>
   <energy>
    <i name="e_fr_energy">   -145.44911670 </i>
    <i name="e_wo_entrp">   -145.43398208 </i>
    <i name="e_0_energy">   -145.44154939 </i>
   </energy>
  </scstep>
  <scstep>
   <time name="dav">   32.60   32.60</time>
   <time name="total">   38.68   38.69</time>
   <energy>
    <i name="e_fr_energy">   -145.44951007 </i>
    <i name="e_wo_entrp">   -145.43445466 </i>
    <i name="e_0_energy">   -145.44198237 </i>
   </energy>
  </scstep>
  <scstep>
   <time name="dav">   32.74   32.74</time>
   <time name="total">   38.82   38.82</time>
   <energy>
    <i name="e_fr_energy">   -145.44911847 </i>
    <i name="e_wo_entrp">   -145.43398295 </i>
    <i name="e_0_energy">   -145.44155071 </i>
   </energy>
  </scstep>
  <scstep>
   <time name="dav">   32.61   32.61</time>
   <time name="total">   38.69   38.70</time>
   <energy>
    <i name="e_fr_energy">   -145.44950666 </i>
    <i name="e_wo_entrp">   -145.43444981 </i>
    <i name="e_0_energy">   -145.44197824 </i>
   </energy>
  </scstep>
  <scstep>
   <time name="dav">   32.60   32.60</time>
   <time name="total">   38.82   38.85</time>
   <energy>
    <i name="e_fr_energy">   -145.44911868 </i>
    <i name="e_wo_entrp">   -145.43398206 </i>
    <i name="e_0_energy">   -145.44155037 </i>
   </energy>
  </scstep>
  <scstep>
   <time name="dav">   32.62   32.62</time>
   <time name="total">   38.68   38.69</time>
   <energy>
    <i name="e_fr_energy">   -145.44950829 </i>
    <i name="e_wo_entrp">   -145.43445070 </i>
    <i name="e_0_energy">   -145.44197949 </i>
   </energy>
  </scstep>
  <scstep>
   <time name="dav">   32.61   32.61</time>
   <time name="total">   38.72   38.73</time>
   <energy>
    <i name="e_fr_energy">   -145.44912285 </i>
    <i name="e_wo_entrp">   -145.43398605 </i>
    <i name="e_0_energy">   -145.44155445 </i>
   </energy>
  </scstep>
  <scstep>
   <time name="dav">   32.67   32.67</time>
   <time name="total">   38.80   38.85</time>
   <energy>
    <i name="e_fr_energy">   -145.44952533 </i>
    <i name="e_wo_entrp">   -145.43446853 </i>
    <i name="e_0_energy">   -145.44199693 </i>
   </energy>
  </scstep>
  <scstep>
   <time name="dav">   32.68   32.68</time>
   <time name="total">   38.71   38.73</time>
   <energy>
    <i name="e_fr_energy">   -145.44912303 </i>
    <i name="e_wo_entrp">   -145.43398608 </i>
    <i name="e_0_energy">   -145.44155455 </i>
   </energy>
  </scstep>
  <scstep>
   <time name="dav">   32.59   32.59</time>
   <time name="total">   38.66   38.67</time>
   <energy>
    <i name="e_fr_energy">   -145.44953392 </i>
    <i name="e_wo_entrp">   -145.43447748 </i>
    <i name="e_0_energy">   -145.44200570 </i>
   </energy>
  </scstep>
  <scstep>
   <time name="dav">   32.66   32.66</time>
   <time name="total">   38.72   38.74</time>
   <energy>
    <i name="e_fr_energy">   -145.44912301 </i>
    <i name="e_wo_entrp">   -145.43398599 </i>
    <i name="e_0_energy">   -145.44155450 </i>
   </energy>
  </scstep>
  <scstep>
   <time name="dav">   32.60   32.60</time>
   <time name="total">   38.68   38.69</time>
   <energy>
    <i name="e_fr_energy">   -145.44954043 </i>
    <i name="e_wo_entrp">   -145.43448407 </i>
    <i name="e_0_energy">   -145.44201225 </i>
   </energy>
  </scstep>
  <scstep>
   <time name="dav">   32.59   32.59</time>
   <time name="total">   38.67   38.69</time>
   <energy>
    <i name="e_fr_energy">   -145.44912067 </i>
    <i name="e_wo_entrp">   -145.43398323 </i>
    <i name="e_0_energy">   -145.44155195 </i>
   </energy>
  </scstep>
  <scstep>
   <time name="dav">   32.65   32.65</time>
   <time name="total">   38.72   38.73</time>
   <energy>
    <i name="e_fr_energy">   -145.44954682 </i>
    <i name="e_wo_entrp">   -145.43449059 </i>
    <i name="e_0_energy">   -145.44201871 </i>
   </energy>
  </scstep>
  <scstep>
   <time name="dav">   32.59   32.59</time>
   <time name="total">   38.66   38.68</time>
   <energy>
    <i name="e_fr_energy">   -145.44911841 </i>
    <i name="e_wo_entrp">   -145.43398077 </i>
    <i name="e_0_energy">   -145.44154959 </i>
   </energy>
  </scstep>
  <scstep>
   <time name="dav">   32.61   32.61</time>
   <time name="total">   38.68   38.69</time>
   <energy>
    <i name="e_fr_energy">   -145.44955277 </i>
    <i name="e_wo_entrp">   -145.43449661 </i>
    <i name="e_0_energy">   -145.44202469 </i>
   </energy>
  </scstep>
  <scstep>
   <time name="dav">   32.63   32.63</time>
   <time name="total">   38.70   38.71</time>
   <energy>
    <i name="e_fr_energy">   -145.44911556 </i>
    <i name="e_wo_entrp">   -145.43397782 </i>
    <i name="e_0_energy">   -145.44154669 </i>
   </energy>
  </scstep>
  <scstep>
   <time name="dav">   32.58   32.58</time>
   <time name="total">   38.69   38.70</time>
   <energy>
    <i name="e_fr_energy">   -145.44955889 </i>
    <i name="e_wo_entrp">   -145.43450270 </i>
    <i name="e_0_energy">   -145.44203080 </i>
   </energy>
  </scstep>
  <scstep>
   <time name="dav">   32.63   32.63</time>
   <time name="total">   38.80   38.83</time>
   <energy>
    <i name="e_fr_energy">   -145.44911243 </i>
    <i name="e_wo_entrp">   -145.43397449 </i>
    <i name="e_0_energy">   -145.44154346 </i>
   </energy>
  </scstep>
  <scstep>
   <time name="dav">   32.64   32.64</time>
   <time name="total">   38.69   38.70</time>
   <energy>
    <i name="e_fr_energy">   -145.44956566 </i>
    <i name="e_wo_entrp">   -145.43450965 </i>
    <i name="e_0_energy">   -145.44203765 </i>
   </energy>
  </scstep>
  <scstep>
   <time name="dav">   32.64   32.64</time>
   <time name="total">   38.80   38.82</time>
   <energy>
    <i name="e_fr_energy">   -145.44910914 </i>
    <i name="e_wo_entrp">   -145.43397103 </i>
    <i name="e_0_energy">   -145.44154009 </i>
   </energy>
  </scstep>
  <scstep>
   <time name="dav">   32.77   32.78</time>
   <time name="total">   38.84   38.86</time>
   <energy>
    <i name="e_fr_energy">   -145.44957341 </i>
    <i name="e_wo_entrp">   -145.43451756 </i>
    <i name="e_0_energy">   -145.44204548 </i>
   </energy>
  </scstep>
  <scstep>
   <time name="dav">   32.63   32.63</time>
   <time name="total">   38.70   38.72</time>
   <energy>
    <i name="e_fr_energy">   -145.44910623 </i>
    <i name="e_wo_entrp">   -145.43396819 </i>
    <i name="e_0_energy">   -145.44153721 </i>
   </energy>
  </scstep>
  <scstep>
   <time name="dav">   32.59   32.59</time>
   <time name="total">   38.65   38.66</time>
   <energy>
    <i name="e_fr_energy">   -145.44957977 </i>
    <i name="e_wo_entrp">   -145.43452398 </i>
    <i name="e_0_energy">   -145.44205187 </i>
   </energy>
  </scstep>
  <scstep>
   <time name="dav">   32.64   32.64</time>
   <time name="total">   38.71   38.72</time>
   <energy>
    <i name="e_fr_energy">   -145.44910305 </i>
    <i name="e_wo_entrp">   -145.43396509 </i>
    <i name="e_0_energy">   -145.44153407 </i>
   </energy>
  </scstep>
  <scstep>
   <time name="dav">   32.63   32.63</time>
   <time name="total">   38.71   38.72</time>
   <energy>
    <i name="e_fr_energy">   -145.44958496 </i>
    <i name="e_wo_entrp">   -145.43452923 </i>
    <i name="e_0_energy">   -145.44205709 </i>
   </energy>
  </scstep>
  <scstep>
   <time name="dav">   32.60   32.60</time>
   <time name="total">   38.67   38.68</time>
   <energy>
    <i name="e_fr_energy">   -145.44909971 </i>
    <i name="e_wo_entrp">   -145.43396175 </i>
    <i name="e_0_energy">   -145.44153073 </i>
   </energy>
  </scstep>
  <scstep>
   <time name="dav">   32.61   32.61</time>
   <time name="total">   38.69   38.70</time>
   <energy>
    <i name="e_fr_energy">   -145.44958842 </i>
    <i name="e_wo_entrp">   -145.43453274 </i>
    <i name="e_0_energy">   -145.44206058 </i>
   </energy>
  </scstep>
  <scstep>
   <time name="dav">   32.65   32.65</time>
   <time name="total">   38.74   38.76</time>
   <energy>
    <i name="e_fr_energy">   -145.44909658 </i>
    <i name="e_wo_entrp">   -145.43395854 </i>
    <i name="e_0_energy">   -145.44152756 </i>
   </energy>
  </scstep>
  <scstep>
   <time name="dav">   32.61   32.61</time>
   <time name="total">   33.67   33.70</time>
   <energy>
    <i name="alphaZ">    425.02583712 </i>
    <i name="ewald">  -4824.28465673 </i>
    <i name="hartreedc">  -3573.83625088 </i>
    <i name="XCdc">    513.86783804 </i>
    <i name="pawpsdc">   8690.41008541 </i>
    <i name="pawaedc">  -8741.13331990 </i>
    <i name="eentropy">     -0.01505557 </i>
    <i name="bandstr">  -1579.73252055 </i>
    <i name="atom">   8944.24845171 </i>
    <i name="e_fr_energy">   -145.44959136 </i>
    <i name="e_wo_entrp">   -145.43453579 </i>
    <i name="e_0_energy">   -145.44206357 </i>
   </energy>
  </scstep>
  <structure>
   <crystal>
    <varray name="basis" >
     <v>       4.93857892      -0.00176717      -0.43285786 </v>
     <v>      -0.00233719       4.64066989      -0.05423452 </v>
     <v>      -4.15742051      -2.51350579      18.37846102 </v>
    </varray>
    <i name="volume">    412.17589076 </i>
    <varray name="rec_basis" >
     <v>       0.20659154       0.00065125       0.04682246 </v>
     <v>       0.00271842       0.21583967       0.03013396 </v>
     <v>       0.00487376       0.00065228       0.05560323 </v>
    </varray>
   </crystal>
   <varray name="positions" >
    <v>       0.35226819       0.65657173       0.83264634 </v>
    <v>       0.59731145       0.43566969       0.32549228 </v>
    <v>       0.64864318       0.34332407       0.16726389 </v>
    <v>       0.40075539       0.56422724       0.67411213 </v>
    <v>       0.76316103       0.23330323       0.97256849 </v>
    <v>       0.12138962       0.98391063       0.40245609 </v>
    <v>       0.23857261       0.76602305       0.02746660 </v>
    <v>       0.87581185       0.01683972       0.59775937 </v>
    <v>       0.72636316       0.89720543       0.25979105 </v>
    <v>       0.90561411       0.68446524       0.88118699 </v>
    <v>       0.27376171       0.10290115       0.74011627 </v>
    <v>       0.09572492       0.31555964       0.11906954 </v>
    <v>       0.14887016       0.86087817       0.19787088 </v>
    <v>       0.85175262       0.13912099       0.80220009 </v>
   </varray>
  </structure>
  <varray name="forces" >
   <v>      -0.02763408       0.00044262       0.07601821 </v>
   <v>       0.02860200       0.00581461      -0.08259430 </v>
   <v>       0.02885066      -0.00002785      -0.07249937 </v>
   <v>      -0.02677686      -0.00422887       0.08849843 </v>
   <v>       0.00167073       0.00133707       0.00270856 </v>
   <v>      -0.01987076       0.00836989      -0.05389899 </v>
   <v>      -0.00487387       0.00096093       0.00334265 </v>
   <v>       0.02355330      -0.00373595       0.05077064 </v>
   <v>       0.02712629      -0.00447300       0.27727858 </v>
   <v>       0.00665138       0.00823149      -0.12163205 </v>
   <v>      -0.02687456      -0.00001671      -0.27687732 </v>
   <v>      -0.01169957      -0.01138911       0.11484127 </v>
   <v>      -0.01659173      -0.00324928      -0.27826327 </v>
   <v>       0.01786708       0.00196417       0.27230695 </v>
  </varray>
  <varray name="stress" >
   <v>       2.41450990      -0.03928479      -0.79809419 </v>
   <v>      -0.03924141      -1.57861404      -0.06442332 </v>
   <v>      -0.80500249      -0.06617838      -2.31848034 </v>
  </varray>
  <energy>
   <i name="e_fr_energy">   -145.44959136 </i>
   <i name="e_wo_entrp">   -145.43453579 </i>
   <i name="e_0_energy">   -145.44206357 </i>
  </energy>
  <time name="totalsc"> 3990.79 3992.48</time>
 </calculation>
 <calculation>
  <scstep>
   <time name="dav">   32.62   32.62</time>
   <time name="total">   38.70   38.72</time>
   <energy>
    <i name="alphaZ">    428.22114963 </i>
    <i name="ewald">  -4819.06390514 </i>
    <i name="hartreedc">  -3600.12251566 </i>
    <i name="XCdc">    514.57022610 </i>
    <i name="pawpsdc">   8690.37120384 </i>
    <i name="pawaedc">  -8741.09453939 </i>
    <i name="eentropy">     -0.01458048 </i>
    <i name="bandstr">  -1562.59864885 </i>
    <i name="atom">   8944.24845171 </i>
    <i name="e_fr_energy">   -145.48315824 </i>
    <i name="e_wo_entrp">   -145.46857776 </i>
    <i name="e_0_energy">   -145.47586800 </i>
   </energy>
  </scstep>
  <scstep>
   <time name="dav">   34.25   34.25</time>
   <time name="total">   40.32   40.33</time>
   <energy>
    <i name="e_fr_energy">   -145.60315182 </i>
    <i name="e_wo_entrp">   -145.58991502 </i>
    <i name="e_0_energy">   -145.59653342 </i>
   </energy>
  </scstep>
  <scstep>
   <time name="dav">   35.04   35.04</time>
   <time name="total">   41.14   41.16</time>
   <energy>
    <i name="e_fr_energy">   -145.57595073 </i>
    <i name="e_wo_entrp">   -145.56648076 </i>
    <i name="e_0_energy">   -145.57121574 </i>
   </energy>
  </scstep>
  <scstep>
   <time name="dav">   34.32   34.32</time>
   <time name="total">   40.36   40.38</time>
   <energy>
    <i name="e_fr_energy">   -145.50939289 </i>
    <i name="e_wo_entrp">   -145.49540412 </i>
    <i name="e_0_energy">   -145.50239850 </i>
   </energy>
  </scstep>
  <scstep>
   <time name="dav">   33.43   33.43</time>
   <time name="total">   39.49   39.51</time>
   <energy>
    <i name="e_fr_energy">   -145.53669495 </i>
    <i name="e_wo_entrp">   -145.52658918 </i>
    <i name="e_0_energy">   -145.53164206 </i>
   </energy>
  </scstep>
  <scstep>
   <time name="dav">   32.69   32.69</time>
   <time name="total">   38.76   38.78</time>
   <energy>
    <i name="e_fr_energy">   -145.54105362 </i>
    <i name="e_wo_entrp">   -145.53177559 </i>
    <i name="e_0_energy">   -145.53641460 </i>
   </energy>
  </scstep>
  <scstep>
   <time name="dav">   32.97   32.97</time>
   <time name="total">   39.04   39.05</time>
   <energy>
    <i name="e_fr_energy">   -145.53948149 </i>
    <i name="e_wo_entrp">   -145.52941770 </i>
    <i name="e_0_energy">   -145.53444959 </i>
   </energy>
  </scstep>
  <scstep>
   <time name="dav">   33.04   33.04</time>
   <time name="total">   39.13   39.15</time>
   <energy>
    <i name="e_fr_energy">   -145.53135483 </i>
    <i name="e_wo_entrp">   -145.52093227 </i>
    <i name="e_0_energy">   -145.52614355 </i>
   </energy>
  </scstep>
  <scstep>
   <time name="dav">   33.45   33.45</time>
   <time name="total">   39.52   39.53</time>
   <energy>
    <i name="e_fr_energy">   -145.51378056 </i>
    <i name="e_wo_entrp">   -145.50213923 </i>
    <i name="e_0_energy">   -145.50795990 </i>
   </energy>
  </scstep>
  <scstep>
   <time name="dav">   32.83   32.83</time>
   <time name="total">   38.99   39.02</time>
   <energy>
    <i name="e_fr_energy">   -145.51694946 </i>
    <i name="e_wo_entrp">   -145.50632532 </i>
    <i name="e_0_energy">   -145.51163739 </i>
   </energy>
  </scstep>
  <scstep>
   <time name="dav">   32.71   32.71</time>
   <time name="total">   38.78   38.80</time>
   <energy>
    <i name="e_fr_energy">   -145.50762695 </i>
    <i name="e_wo_entrp">   -145.49551733 </i>
    <i name="e_0_energy">   -145.50157214 </i>
   </energy>
  </scstep>
  <scstep>
   <time name="dav">   33.09   33.09</time>
   <time name="total">   39.23   39.25</time>
   <energy>
    <i name="e_fr_energy">   -145.49983380 </i>
    <i name="e_wo_entrp">   -145.48695945 </i>
    <i name="e_0_energy">   -145.49339663 </i>
   </energy>
  </scstep>
  <scstep>
   <time name="dav">   32.67   32.67</time>
   <time name="total">   38.73   38.76</time>
   <energy>
    <i name="e_fr_energy">   -145.50376537 </i>
    <i name="e_wo_entrp">   -145.49076889 </i>
    <i name="e_0_energy">   -145.49726713 </i>
   </energy>
  </scstep>
  <scstep>
   <time name="dav">   32.71   32.71</time>
   <time name="total">   38.76   38.78</time>
   <energy>
    <i name="e_fr_energy">   -145.50019299 </i>
    <i name="e_wo_entrp">   -145.48580257 </i>
    <i name="e_0_energy">   -145.49299778 </i>
   </energy>
  </scstep>
  <scstep>
   <time name="dav">   32.67   32.67</time>
   <time name="total">   38.74   38.75</time>
   <energy>
    <i name="e_fr_energy">   -145.49832789 </i>
    <i name="e_wo_entrp">   -145.48443045 </i>
    <i name="e_0_energy">   -145.49137917 </i>
   </energy>
  </scstep>
  <scstep>
   <time name="dav">   32.64   32.64</time>
   <time name="total">   38.71   38.73</time>
   <energy>
    <i name="e_fr_energy">   -145.49942293 </i>
    <i name="e_wo_entrp">   -145.48540359 </i>
    <i name="e_0_energy">   -145.49241326 </i>
   </energy>
  </scstep>
  <scstep>
   <time name="dav">   32.70   32.70</time>
   <time name="total">   38.76   38.79</time>
   <energy>
    <i name="e_fr_energy">   -145.49823244 </i>
    <i name="e_wo_entrp">   -145.48421986 </i>
    <i name="e_0_energy">   -145.49122615 </i>
   </energy>
  </scstep>
  <scstep>
   <time name="dav">   32.63   32.63</time>
   <time name="total">   38.71   38.71</time>
   <energy>
    <i name="e_fr_energy">   -145.49902219 </i>
    <i name="e_wo_entrp">   -145.48487075 </i>
    <i name="e_0_energy">   -145.49194647 </i>
   </energy>
  </scstep>
  <scstep>
   <time name="dav">   32.94   32.94</time>
   <time name="total">   39.01   39.04</time>
   <energy>
    <i name="e_fr_energy">   -145.49841290 </i>
    <i name="e_wo_entrp">   -145.48432108 </i>
    <i name="e_0_energy">   -145.49136699 </i>
   </energy>
  </scstep>
  <scstep>
   <time name="dav">   32.65   32.65</time>
   <time name="total">   38.71   38.72</time>
   <energy>
    <i name="e_fr_energy">   -145.49931976 </i>
    <i name="e_wo_entrp">   -145.48531712 </i>
    <i name="e_0_energy">   -145.49231844 </i>
   </energy>
  </scstep>
  <scstep>
   <time name="dav">   32.67   32.67</time>
   <time name="total">   38.74   38.75</time>
   <energy>
    <i name="e_fr_energy">   -145.49886530 </i>
    <i name="e_wo_entrp">   -145.48477290 </i>
    <i name="e_0_energy">   -145.49181910 </i>
   </energy>
  </scstep>
  <scstep>
   <time name="dav">   32.67   32.67</time>
   <time name="total">   38.75   38.76</time>
   <energy>
    <i name="e_fr_energy">   -145.49970332 </i>
    <i name="e_wo_entrp">   -145.48566308 </i>
    <i name="e_0_energy">   -145.49268320 </i>
   </energy>
  </scstep>
  <scstep>
   <time name="dav">   32.67   32.67</time>
   <time name="total">   38.81   38.83</time>
   <energy>
    <i name="e_fr_energy">   -145.49926956 </i>
    <i name="e_wo_entrp">   -145.48519785 </i>
    <i name="e_0_energy">   -145.49223371 </i>
   </energy>
  </scstep>
  <scstep>
   <time name="dav">   32.64   32.64</time>
   <time name="total">   38.71   38.74</time>
   <energy>
    <i name="e_fr_energy">   -145.50013828 </i>
    <i name="e_wo_entrp">   -145.48611338 </i>
    <i name="e_0_energy">   -145.49312583 </i>
   </energy>
  </scstep>
  <scstep>
   <time name="dav">   32.71   32.71</time>
   <time name="total">   38.73   38.74</time>
   <energy>
    <i name="e_fr_energy">   -145.49965910 </i>
    <i name="e_wo_entrp">   -145.48559904 </i>
    <i name="e_0_energy">   -145.49262907 </i>
   </energy>
  </scstep>
  <scstep>
   <time name="dav">   32.62   32.62</time>
   <time name="total">   38.69   38.71</time>
   <energy>
    <i name="e_fr_energy">   -145.50065848 </i>
    <i name="e_wo_entrp">   -145.48665319 </i>
    <i name="e_0_energy">   -145.49365584 </i>
   </energy>
  </scstep>
  <scstep>
   <time name="dav">   33.02   33.02</time>
   <time name="total">   39.18   39.22</time>
   <energy>
    <i name="e_fr_energy">   -145.50013569 </i>
    <i name="e_wo_entrp">   -145.48608701 </i>
    <i name="e_0_energy">   -145.49311135 </i>
   </energy>
  </scstep>
  <scstep>
   <time name="dav">   32.84   32.84</time>
   <time name="total">   38.91   38.93</time>
   <energy>
    <i name="e_fr_energy">   -145.50130785 </i>
    <i name="e_wo_entrp">   -145.48732122 </i>
    <i name="e_0_energy">   -145.49431454 </i>
   </energy>
  </scstep>
  <scstep>
   <time name="dav">   32.66   32.66</time>
   <time name="total">   38.73   38.75</time>
   <energy>
    <i name="e_fr_energy">   -145.50077299 </i>
    <i name="e_wo_entrp">   -145.48673277 </i>
    <i name="e_0_energy">   -145.49375288 </i>
   </energy>
  </scstep>
  <scstep>
   <time name="dav">   32.62   32.62</time>
   <time name="total">   38.69   38.70</time>
   <energy>
    <i name="e_fr_energy">   -145.50182600 </i>
    <i name="e_wo_entrp">   -145.48782907 </i>
    <i name="e_0_energy">   -145.49482754 </i>
   </energy>
  </scstep>
  <scstep>
   <time name="dav">   32.66   32.66</time>
   <time name="total">   38.73   38.74</time>
   <energy>
    <i name="e_fr_energy">   -145.50113962 </i>
    <i name="e_wo_entrp">   -145.48710956 </i>
    <i name="e_0_energy">   -145.49412459 </i>
   </energy>
  </scstep>
  <scstep>
   <time name="dav">   32.64   32.64</time>
   <time name="total">   38.71   38.72</time>
   <energy>
    <i name="e_fr_energy">   -145.50204933 </i>
    <i name="e_wo_entrp">   -145.48805120 </i>
    <i name="e_0_energy">   -145.49505026 </i>
   </energy>
  </scstep>
  <scstep>
   <time name="dav">   32.60   32.60</time>
   <time name="total">   38.69   38.70</time>
   <energy>
    <i name="e_fr_energy">   -145.50130561 </i>
    <i name="e_wo_entrp">   -145.48727436 </i>
    <i name="e_0_energy">   -145.49428998 </i>
   </energy>
  </scstep>
  <scstep>
   <time name="dav">   32.64   32.64</time>
   <time name="total">   38.70   38.73</time>
   <energy>
    <i name="e_fr_energy">   -145.50219324 </i>
    <i name="e_wo_entrp">   -145.48819450 </i>
    <i name="e_0_energy">   -145.49519387 </i>
   </energy>
  </scstep>
  <scstep>
   <time name="dav">   33.01   33.01</time>
   <time name="total">   39.14   39.16</time>
   <energy>
    <i name="e_fr_energy">   -145.50132807 </i>
    <i name="e_wo_entrp">   -145.48729736 </i>
    <i name="e_0_energy">   -145.49431272 </i>
   </energy>
  </scstep>
  <scstep>
   <time name="dav">   32.65   32.65</time>
   <time name="total">   38.79   38.81</time>
   <energy>
    <i name="e_fr_energy">   -145.50221561 </i>
    <i name="e_wo_entrp">   -145.48821671 </i>
    <i name="e_0_energy">   -145.49521616 </i>
   </energy>
  </scstep>
  <scstep>
   <time name="dav">   32.60   32.60</time>
   <time name="total">   38.67   38.71</time>
   <energy>
    <i name="e_fr_energy">   -145.50131835 </i>
    <i name="e_wo_entrp">   -145.48728773 </i>
    <i name="e_0_energy">   -145.49430304 </i>
   </energy>
  </scstep>
  <scstep>
   <time name="dav">   32.62   32.62</time>
   <time name="total">   38.73   38.76</time>
   <energy>
    <i name="e_fr_energy">   -145.50223802 </i>
    <i name="e_wo_entrp">   -145.48823874 </i>
    <i name="e_0_energy">   -145.49523838 </i>
   </energy>
  </scstep>
  <scstep>
   <time name="dav">   32.91   32.91</time>
   <time name="total">   39.02   39.05</time>
   <energy>
    <i name="e_fr_energy">   -145.50131981 </i>
    <i name="e_wo_entrp">   -145.48728931 </i>
    <i name="e_0_energy">   -145.49430456 </i>
   </energy>
  </scstep>
  <scstep>
   <time name="dav">   32.96   32.96</time>
   <time name="total">   38.97   38.97</time>
   <energy>
    <i name="e_fr_energy">   -145.50226325 </i>
    <i name="e_wo_entrp">   -145.48826380 </i>
    <i name="e_0_energy">   -145.49526353 </i>
   </energy>
  </scstep>
  <scstep>
   <time name="dav">   32.61   32.61</time>
   <time name="total">   38.67   38.69</time>
   <energy>
    <i name="e_fr_energy">   -145.50132378 </i>
    <i name="e_wo_entrp">   -145.48729339 </i>
    <i name="e_0_energy">   -145.49430858 </i>
   </energy>
  </scstep>
  <scstep>
   <time name="dav">   32.62   32.62</time>
   <time name="total">   38.96   38.96</time>
   <energy>
    <i name="e_fr_energy">   -145.50228253 </i>
    <i name="e_wo_entrp">   -145.48828290 </i>
    <i name="e_0_energy">   -145.49528271 </i>
   </energy>
  </scstep>
  <scstep>
   <time name="dav">   32.87   32.87</time>
   <time name="total">   39.12   39.15</time>
   <energy>
    <i name="e_fr_energy">   -145.50132551 </i>
    <i name="e_wo_entrp">   -145.48729517 </i>
    <i name="e_0_energy">   -145.49431034 </i>
   </energy>
  </scstep>
  <scstep>
   <time name="dav">   32.58   32.58</time>
   <time name="total">   38.64   38.66</time>
   <energy>
    <i name="e_fr_energy">   -145.50229689 </i>
    <i name="e_wo_entrp">   -145.48829704 </i>
    <i name="e_0_energy">   -145.49529697 </i>
   </energy>
  </scstep>
  <scstep>
   <time name="dav">   32.62   32.62</time>
   <time name="total">   38.69   38.71</time>
   <energy>
    <i name="e_fr_energy">   -145.50132587 </i>
    <i name="e_wo_entrp">   -145.48729553 </i>
    <i name="e_0_energy">   -145.49431070 </i>
   </energy>
  </scstep>
  <scstep>
   <time name="dav">   32.62   32.62</time>
   <time name="total">   38.69   38.70</time>
   <energy>
    <i name="e_fr_energy">   -145.50230807 </i>
    <i name="e_wo_entrp">   -145.48830800 </i>
    <i name="e_0_energy">   -145.49530803 </i>
   </energy>
  </scstep>
  <scstep>
   <time name="dav">   32.60   32.60</time>
   <time name="total">   38.67   38.68</time>
   <energy>
    <i name="e_fr_energy">   -145.50136459 </i>
    <i name="e_wo_entrp">   -145.48733394 </i>
    <i name="e_0_energy">   -145.49434926 </i>
   </energy>
  </scstep>
  <scstep>
   <time name="dav">   32.65   32.65</time>
   <time name="total">   38.73   38.74</time>
   <energy>
    <i name="e_fr_energy">   -145.50233586 </i>
    <i name="e_wo_entrp">   -145.48833655 </i>
    <i name="e_0_energy">   -145.49533620 </i>
   </energy>
  </scstep>
  <scstep>
   <time name="dav">   32.62   32.62</time>
   <time name="total">   38.72   38.74</time>
   <energy>
    <i name="e_fr_energy">   -145.50132019 </i>
    <i name="e_wo_entrp">   -145.48728992 </i>
    <i name="e_0_energy">   -145.49430506 </i>
   </energy>
  </scstep>
  <scstep>
   <time name="dav">   32.90   32.90</time>
   <time name="total">   39.00   39.03</time>
   <energy>
    <i name="e_fr_energy">   -145.50232825 </i>
    <i name="e_wo_entrp">   -145.48832809 </i>
    <i name="e_0_energy">   -145.49532817 </i>
   </energy>
  </scstep>
  <scstep>
   <time name="dav">   32.98   32.98</time>
   <time name="total">   38.99   39.01</time>
   <energy>
    <i name="e_fr_energy">   -145.50131134 </i>
    <i name="e_wo_entrp">   -145.48728038 </i>
    <i name="e_0_energy">   -145.49429586 </i>
   </energy>
  </scstep>
  <scstep>
   <time name="dav">   32.62   32.62</time>
   <time name="total">   38.69   38.70</time>
   <energy>
    <i name="e_fr_energy">   -145.50233258 </i>
    <i name="e_wo_entrp">   -145.48832369 </i>
    <i name="e_0_energy">   -145.49532814 </i>
   </energy>
  </scstep>
  <scstep>
   <time name="dav">   32.61   32.61</time>
   <time name="total">   38.68   38.70</time>
   <energy>
    <i name="e_fr_energy">   -145.50131824 </i>
    <i name="e_wo_entrp">   -145.48727817 </i>
    <i name="e_0_energy">   -145.49429821 </i>
   </energy>
  </scstep>
  <scstep>
   <time name="dav">   32.64   32.64</time>
   <time name="total">   38.70   38.71</time>
   <energy>
    <i name="e_fr_energy">   -145.50237484 </i>
    <i name="e_wo_entrp">   -145.48836505 </i>
    <i name="e_0_energy">   -145.49536994 </i>
   </energy>
  </scstep>
  <scstep>
   <time name="dav">   32.88   32.89</time>
   <time name="total">   38.96   38.99</time>
   <energy>
    <i name="e_fr_energy">   -145.50129367 </i>
    <i name="e_wo_entrp">   -145.48725380 </i>
    <i name="e_0_energy">   -145.49427373 </i>
   </energy>
  </scstep>
  <scstep>
   <time name="dav">   33.13   33.13</time>
   <time name="total">   39.20   39.21</time>
   <energy>
    <i name="e_fr_energy">   -145.50237818 </i>
    <i name="e_wo_entrp">   -145.48836786 </i>
    <i name="e_0_energy">   -145.49537302 </i>
   </energy>
  </scstep>
  <scstep>
   <time name="dav">   33.14   33.14</time>
   <time name="total">   39.20   39.22</time>
   <energy>
    <i name="e_fr_energy">   -145.50130563 </i>
    <i name="e_wo_entrp">   -145.48726721 </i>
    <i name="e_0_energy">   -145.49428642 </i>
   </energy>
  </scstep>
  <scstep>
   <time name="dav">   33.17   33.17</time>
   <time name="total">   39.25   39.26</time>
   <energy>
    <i name="e_fr_energy">   -145.50239449 </i>
    <i name="e_wo_entrp">   -145.48838560 </i>
    <i name="e_0_energy">   -145.49539005 </i>
   </energy>
  </scstep>
  <scstep>
   <time name="dav">   32.88   32.88</time>
   <time name="total">   38.97   39.00</time>
   <energy>
    <i name="e_fr_energy">   -145.50127920 </i>
    <i name="e_wo_entrp">   -145.48724075 </i>
    <i name="e_0_energy">   -145.49425998 </i>
   </energy>
  </scstep>
  <scstep>
   <time name="dav">   33.30   33.30</time>
   <time name="total">   39.41   39.44</time>
   <energy>
    <i name="e_fr_energy">   -145.50239888 </i>
    <i name="e_wo_entrp">   -145.48838960 </i>
    <i name="e_0_energy">   -145.49539424 </i>
   </energy>
  </scstep>
  <scstep>
   <time name="dav">   32.67   32.67</time>
   <time name="total">   38.69   38.71</time>
   <energy>
    <i name="e_fr_energy">   -145.50126261 </i>
    <i name="e_wo_entrp">   -145.48722389 </i>
    <i name="e_0_energy">   -145.49424325 </i>
   </energy>
  </scstep>
  <scstep>
   <time name="dav">   33.42   33.42</time>
   <time name="total">   39.48   39.49</time>
   <energy>
    <i name="e_fr_energy">   -145.50238743 </i>
    <i name="e_wo_entrp">   -145.48837873 </i>
    <i name="e_0_energy">   -145.49538308 </i>
   </energy>
  </scstep>
  <scstep>
   <time name="dav">   32.62   32.62</time>
   <time name="total">   38.69   38.71</time>
   <energy>
    <i name="e_fr_energy">   -145.50124058 </i>
    <i name="e_wo_entrp">   -145.48720121 </i>
    <i name="e_0_energy">   -145.49422090 </i>
   </energy>
  </scstep>
  <scstep>
   <time name="dav">   32.60   32.60</time>
   <time name="total">   38.66   38.68</time>
   <energy>
    <i name="e_fr_energy">   -145.50237603 </i>
    <i name="e_wo_entrp">   -145.48836665 </i>
    <i name="e_0_energy">   -145.49537134 </i>
   </energy>
  </scstep>
  <scstep>
   <time name="dav">   32.73   32.73</time>
   <time name="total">   38.80   38.82</time>
   <energy>
    <i name="e_fr_energy">   -145.50122755 </i>
    <i name="e_wo_entrp">   -145.48718815 </i>
    <i name="e_0_energy">   -145.49420785 </i>
   </energy>
  </scstep>
  <scstep>
   <time name="dav">   32.63   32.63</time>
   <time name="total">   38.70   38.71</time>
   <energy>
    <i name="e_fr_energy">   -145.50235758 </i>
    <i name="e_wo_entrp">   -145.48834812 </i>
    <i name="e_0_energy">   -145.49535285 </i>
   </energy>
  </scstep>
  <scstep>
   <time name="dav">   32.61   32.61</time>
   <time name="total">   38.68   38.70</time>
   <energy>
    <i name="e_fr_energy">   -145.50129359 </i>
    <i name="e_wo_entrp">   -145.48725681 </i>
    <i name="e_0_energy">   -145.49427520 </i>
   </energy>
  </scstep>
  <scstep>
   <time name="dav">   32.65   32.65</time>
   <time name="total">   38.71   38.72</time>
   <energy>
    <i name="e_fr_energy">   -145.50247263 </i>
    <i name="e_wo_entrp">   -145.48846650 </i>
    <i name="e_0_energy">   -145.49546956 </i>
   </energy>
  </scstep>
  <scstep>
   <time name="dav">   32.64   32.64</time>
   <time name="total">   38.73   38.75</time>
   <energy>
    <i name="e_fr_energy">   -145.50143563 </i>
    <i name="e_wo_entrp">   -145.48740430 </i>
    <i name="e_0_energy">   -145.49441997 </i>
   </energy>
  </scstep>
  <scstep>
   <time name="dav">   32.61   32.61</time>
   <time name="total">   38.71   38.73</time>
   <energy>
    <i name="e_fr_energy">   -145.50247125 </i>
    <i name="e_wo_entrp">   -145.48846675 </i>
    <i name="e_0_energy">   -145.49546900 </i>
   </energy>
  </scstep>
  <scstep>
   <time name="dav">   32.65   32.65</time>
   <time name="total">   38.74   38.76</time>
   <energy>
    <i name="e_fr_energy">   -145.50146288 </i>
    <i name="e_wo_entrp">   -145.48743189 </i>
    <i name="e_0_energy">   -145.49444739 </i>
   </energy>
  </scstep>
  <scstep>
   <time name="dav">   32.66   32.66</time>
   <time name="total">   38.69   38.69</time>
   <energy>
    <i name="e_fr_energy">   -145.50251580 </i>
    <i name="e_wo_entrp">   -145.48851084 </i>
    <i name="e_0_energy">   -145.49551332 </i>
   </energy>
  </scstep>
  <scstep>
   <time name="dav">   32.70   32.70</time>
   <time name="total">   39.11   39.13</time>
   <energy>
    <i name="e_fr_energy">   -145.50157225 </i>
    <i name="e_wo_entrp">   -145.48754349 </i>
    <i name="e_0_energy">   -145.49455787 </i>
   </energy>
  </scstep>
  <scstep>
   <time name="dav">   32.64   32.64</time>
   <time name="total">   38.70   38.71</time>
   <energy>
    <i name="e_fr_energy">   -145.50254289 </i>
    <i name="e_wo_entrp">   -145.48853836 </i>
    <i name="e_0_energy">   -145.49554063 </i>
   </energy>
  </scstep>
  <scstep>
   <time name="dav">   32.61   32.61</time>
   <time name="total">   38.68   38.69</time>
   <energy>
    <i name="e_fr_energy">   -145.50165052 </i>
    <i name="e_wo_entrp">   -145.48762109 </i>
    <i name="e_0_energy">   -145.49463581 </i>
   </energy>
  </scstep>
  <scstep>
   <time name="dav">   32.62   32.62</time>
   <time name="total">   38.70   38.71</time>
   <energy>
    <i name="e_fr_energy">   -145.50255660 </i>
    <i name="e_wo_entrp">   -145.48855176 </i>
    <i name="e_0_energy">   -145.49555418 </i>
   </energy>
  </scstep>
  <scstep>
   <time name="dav">   32.77   32.78</time>
   <time name="total">   38.94   38.95</time>
   <energy>
    <i name="e_fr_energy">   -145.50175292 </i>
    <i name="e_wo_entrp">   -145.48772278 </i>
    <i name="e_0_energy">   -145.49473785 </i>
   </energy>
  </scstep>
  <scstep>
   <time name="dav">   32.93   32.93</time>
   <time name="total">   39.10   39.12</time>
   <energy>
    <i name="e_fr_energy">   -145.50264896 </i>
    <i name="e_wo_entrp">   -145.48864200 </i>
    <i name="e_0_energy">   -145.49564548 </i>
   </energy>
  </scstep>
  <scstep>
   <time name="dav">   33.02   33.02</time>
   <time name="total">   39.08   39.09</time>
   <energy>
    <i name="e_fr_energy">   -145.50181457 </i>
    <i name="e_wo_entrp">   -145.48778418 </i>
    <i name="e_0_energy">   -145.49479938 </i>
   </energy>
  </scstep>
  <scstep>
   <time name="dav">   32.64   32.64</time>
   <time name="total">   38.91   38.91</time>
   <energy>
    <i name="e_fr_energy">   -145.50267146 </i>
    <i name="e_wo_entrp">   -145.48866347 </i>
    <i name="e_0_energy">   -145.49566747 </i>
   </energy>
  </scstep>
  <scstep>
   <time name="dav">   32.76   32.76</time>
   <time name="total">   38.89   38.90</time>
   <energy>
    <i name="e_fr_energy">   -145.50183622 </i>
    <i name="e_wo_entrp">   -145.48780561 </i>
    <i name="e_0_energy">   -145.49482092 </i>
   </energy>
  </scstep>
  <scstep>
   <time name="dav">   33.31   33.31</time>
   <time name="total">   39.44   39.46</time>
   <energy>
    <i name="e_fr_energy">   -145.50270967 </i>
    <i name="e_wo_entrp">   -145.48870134 </i>
    <i name="e_0_energy">   -145.49570551 </i>
   </energy>
  </scstep>
  <scstep>
   <time name="dav">   33.13   33.13</time>
   <time name="total">   39.42   39.45</time>
   <energy>
    <i name="e_fr_energy">   -145.50187038 </i>
    <i name="e_wo_entrp">   -145.48783967 </i>
    <i name="e_0_energy">   -145.49485502 </i>
   </energy>
  </scstep>
  <scstep>
   <time name="dav">   32.61   32.61</time>
   <time name="total">   38.68   38.70</time>
   <energy>
    <i name="e_fr_energy">   -145.50272970 </i>
    <i name="e_wo_entrp">   -145.48872076 </i>
    <i name="e_0_energy">   -145.49572523 </i>
   </energy>
  </scstep>
  <scstep>
   <time name="dav">   32.65   32.65</time>
   <time name="total">   38.72   38.73</time>
   <energy>
    <i name="e_fr_energy">   -145.50190028 </i>
    <i name="e_wo_entrp">   -145.48786918 </i>
    <i name="e_0_energy">   -145.49488473 </i>
   </energy>
  </scstep>
  <scstep>
   <time name="dav">   32.63   32.63</time>
   <time name="total">   38.71   38.73</time>
   <energy>
    <i name="e_fr_energy">   -145.50274675 </i>
    <i name="e_wo_entrp">   -145.48873756 </i>
    <i name="e_0_energy">   -145.49574216 </i>
   </energy>
  </scstep>
  <scstep>
   <time name="dav">   32.87   32.87</time>
   <time name="total">   38.94   38.96</time>
   <energy>
    <i name="e_fr_energy">   -145.50193893 </i>
    <i name="e_wo_entrp">   -145.48790827 </i>
    <i name="e_0_energy">   -145.49492360 </i>
   </energy>
  </scstep>
  <scstep>
   <time name="dav">   32.63   32.63</time>
   <time name="total">   38.69   38.70</time>
   <energy>
    <i name="e_fr_energy">   -145.50276748 </i>
    <i name="e_wo_entrp">   -145.48875844 </i>
    <i name="e_0_energy">   -145.49576296 </i>
   </energy>
  </scstep>
  <scstep>
   <time name="dav">   33.16   33.16</time>
   <time name="total">   39.24   39.26</time>
   <energy>
    <i name="e_fr_energy">   -145.50197619 </i>
    <i name="e_wo_entrp">   -145.48794619 </i>
    <i name="e_0_energy">   -145.49496119 </i>
   </energy>
  </scstep>
  <scstep>
   <time name="dav">   32.88   32.88</time>
   <time name="total">   38.95   38.96</time>
   <energy>
    <i name="e_fr_energy">   -145.50278170 </i>
    <i name="e_wo_entrp">   -145.48877273 </i>
    <i name="e_0_energy">   -145.49577722 </i>
   </energy>
  </scstep>
  <scstep>
   <time name="dav">   32.65   32.65</time>
   <time name="total">   38.99   39.03</time>
   <energy>
    <i name="e_fr_energy">   -145.50199963 </i>
    <i name="e_wo_entrp">   -145.48797006 </i>
    <i name="e_0_energy">   -145.49498485 </i>
   </energy>
  </scstep>
  <scstep>
   <time name="dav">   33.18   33.18</time>
   <time name="total">   39.26   39.30</time>
   <energy>
    <i name="e_fr_energy">   -145.50278828 </i>
    <i name="e_wo_entrp">   -145.48877968 </i>
    <i name="e_0_energy">   -145.49578398 </i>
   </energy>
  </scstep>
  <scstep>
   <time name="dav">   32.66   32.66</time>
   <time name="total">   38.69   38.71</time>
   <energy>
    <i name="e_fr_energy">   -145.50202164 </i>
    <i name="e_wo_entrp">   -145.48799235 </i>
    <i name="e_0_energy">   -145.49500700 </i>
   </energy>
  </scstep>
  <scstep>
   <time name="dav">   32.62   32.62</time>
   <time name="total">   38.70   38.72</time>
   <energy>
    <i name="e_fr_energy">   -145.50279014 </i>
    <i name="e_wo_entrp">   -145.48878193 </i>
    <i name="e_0_energy">   -145.49578604 </i>
   </energy>
  </scstep>
  <scstep>
   <time name="dav">   32.89   32.89</time>
   <time name="total">   38.98   38.99</time>
   <energy>
    <i name="e_fr_energy">   -145.50203858 </i>
    <i name="e_wo_entrp">   -145.48800942 </i>
    <i name="e_0_energy">   -145.49502400 </i>
   </energy>
  </scstep>
  <scstep>
   <time name="dav">   33.18   33.18</time>
   <time name="total">   39.66   39.68</time>
   <energy>
    <i name="e_fr_energy">   -145.50278853 </i>
    <i name="e_wo_entrp">   -145.48878048 </i>
    <i name="e_0_energy">   -145.49578450 </i>
   </energy>
  </scstep>
  <scstep>
   <time name="dav">   33.33   33.33</time>
   <time name="total">   39.39   39.40</time>
   <energy>
    <i name="e_fr_energy">   -145.50202089 </i>
    <i name="e_wo_entrp">   -145.48798937 </i>
    <i name="e_0_energy">   -145.49500513 </i>
   </energy>
  </scstep>
  <scstep>
   <time name="dav">   32.86   32.86</time>
   <time name="total">   39.36   39.39</time>
   <energy>
    <i name="e_fr_energy">   -145.50277670 </i>
    <i name="e_wo_entrp">   -145.48876777 </i>
    <i name="e_0_energy">   -145.49577223 </i>
   </energy>
  </scstep>
  <scstep>
   <time name="dav">   32.61   32.61</time>
   <time name="total">   38.68   38.70</time>
   <energy>
    <i name="e_fr_energy">   -145.50200960 </i>
    <i name="e_wo_entrp">   -145.48798066 </i>
    <i name="e_0_energy">   -145.49499513 </i>
   </energy>
  </scstep>
  <scstep>
   <time name="dav">   32.61   32.61</time>
   <time name="total">   33.67   33.68</time>
   <energy>
    <i name="alphaZ">    428.22114963 </i>
    <i name="ewald">  -4819.06390514 </i>
    <i name="hartreedc">  -3585.63838325 </i>
    <i name="XCdc">    514.02064179 </i>
    <i name="pawpsdc">   8732.35469941 </i>
    <i name="pawaedc">  -8782.95821932 </i>
    <i name="eentropy">     -0.01400478 </i>
    <i name="bandstr">  -1576.67319114 </i>
    <i name="atom">   8944.24845171 </i>
    <i name="e_fr_energy">   -145.50276110 </i>
    <i name="e_wo_entrp">   -145.48875631 </i>
    <i name="e_0_energy">   -145.49575870 </i>
   </energy>
  </scstep>
  <structure>
   <crystal>
    <varray name="basis" >
     <v>       4.95798107      -0.00200784      -0.43551470 </v>
     <v>      -0.00272020       4.61841687      -0.05616541 </v>
     <v>      -4.19350079      -2.51011095      18.26522690 </v>
    </varray>
    <i name="volume">    409.10030520 </i>
    <varray name="rec_basis" >
     <v>       0.20585526       0.00069718       0.04735798 </v>
     <v>       0.00276183       0.21689624       0.03044120 </v>
     <v>       0.00491689       0.00068358       0.05597165 </v>
    </varray>
   </crystal>
   <varray name="positions" >
    <v>       0.35206200       0.65698187       0.83337856 </v>
    <v>       0.59777166       0.43542269       0.32491320 </v>
    <v>       0.64875442       0.34296678       0.16645184 </v>
    <v>       0.40046937       0.56462605       0.67481171 </v>
    <v>       0.76322588       0.23324616       0.97240207 </v>
    <v>       0.12069403       0.98387275       0.40212836 </v>
    <v>       0.23858162       0.76613569       0.02770427 </v>
    <v>       0.87715338       0.01691817       0.59822347 </v>
    <v>       0.72883947       0.89869088       0.26237088 </v>
    <v>       0.90502415       0.68413758       0.88019137 </v>
    <v>       0.27101410       0.10134411       0.73752991 </v>
    <v>       0.09585844       0.31579491       0.11997128 </v>
    <v>       0.14629344       0.85919241       0.19507468 </v>
    <v>       0.85425804       0.14066994       0.80484841 </v>
   </varray>
  </structure>
  <varray name="forces" >
   <v>      -0.01942455      -0.00215455      -0.02184308 </v>
   <v>      -0.03231544       0.00324778      -0.03040738 </v>
   <v>       0.01225188       0.00574558       0.03142864 </v>
   <v>       0.03409772      -0.00579479       0.03286167 </v>
   <v>      -0.00736682      -0.00543930       0.07861556 </v>
   <v>       0.01172484       0.00588151      -0.01764210 </v>
   <v>       0.00086418       0.00331216      -0.08702473 </v>
   <v>      -0.01052909      -0.00686270       0.00824875 </v>
   <v>       0.04559350      -0.01052861       0.00611462 </v>
   <v>      -0.00832561       0.00761584      -0.01093095 </v>
   <v>      -0.04195126       0.01002077      -0.00545719 </v>
   <v>       0.01645046      -0.00796945       0.00782094 </v>
   <v>      -0.03304289       0.00625867       0.00784092 </v>
   <v>       0.03197308      -0.00333292       0.00037434 </v>
  </varray>
  <varray name="stress" >
   <v>       5.29276126      -0.02875708      -1.75120073 </v>
   <v>      -0.02870389       0.30556681      -0.07010748 </v>
   <v>      -1.75001662      -0.06558051       1.00154800 </v>
  </varray>
  <energy>
   <i name="e_fr_energy">   -145.50276110 </i>
   <i name="e_wo_entrp">   -145.48875631 </i>
   <i name="e_0_energy">   -145.49575870 </i>
  </energy>
  <time name="totalsc"> 3987.70 3989.53</time>
 </calculation>
 <calculation>
  <scstep>
   <time name="dav">   32.63   32.63</time>
   <time name="total">   38.69   38.71</time>
   <energy>
    <i name="alphaZ">    424.90841587 </i>
    <i name="ewald">  -4807.90227731 </i>
    <i name="hartreedc">  -3575.29133178 </i>
    <i name="XCdc">    513.07758075 </i>
    <i name="pawpsdc">   8732.34700396 </i>
    <i name="pawaedc">  -8782.95064138 </i>
    <i name="eentropy">     -0.01413520 </i>
    <i name="bandstr">  -1593.98904060 </i>
    <i name="atom">   8944.24845171 </i>
    <i name="e_fr_energy">   -145.56597399 </i>
    <i name="e_wo_entrp">   -145.55183879 </i>
    <i name="e_0_energy">   -145.55890639 </i>
   </energy>
  </scstep>
  <scstep>
   <time name="dav">   35.45   35.45</time>
   <time name="total">   41.53   41.54</time>
   <energy>
    <i name="e_fr_energy">   -145.56722454 </i>
    <i name="e_wo_entrp">   -145.55513305 </i>
    <i name="e_0_energy">   -145.56117879 </i>
   </energy>
  </scstep>
  <scstep>
   <time name="dav">   32.93   32.93</time>
   <time name="total">   38.99   39.00</time>
   <energy>
    <i name="e_fr_energy">   -145.53904073 </i>
    <i name="e_wo_entrp">   -145.52583187 </i>
    <i name="e_0_energy">   -145.53243630 </i>
   </energy>
  </scstep>
  <scstep>
   <time name="dav">   33.13   33.13</time>
   <time name="total">   39.24   39.27</time>
   <energy>
    <i name="e_fr_energy">   -145.54060801 </i>
    <i name="e_wo_entrp">   -145.52845902 </i>
    <i name="e_0_energy">   -145.53453352 </i>
   </energy>
  </scstep>
  <scstep>
   <time name="dav">   35.27   35.27</time>
   <time name="total">   41.31   41.33</time>
   <energy>
    <i name="e_fr_energy">   -145.53722097 </i>
    <i name="e_wo_entrp">   -145.52635318 </i>
    <i name="e_0_energy">   -145.53178707 </i>
   </energy>
  </scstep>
  <scstep>
   <time name="dav">   32.65   32.65</time>
   <time name="total">   38.72   38.72</time>
   <energy>
    <i name="e_fr_energy">   -145.54051660 </i>
    <i name="e_wo_entrp">   -145.53013009 </i>
    <i name="e_0_energy">   -145.53532334 </i>
   </energy>
  </scstep>
  <scstep>
   <time name="dav">   32.79   32.79</time>
   <time name="total">   38.85   38.88</time>
   <energy>
    <i name="e_fr_energy">   -145.53779315 </i>
    <i name="e_wo_entrp">   -145.52592675 </i>
    <i name="e_0_energy">   -145.53185995 </i>
   </energy>
  </scstep>
  <scstep>
   <time name="dav">   33.22   33.22</time>
   <time name="total">   39.29   39.32</time>
   <energy>
    <i name="e_fr_energy">   -145.52759026 </i>
    <i name="e_wo_entrp">   -145.51331584 </i>
    <i name="e_0_energy">   -145.52045305 </i>
   </energy>
  </scstep>
  <scstep>
   <time name="dav">   33.56   33.56</time>
   <time name="total">   39.70   39.72</time>
   <energy>
    <i name="e_fr_energy">   -145.51842193 </i>
    <i name="e_wo_entrp">   -145.50504281 </i>
    <i name="e_0_energy">   -145.51173237 </i>
   </energy>
  </scstep>
  <scstep>
   <time name="dav">   32.81   32.81</time>
   <time name="total">   38.87   38.88</time>
   <energy>
    <i name="e_fr_energy">   -145.52322271 </i>
    <i name="e_wo_entrp">   -145.50935774 </i>
    <i name="e_0_energy">   -145.51629023 </i>
   </energy>
  </scstep>
  <scstep>
   <time name="dav">   32.91   32.91</time>
   <time name="total">   38.97   38.99</time>
   <energy>
    <i name="e_fr_energy">   -145.52143585 </i>
    <i name="e_wo_entrp">   -145.50784784 </i>
    <i name="e_0_energy">   -145.51464184 </i>
   </energy>
  </scstep>
  <scstep>
   <time name="dav">   33.61   33.61</time>
   <time name="total">   39.66   39.68</time>
   <energy>
    <i name="e_fr_energy">   -145.52364656 </i>
    <i name="e_wo_entrp">   -145.50986458 </i>
    <i name="e_0_energy">   -145.51675557 </i>
   </energy>
  </scstep>
  <scstep>
   <time name="dav">   33.19   33.19</time>
   <time name="total">   39.29   39.30</time>
   <energy>
    <i name="e_fr_energy">   -145.52088295 </i>
    <i name="e_wo_entrp">   -145.50717873 </i>
    <i name="e_0_energy">   -145.51403084 </i>
   </energy>
  </scstep>
  <scstep>
   <time name="dav">   32.79   32.79</time>
   <time name="total">   39.26   39.28</time>
   <energy>
    <i name="e_fr_energy">   -145.51807770 </i>
    <i name="e_wo_entrp">   -145.50380153 </i>
    <i name="e_0_energy">   -145.51093961 </i>
   </energy>
  </scstep>
  <scstep>
   <time name="dav">   33.13   33.13</time>
   <time name="total">   39.31   39.32</time>
   <energy>
    <i name="e_fr_energy">   -145.51870995 </i>
    <i name="e_wo_entrp">   -145.50475584 </i>
    <i name="e_0_energy">   -145.51173290 </i>
   </energy>
  </scstep>
  <scstep>
   <time name="dav">   32.64   32.64</time>
   <time name="total">   38.70   38.72</time>
   <energy>
    <i name="e_fr_energy">   -145.51856286 </i>
    <i name="e_wo_entrp">   -145.50454112 </i>
    <i name="e_0_energy">   -145.51155199 </i>
   </energy>
  </scstep>
  <scstep>
   <time name="dav">   33.29   33.29</time>
   <time name="total">   39.43   39.45</time>
   <energy>
    <i name="e_fr_energy">   -145.51841851 </i>
    <i name="e_wo_entrp">   -145.50439321 </i>
    <i name="e_0_energy">   -145.51140586 </i>
   </energy>
  </scstep>
  <scstep>
   <time name="dav">   33.41   33.41</time>
   <time name="total">   39.49   39.50</time>
   <energy>
    <i name="e_fr_energy">   -145.51675846 </i>
    <i name="e_wo_entrp">   -145.50270573 </i>
    <i name="e_0_energy">   -145.50973210 </i>
   </energy>
  </scstep>
  <scstep>
   <time name="dav">   33.17   33.17</time>
   <time name="total">   39.24   39.25</time>
   <energy>
    <i name="e_fr_energy">   -145.51871190 </i>
    <i name="e_wo_entrp">   -145.50473984 </i>
    <i name="e_0_energy">   -145.51172587 </i>
   </energy>
  </scstep>
  <scstep>
   <time name="dav">   32.89   32.89</time>
   <time name="total">   38.95   38.96</time>
   <energy>
    <i name="e_fr_energy">   -145.51717239 </i>
    <i name="e_wo_entrp">   -145.50311139 </i>
    <i name="e_0_energy">   -145.51014189 </i>
   </energy>
  </scstep>
  <scstep>
   <time name="dav">   32.65   32.65</time>
   <time name="total">   38.72   38.75</time>
   <energy>
    <i name="e_fr_energy">   -145.51909866 </i>
    <i name="e_wo_entrp">   -145.50509467 </i>
    <i name="e_0_energy">   -145.51209666 </i>
   </energy>
  </scstep>
  <scstep>
   <time name="dav">   32.62   32.62</time>
   <time name="total">   38.71   38.73</time>
   <energy>
    <i name="e_fr_energy">   -145.51816614 </i>
    <i name="e_wo_entrp">   -145.50412081 </i>
    <i name="e_0_energy">   -145.51114348 </i>
   </energy>
  </scstep>
  <scstep>
   <time name="dav">   32.60   32.60</time>
   <time name="total">   38.71   38.73</time>
   <energy>
    <i name="e_fr_energy">   -145.51992294 </i>
    <i name="e_wo_entrp">   -145.50593670 </i>
    <i name="e_0_energy">   -145.51292982 </i>
   </energy>
  </scstep>
  <scstep>
   <time name="dav">   32.66   32.66</time>
   <time name="total">   38.76   38.79</time>
   <energy>
    <i name="e_fr_energy">   -145.51959807 </i>
    <i name="e_wo_entrp">   -145.50553783 </i>
    <i name="e_0_energy">   -145.51256795 </i>
   </energy>
  </scstep>
  <scstep>
   <time name="dav">   33.02   33.02</time>
   <time name="total">   39.11   39.12</time>
   <energy>
    <i name="e_fr_energy">   -145.52057842 </i>
    <i name="e_wo_entrp">   -145.50659431 </i>
    <i name="e_0_energy">   -145.51358636 </i>
   </energy>
  </scstep>
  <scstep>
   <time name="dav">   32.62   32.62</time>
   <time name="total">   38.75   38.76</time>
   <energy>
    <i name="e_fr_energy">   -145.52164720 </i>
    <i name="e_wo_entrp">   -145.50755835 </i>
    <i name="e_0_energy">   -145.51460277 </i>
   </energy>
  </scstep>
  <scstep>
   <time name="dav">   32.66   32.66</time>
   <time name="total">   38.78   38.81</time>
   <energy>
    <i name="e_fr_energy">   -145.52100764 </i>
    <i name="e_wo_entrp">   -145.50701773 </i>
    <i name="e_0_energy">   -145.51401268 </i>
   </energy>
  </scstep>
  <scstep>
   <time name="dav">   32.59   32.59</time>
   <time name="total">   38.71   38.74</time>
   <energy>
    <i name="e_fr_energy">   -145.52170502 </i>
    <i name="e_wo_entrp">   -145.50761776 </i>
    <i name="e_0_energy">   -145.51466139 </i>
   </energy>
  </scstep>
  <scstep>
   <time name="dav">   32.66   32.66</time>
   <time name="total">   38.74   38.76</time>
   <energy>
    <i name="e_fr_energy">   -145.52114244 </i>
    <i name="e_wo_entrp">   -145.50714360 </i>
    <i name="e_0_energy">   -145.51414302 </i>
   </energy>
  </scstep>
  <scstep>
   <time name="dav">   32.75   32.75</time>
   <time name="total">   38.77   38.79</time>
   <energy>
    <i name="e_fr_energy">   -145.52179969 </i>
    <i name="e_wo_entrp">   -145.50771646 </i>
    <i name="e_0_energy">   -145.51475808 </i>
   </energy>
  </scstep>
  <scstep>
   <time name="dav">   32.62   32.62</time>
   <time name="total">   38.69   38.70</time>
   <energy>
    <i name="e_fr_energy">   -145.52113345 </i>
    <i name="e_wo_entrp">   -145.50713462 </i>
    <i name="e_0_energy">   -145.51413404 </i>
   </energy>
  </scstep>
  <scstep>
   <time name="dav">   32.68   32.68</time>
   <time name="total">   39.23   39.25</time>
   <energy>
    <i name="e_fr_energy">   -145.52180619 </i>
    <i name="e_wo_entrp">   -145.50772402 </i>
    <i name="e_0_energy">   -145.51476510 </i>
   </energy>
  </scstep>
  <scstep>
   <time name="dav">   32.67   32.67</time>
   <time name="total">   38.73   38.74</time>
   <energy>
    <i name="e_fr_energy">   -145.52118072 </i>
    <i name="e_wo_entrp">   -145.50718179 </i>
    <i name="e_0_energy">   -145.51418125 </i>
   </energy>
  </scstep>
  <scstep>
   <time name="dav">   32.62   32.62</time>
   <time name="total">   38.68   38.68</time>
   <energy>
    <i name="e_fr_energy">   -145.52186058 </i>
    <i name="e_wo_entrp">   -145.50777970 </i>
    <i name="e_0_energy">   -145.51482014 </i>
   </energy>
  </scstep>
  <scstep>
   <time name="dav">   32.61   32.61</time>
   <time name="total">   38.68   38.69</time>
   <energy>
    <i name="e_fr_energy">   -145.52118525 </i>
    <i name="e_wo_entrp">   -145.50718634 </i>
    <i name="e_0_energy">   -145.51418580 </i>
   </energy>
  </scstep>
  <scstep>
   <time name="dav">   32.63   32.63</time>
   <time name="total">   38.70   38.71</time>
   <energy>
    <i name="e_fr_energy">   -145.52187745 </i>
    <i name="e_wo_entrp">   -145.50779738 </i>
    <i name="e_0_energy">   -145.51483741 </i>
   </energy>
  </scstep>
  <scstep>
   <time name="dav">   32.68   32.68</time>
   <time name="total">   38.74   38.77</time>
   <energy>
    <i name="e_fr_energy">   -145.52121835 </i>
    <i name="e_wo_entrp">   -145.50721930 </i>
    <i name="e_0_energy">   -145.51421882 </i>
   </energy>
  </scstep>
  <scstep>
   <time name="dav">   32.62   32.62</time>
   <time name="total">   38.68   38.70</time>
   <energy>
    <i name="e_fr_energy">   -145.52192240 </i>
    <i name="e_wo_entrp">   -145.50784322 </i>
    <i name="e_0_energy">   -145.51488281 </i>
   </energy>
  </scstep>
  <scstep>
   <time name="dav">   32.64   32.64</time>
   <time name="total">   38.77   38.80</time>
   <energy>
    <i name="e_fr_energy">   -145.52123085 </i>
    <i name="e_wo_entrp">   -145.50723153 </i>
    <i name="e_0_energy">   -145.51423119 </i>
   </energy>
  </scstep>
  <scstep>
   <time name="dav">   32.62   32.62</time>
   <time name="total">   38.70   38.73</time>
   <energy>
    <i name="e_fr_energy">   -145.52194763 </i>
    <i name="e_wo_entrp">   -145.50786911 </i>
    <i name="e_0_energy">   -145.51490837 </i>
   </energy>
  </scstep>
  <scstep>
   <time name="dav">   32.68   32.68</time>
   <time name="total">   38.71   38.73</time>
   <energy>
    <i name="e_fr_energy">   -145.52125858 </i>
    <i name="e_wo_entrp">   -145.50725891 </i>
    <i name="e_0_energy">   -145.51425875 </i>
   </energy>
  </scstep>
  <scstep>
   <time name="dav">   32.62   32.62</time>
   <time name="total">   38.69   38.70</time>
   <energy>
    <i name="e_fr_energy">   -145.52198355 </i>
    <i name="e_wo_entrp">   -145.50790582 </i>
    <i name="e_0_energy">   -145.51494468 </i>
   </energy>
  </scstep>
  <scstep>
   <time name="dav">   32.63   32.63</time>
   <time name="total">   38.69   38.70</time>
   <energy>
    <i name="e_fr_energy">   -145.52127665 </i>
    <i name="e_wo_entrp">   -145.50727653 </i>
    <i name="e_0_energy">   -145.51427659 </i>
   </energy>
  </scstep>
  <scstep>
   <time name="dav">   32.63   32.63</time>
   <time name="total">   38.70   38.71</time>
   <energy>
    <i name="e_fr_energy">   -145.52200830 </i>
    <i name="e_wo_entrp">   -145.50793134 </i>
    <i name="e_0_energy">   -145.51496982 </i>
   </energy>
  </scstep>
  <scstep>
   <time name="dav">   32.61   32.61</time>
   <time name="total">   38.68   38.69</time>
   <energy>
    <i name="e_fr_energy">   -145.52130815 </i>
    <i name="e_wo_entrp">   -145.50730759 </i>
    <i name="e_0_energy">   -145.51430787 </i>
   </energy>
  </scstep>
  <scstep>
   <time name="dav">   32.63   32.63</time>
   <time name="total">   38.69   38.70</time>
   <energy>
    <i name="e_fr_energy">   -145.52204541 </i>
    <i name="e_wo_entrp">   -145.50796933 </i>
    <i name="e_0_energy">   -145.51500737 </i>
   </energy>
  </scstep>
  <scstep>
   <time name="dav">   32.64   32.64</time>
   <time name="total">   38.69   38.70</time>
   <energy>
    <i name="e_fr_energy">   -145.52132993 </i>
    <i name="e_wo_entrp">   -145.50733773 </i>
    <i name="e_0_energy">   -145.51433383 </i>
   </energy>
  </scstep>
  <scstep>
   <time name="dav">   32.90   32.91</time>
   <time name="total">   38.97   38.98</time>
   <energy>
    <i name="e_fr_energy">   -145.52203704 </i>
    <i name="e_wo_entrp">   -145.50796912 </i>
    <i name="e_0_energy">   -145.51500308 </i>
   </energy>
  </scstep>
  <scstep>
   <time name="dav">   32.61   32.61</time>
   <time name="total">   38.68   38.70</time>
   <energy>
    <i name="e_fr_energy">   -145.52136786 </i>
    <i name="e_wo_entrp">   -145.50737453 </i>
    <i name="e_0_energy">   -145.51437120 </i>
   </energy>
  </scstep>
  <scstep>
   <time name="dav">   32.66   32.66</time>
   <time name="total">   38.76   38.78</time>
   <energy>
    <i name="e_fr_energy">   -145.52204137 </i>
    <i name="e_wo_entrp">   -145.50797493 </i>
    <i name="e_0_energy">   -145.51500815 </i>
   </energy>
  </scstep>
  <scstep>
   <time name="dav">   32.64   32.64</time>
   <time name="total">   38.73   38.76</time>
   <energy>
    <i name="e_fr_energy">   -145.52139039 </i>
    <i name="e_wo_entrp">   -145.50739694 </i>
    <i name="e_0_energy">   -145.51439367 </i>
   </energy>
  </scstep>
  <scstep>
   <time name="dav">   33.04   33.04</time>
   <time name="total">   39.14   39.15</time>
   <energy>
    <i name="e_fr_energy">   -145.52201445 </i>
    <i name="e_wo_entrp">   -145.50794269 </i>
    <i name="e_0_energy">   -145.51497857 </i>
   </energy>
  </scstep>
  <scstep>
   <time name="dav">   32.82   32.82</time>
   <time name="total">   38.89   38.90</time>
   <energy>
    <i name="e_fr_energy">   -145.52142079 </i>
    <i name="e_wo_entrp">   -145.50742135 </i>
    <i name="e_0_energy">   -145.51442107 </i>
   </energy>
  </scstep>
  <scstep>
   <time name="dav">   32.63   32.64</time>
   <time name="total">   38.72   38.72</time>
   <energy>
    <i name="e_fr_energy">   -145.52209888 </i>
    <i name="e_wo_entrp">   -145.50802762 </i>
    <i name="e_0_energy">   -145.51506325 </i>
   </energy>
  </scstep>
  <scstep>
   <time name="dav">   32.67   32.68</time>
   <time name="total">   38.75   38.77</time>
   <energy>
    <i name="e_fr_energy">   -145.52144632 </i>
    <i name="e_wo_entrp">   -145.50744654 </i>
    <i name="e_0_energy">   -145.51444643 </i>
   </energy>
  </scstep>
  <scstep>
   <time name="dav">   32.95   32.95</time>
   <time name="total">   39.02   39.03</time>
   <energy>
    <i name="e_fr_energy">   -145.52209373 </i>
    <i name="e_wo_entrp">   -145.50802251 </i>
    <i name="e_0_energy">   -145.51505812 </i>
   </energy>
  </scstep>
  <scstep>
   <time name="dav">   32.58   32.58</time>
   <time name="total">   38.65   38.65</time>
   <energy>
    <i name="e_fr_energy">   -145.52145243 </i>
    <i name="e_wo_entrp">   -145.50745364 </i>
    <i name="e_0_energy">   -145.51445303 </i>
   </energy>
  </scstep>
  <scstep>
   <time name="dav">   32.62   32.62</time>
   <time name="total">   38.67   38.68</time>
   <energy>
    <i name="e_fr_energy">   -145.52199050 </i>
    <i name="e_wo_entrp">   -145.50792004 </i>
    <i name="e_0_energy">   -145.51495527 </i>
   </energy>
  </scstep>
  <scstep>
   <time name="dav">   32.61   32.61</time>
   <time name="total">   38.68   38.69</time>
   <energy>
    <i name="e_fr_energy">   -145.52144672 </i>
    <i name="e_wo_entrp">   -145.50744377 </i>
    <i name="e_0_energy">   -145.51444525 </i>
   </energy>
  </scstep>
  <scstep>
   <time name="dav">   32.59   32.60</time>
   <time name="total">   38.66   38.67</time>
   <energy>
    <i name="e_fr_energy">   -145.52216966 </i>
    <i name="e_wo_entrp">   -145.50809893 </i>
    <i name="e_0_energy">   -145.51513430 </i>
   </energy>
  </scstep>
  <scstep>
   <time name="dav">   32.61   32.61</time>
   <time name="total">   38.74   38.76</time>
   <energy>
    <i name="e_fr_energy">   -145.52144249 </i>
    <i name="e_wo_entrp">   -145.50743951 </i>
    <i name="e_0_energy">   -145.51444100 </i>
   </energy>
  </scstep>
  <scstep>
   <time name="dav">   32.60   32.60</time>
   <time name="total">   38.68   38.71</time>
   <energy>
    <i name="e_fr_energy">   -145.52215089 </i>
    <i name="e_wo_entrp">   -145.50808195 </i>
    <i name="e_0_energy">   -145.51511642 </i>
   </energy>
  </scstep>
  <scstep>
   <time name="dav">   32.69   32.69</time>
   <time name="total">   38.70   38.73</time>
   <energy>
    <i name="e_fr_energy">   -145.52145827 </i>
    <i name="e_wo_entrp">   -145.50745327 </i>
    <i name="e_0_energy">   -145.51445577 </i>
   </energy>
  </scstep>
  <scstep>
   <time name="dav">   32.64   32.64</time>
   <time name="total">   38.70   38.72</time>
   <energy>
    <i name="e_fr_energy">   -145.52252416 </i>
    <i name="e_wo_entrp">   -145.50845530 </i>
    <i name="e_0_energy">   -145.51548973 </i>
   </energy>
  </scstep>
  <scstep>
   <time name="dav">   32.63   32.63</time>
   <time name="total">   38.70   38.72</time>
   <energy>
    <i name="e_fr_energy">   -145.52144598 </i>
    <i name="e_wo_entrp">   -145.50744352 </i>
    <i name="e_0_energy">   -145.51444475 </i>
   </energy>
  </scstep>
  <scstep>
   <time name="dav">   32.60   32.60</time>
   <time name="total">   38.67   38.68</time>
   <energy>
    <i name="e_fr_energy">   -145.52263368 </i>
    <i name="e_wo_entrp">   -145.50856630 </i>
    <i name="e_0_energy">   -145.51559999 </i>
   </energy>
  </scstep>
  <scstep>
   <time name="dav">   32.62   32.62</time>
   <time name="total">   38.68   38.69</time>
   <energy>
    <i name="e_fr_energy">   -145.52155602 </i>
    <i name="e_wo_entrp">   -145.50755393 </i>
    <i name="e_0_energy">   -145.51455497 </i>
   </energy>
  </scstep>
  <scstep>
   <time name="dav">   32.59   32.59</time>
   <time name="total">   38.66   38.68</time>
   <energy>
    <i name="e_fr_energy">   -145.52292567 </i>
    <i name="e_wo_entrp">   -145.50886062 </i>
    <i name="e_0_energy">   -145.51589315 </i>
   </energy>
  </scstep>
  <scstep>
   <time name="dav">   32.59   32.59</time>
   <time name="total">   38.65   38.66</time>
   <energy>
    <i name="e_fr_energy">   -145.52156846 </i>
    <i name="e_wo_entrp">   -145.50756877 </i>
    <i name="e_0_energy">   -145.51456861 </i>
   </energy>
  </scstep>
  <scstep>
   <time name="dav">   32.62   32.62</time>
   <time name="total">   38.69   38.69</time>
   <energy>
    <i name="e_fr_energy">   -145.52294982 </i>
    <i name="e_wo_entrp">   -145.50888608 </i>
    <i name="e_0_energy">   -145.51591795 </i>
   </energy>
  </scstep>
  <scstep>
   <time name="dav">   32.95   32.95</time>
   <time name="total">   39.01   39.03</time>
   <energy>
    <i name="e_fr_energy">   -145.52161183 </i>
    <i name="e_wo_entrp">   -145.50761357 </i>
    <i name="e_0_energy">   -145.51461270 </i>
   </energy>
  </scstep>
  <scstep>
   <time name="dav">   32.65   32.65</time>
   <time name="total">   38.76   38.76</time>
   <energy>
    <i name="e_fr_energy">   -145.52285927 </i>
    <i name="e_wo_entrp">   -145.50879829 </i>
    <i name="e_0_energy">   -145.51582878 </i>
   </energy>
  </scstep>
  <scstep>
   <time name="dav">   32.65   32.65</time>
   <time name="total">   38.75   38.78</time>
   <energy>
    <i name="e_fr_energy">   -145.52158016 </i>
    <i name="e_wo_entrp">   -145.50758565 </i>
    <i name="e_0_energy">   -145.51458290 </i>
   </energy>
  </scstep>
  <scstep>
   <time name="dav">   32.67   32.67</time>
   <time name="total">   38.78   38.79</time>
   <energy>
    <i name="e_fr_energy">   -145.52268736 </i>
    <i name="e_wo_entrp">   -145.50862887 </i>
    <i name="e_0_energy">   -145.51565812 </i>
   </energy>
  </scstep>
  <scstep>
   <time name="dav">   32.62   32.62</time>
   <time name="total">   38.69   38.73</time>
   <energy>
    <i name="e_fr_energy">   -145.52155041 </i>
    <i name="e_wo_entrp">   -145.50755748 </i>
    <i name="e_0_energy">   -145.51455394 </i>
   </energy>
  </scstep>
  <scstep>
   <time name="dav">   32.64   32.64</time>
   <time name="total">   38.72   38.74</time>
   <energy>
    <i name="e_fr_energy">   -145.52261964 </i>
    <i name="e_wo_entrp">   -145.50856197 </i>
    <i name="e_0_energy">   -145.51559080 </i>
   </energy>
  </scstep>
  <scstep>
   <time name="dav">   32.62   32.62</time>
   <time name="total">   38.69   38.70</time>
   <energy>
    <i name="e_fr_energy">   -145.52153132 </i>
    <i name="e_wo_entrp">   -145.50753916 </i>
    <i name="e_0_energy">   -145.51453524 </i>
   </energy>
  </scstep>
  <scstep>
   <time name="dav">   32.64   32.64</time>
   <time name="total">   38.70   38.71</time>
   <energy>
    <i name="e_fr_energy">   -145.52257888 </i>
    <i name="e_wo_entrp">   -145.50852137 </i>
    <i name="e_0_energy">   -145.51555013 </i>
   </energy>
  </scstep>
  <scstep>
   <time name="dav">   32.60   32.60</time>
   <time name="total">   38.68   38.70</time>
   <energy>
    <i name="e_fr_energy">   -145.52153373 </i>
    <i name="e_wo_entrp">   -145.50754202 </i>
    <i name="e_0_energy">   -145.51453788 </i>
   </energy>
  </scstep>
  <scstep>
   <time name="dav">   32.62   32.62</time>
   <time name="total">   38.69   38.71</time>
   <energy>
    <i name="e_fr_energy">   -145.52257595 </i>
    <i name="e_wo_entrp">   -145.50851844 </i>
    <i name="e_0_energy">   -145.51554719 </i>
   </energy>
  </scstep>
  <scstep>
   <time name="dav">   32.64   32.64</time>
   <time name="total">   38.70   38.71</time>
   <energy>
    <i name="e_fr_energy">   -145.52153684 </i>
    <i name="e_wo_entrp">   -145.50754565 </i>
    <i name="e_0_energy">   -145.51454125 </i>
   </energy>
  </scstep>
  <scstep>
   <time name="dav">   32.60   32.60</time>
   <time name="total">   38.66   38.67</time>
   <energy>
    <i name="e_fr_energy">   -145.52256333 </i>
    <i name="e_wo_entrp">   -145.50850591 </i>
    <i name="e_0_energy">   -145.51553462 </i>
   </energy>
  </scstep>
  <scstep>
   <time name="dav">   32.61   32.61</time>
   <time name="total">   38.71   38.73</time>
   <energy>
    <i name="e_fr_energy">   -145.52154968 </i>
    <i name="e_wo_entrp">   -145.50755910 </i>
    <i name="e_0_energy">   -145.51455439 </i>
   </energy>
  </scstep>
  <scstep>
   <time name="dav">   32.63   32.63</time>
   <time name="total">   38.75   38.78</time>
   <energy>
    <i name="e_fr_energy">   -145.52256379 </i>
    <i name="e_wo_entrp">   -145.50850644 </i>
    <i name="e_0_energy">   -145.51553512 </i>
   </energy>
  </scstep>
  <scstep>
   <time name="dav">   32.64   32.64</time>
   <time name="total">   38.66   38.68</time>
   <energy>
    <i name="e_fr_energy">   -145.52155973 </i>
    <i name="e_wo_entrp">   -145.50756954 </i>
    <i name="e_0_energy">   -145.51456464 </i>
   </energy>
  </scstep>
  <scstep>
   <time name="dav">   32.64   32.64</time>
   <time name="total">   38.70   38.70</time>
   <energy>
    <i name="e_fr_energy">   -145.52256132 </i>
    <i name="e_wo_entrp">   -145.50850412 </i>
    <i name="e_0_energy">   -145.51553272 </i>
   </energy>
  </scstep>
  <scstep>
   <time name="dav">   32.93   32.93</time>
   <time name="total">   39.00   39.02</time>
   <energy>
    <i name="e_fr_energy">   -145.52157444 </i>
    <i name="e_wo_entrp">   -145.50758572 </i>
    <i name="e_0_energy">   -145.51458008 </i>
   </energy>
  </scstep>
  <scstep>
   <time name="dav">   32.60   32.61</time>
   <time name="total">   38.66   38.67</time>
   <energy>
    <i name="e_fr_energy">   -145.52250910 </i>
    <i name="e_wo_entrp">   -145.50845298 </i>
    <i name="e_0_energy">   -145.51548104 </i>
   </energy>
  </scstep>
  <scstep>
   <time name="dav">   32.60   32.60</time>
   <time name="total">   38.67   38.67</time>
   <energy>
    <i name="e_fr_energy">   -145.52157899 </i>
    <i name="e_wo_entrp">   -145.50759068 </i>
    <i name="e_0_energy">   -145.51458483 </i>
   </energy>
  </scstep>
  <scstep>
   <time name="dav">   32.61   32.61</time>
   <time name="total">   38.68   38.69</time>
   <energy>
    <i name="e_fr_energy">   -145.52248133 </i>
    <i name="e_wo_entrp">   -145.50842536 </i>
    <i name="e_0_energy">   -145.51545335 </i>
   </energy>
  </scstep>
  <scstep>
   <time name="dav">   32.58   32.59</time>
   <time name="total">   38.66   38.68</time>
   <energy>
    <i name="e_fr_energy">   -145.52159016 </i>
    <i name="e_wo_entrp">   -145.50760225 </i>
    <i name="e_0_energy">   -145.51459621 </i>
   </energy>
  </scstep>
  <scstep>
   <time name="dav">   32.61   32.61</time>
   <time name="total">   38.67   38.68</time>
   <energy>
    <i name="e_fr_energy">   -145.52248588 </i>
    <i name="e_wo_entrp">   -145.50842863 </i>
    <i name="e_0_energy">   -145.51545725 </i>
   </energy>
  </scstep>
  <scstep>
   <time name="dav">   32.62   32.62</time>
   <time name="total">   38.68   38.71</time>
   <energy>
    <i name="e_fr_energy">   -145.52159845 </i>
    <i name="e_wo_entrp">   -145.50760970 </i>
    <i name="e_0_energy">   -145.51460408 </i>
   </energy>
  </scstep>
  <scstep>
   <time name="dav">   32.63   32.63</time>
   <time name="total">   38.71   38.71</time>
   <energy>
    <i name="e_fr_energy">   -145.52249503 </i>
    <i name="e_wo_entrp">   -145.50843740 </i>
    <i name="e_0_energy">   -145.51546621 </i>
   </energy>
  </scstep>
  <scstep>
   <time name="dav">   32.64   32.64</time>
   <time name="total">   38.78   38.83</time>
   <energy>
    <i name="e_fr_energy">   -145.52161070 </i>
    <i name="e_wo_entrp">   -145.50762215 </i>
    <i name="e_0_energy">   -145.51461643 </i>
   </energy>
  </scstep>
  <scstep>
   <time name="dav">   32.61   32.61</time>
   <time name="total">   38.69   38.71</time>
   <energy>
    <i name="e_fr_energy">   -145.52250534 </i>
    <i name="e_wo_entrp">   -145.50844757 </i>
    <i name="e_0_energy">   -145.51547646 </i>
   </energy>
  </scstep>
  <scstep>
   <time name="dav">   32.64   32.64</time>
   <time name="total">   38.68   38.71</time>
   <energy>
    <i name="e_fr_energy">   -145.52162345 </i>
    <i name="e_wo_entrp">   -145.50763405 </i>
    <i name="e_0_energy">   -145.51462875 </i>
   </energy>
  </scstep>
  <scstep>
   <time name="dav">   32.97   32.98</time>
   <time name="total">   39.05   39.06</time>
   <energy>
    <i name="e_fr_energy">   -145.52248870 </i>
    <i name="e_wo_entrp">   -145.50842802 </i>
    <i name="e_0_energy">   -145.51545836 </i>
   </energy>
  </scstep>
  <scstep>
   <time name="dav">   32.61   32.61</time>
   <time name="total">   38.67   38.69</time>
   <energy>
    <i name="e_fr_energy">   -145.52163081 </i>
    <i name="e_wo_entrp">   -145.50763934 </i>
    <i name="e_0_energy">   -145.51463507 </i>
   </energy>
  </scstep>
  <scstep>
   <time name="dav">   32.61   32.61</time>
   <time name="total">   33.66   33.67</time>
   <energy>
    <i name="alphaZ">    424.90841587 </i>
    <i name="ewald">  -4807.90227731 </i>
    <i name="hartreedc">  -3589.35065161 </i>
    <i name="XCdc">    513.82215042 </i>
    <i name="pawpsdc">   8685.52413231 </i>
    <i name="pawaedc">  -8736.18325909 </i>
    <i name="eentropy">     -0.01406173 </i>
    <i name="bandstr">  -1580.57540860 </i>
    <i name="atom">   8944.24845171 </i>
    <i name="e_fr_energy">   -145.52250803 </i>
    <i name="e_wo_entrp">   -145.50844630 </i>
    <i name="e_0_energy">   -145.51547717 </i>
   </energy>
  </scstep>
  <structure>
   <crystal>
    <varray name="basis" >
     <v>       4.99547271      -0.00218456      -0.44773511 </v>
     <v>      -0.00282629       4.61779211      -0.05686853 </v>
     <v>      -4.26826172      -2.51213540      18.28641904 </v>
    </varray>
    <i name="volume">    412.28979343 </i>
    <varray name="rec_basis" >
     <v>       0.20446788       0.00071409       0.04782327 </v>
     <v>       0.00282500       0.21693056       0.03046068 </v>
     <v>       0.00501509       0.00069211       0.05595105 </v>
    </varray>
   </crystal>
   <varray name="positions" >
    <v>       0.35167914       0.65694324       0.83336649 </v>
    <v>       0.59724220       0.43537246       0.32471469 </v>
    <v>       0.64905345       0.34308667       0.16649102 </v>
    <v>       0.40105294       0.56465951       0.67503416 </v>
    <v>       0.76339079       0.23332522       0.97269589 </v>
    <v>       0.12072940       0.98392365       0.40202505 </v>
    <v>       0.23830044       0.76601020       0.02738234 </v>
    <v>       0.87717596       0.01683637       0.59830483 </v>
    <v>       0.72981249       0.89871753       0.26270177 </v>
    <v>       0.90479732       0.68419331       0.88003273 </v>
    <v>       0.27006676       0.10130366       0.73720217 </v>
    <v>       0.09614355       0.31571808       0.12010971 </v>
    <v>       0.14554129       0.85910969       0.19477961 </v>
    <v>       0.85501427       0.14080042       0.80515954 </v>
   </varray>
  </structure>
  <varray name="forces" >
   <v>      -0.01227566      -0.01067227      -0.02318382 </v>
   <v>      -0.02318779      -0.00253326      -0.02651207 </v>
   <v>       0.00591424       0.00961719       0.03016719 </v>
   <v>       0.02925936      -0.00168691       0.02404105 </v>
   <v>       0.00370344      -0.00626882       0.07879195 </v>
   <v>       0.00946247       0.00451347      -0.00425184 </v>
   <v>      -0.01043774       0.00311136      -0.08215905 </v>
   <v>      -0.00970047      -0.00218489      -0.00292534 </v>
   <v>       0.03965752      -0.00584970      -0.03642100 </v>
   <v>      -0.00512575       0.00374577      -0.05753113 </v>
   <v>      -0.03714135       0.00755116       0.03909986 </v>
   <v>       0.00997561      -0.00269261       0.05284563 </v>
   <v>      -0.01697703       0.00509422      -0.00692090 </v>
   <v>       0.01687315      -0.00174471       0.01495947 </v>
  </varray>
  <varray name="stress" >
   <v>       3.24624826      -0.06363842      -1.37893634 </v>
   <v>      -0.06356937      -1.14550186      -0.30310656 </v>
   <v>      -1.37493852      -0.28659983      -0.24059168 </v>
  </varray>
  <energy>
   <i name="e_fr_energy">   -145.52250803 </i>
   <i name="e_wo_entrp">   -145.50844630 </i>
   <i name="e_0_energy">   -145.51547717 </i>
  </energy>
  <time name="totalsc"> 3980.40 3982.49</time>
 </calculation>
 <calculation>
  <scstep>
   <time name="dav">   32.60   32.60</time>
   <time name="total">   38.65   38.68</time>
   <energy>
    <i name="alphaZ">    418.47245222 </i>
    <i name="ewald">  -4785.77685820 </i>
    <i name="hartreedc">  -3569.15197978 </i>
    <i name="XCdc">    511.99536199 </i>
    <i name="pawpsdc">   8685.52383443 </i>
    <i name="pawaedc">  -8736.18303149 </i>
    <i name="eentropy">     -0.01310649 </i>
    <i name="bandstr">  -1614.85260664 </i>
    <i name="atom">   8944.24845171 </i>
    <i name="e_fr_energy">   -145.73748225 </i>
    <i name="e_wo_entrp">   -145.72437576 </i>
    <i name="e_0_energy">   -145.73092900 </i>
   </energy>
  </scstep>
  <scstep>
   <time name="dav">   36.57   36.58</time>
   <time name="total">   42.65   42.67</time>
   <energy>
    <i name="e_fr_energy">   -145.69874326 </i>
    <i name="e_wo_entrp">   -145.68658937 </i>
    <i name="e_0_energy">   -145.69266632 </i>
   </energy>
  </scstep>
  <scstep>
   <time name="dav">   33.22   33.22</time>
   <time name="total">   39.28   39.30</time>
   <energy>
    <i name="e_fr_energy">   -145.61343193 </i>
    <i name="e_wo_entrp">   -145.60315683 </i>
    <i name="e_0_energy">   -145.60829438 </i>
   </energy>
  </scstep>
  <scstep>
   <time name="dav">   36.00   36.00</time>
   <time name="total">   42.07   42.08</time>
   <energy>
    <i name="e_fr_energy">   -145.57910449 </i>
    <i name="e_wo_entrp">   -145.57006960 </i>
    <i name="e_0_energy">   -145.57458705 </i>
   </energy>
  </scstep>
  <scstep>
   <time name="dav">   34.76   34.76</time>
   <time name="total">   40.83   40.85</time>
   <energy>
    <i name="e_fr_energy">   -145.59718114 </i>
    <i name="e_wo_entrp">   -145.58884206 </i>
    <i name="e_0_energy">   -145.59301160 </i>
   </energy>
  </scstep>
  <scstep>
   <time name="dav">   32.96   32.96</time>
   <time name="total">   39.07   39.09</time>
   <energy>
    <i name="e_fr_energy">   -145.59590824 </i>
    <i name="e_wo_entrp">   -145.58780630 </i>
    <i name="e_0_energy">   -145.59185727 </i>
   </energy>
  </scstep>
  <scstep>
   <time name="dav">   33.60   33.60</time>
   <time name="total">   39.69   39.71</time>
   <energy>
    <i name="e_fr_energy">   -145.59204268 </i>
    <i name="e_wo_entrp">   -145.58393004 </i>
    <i name="e_0_energy">   -145.58798636 </i>
   </energy>
  </scstep>
  <scstep>
   <time name="dav">   32.99   32.99</time>
   <time name="total">   39.01   39.02</time>
   <energy>
    <i name="e_fr_energy">   -145.59375598 </i>
    <i name="e_wo_entrp">   -145.58572680 </i>
    <i name="e_0_energy">   -145.58974139 </i>
   </energy>
  </scstep>
  <scstep>
   <time name="dav">   32.64   32.64</time>
   <time name="total">   38.70   38.72</time>
   <energy>
    <i name="e_fr_energy">   -145.58972672 </i>
    <i name="e_wo_entrp">   -145.58160098 </i>
    <i name="e_0_energy">   -145.58566385 </i>
   </energy>
  </scstep>
  <scstep>
   <time name="dav">   32.65   32.65</time>
   <time name="total">   38.72   38.73</time>
   <energy>
    <i name="e_fr_energy">   -145.60622738 </i>
    <i name="e_wo_entrp">   -145.59802539 </i>
    <i name="e_0_energy">   -145.60212639 </i>
   </energy>
  </scstep>
  <scstep>
   <time name="dav">   34.74   34.74</time>
   <time name="total">   40.80   40.82</time>
   <energy>
    <i name="e_fr_energy">   -145.59866990 </i>
    <i name="e_wo_entrp">   -145.58857321 </i>
    <i name="e_0_energy">   -145.59362155 </i>
   </energy>
  </scstep>
  <scstep>
   <time name="dav">   33.72   33.72</time>
   <time name="total">   39.79   39.80</time>
   <energy>
    <i name="e_fr_energy">   -145.59383111 </i>
    <i name="e_wo_entrp">   -145.58342751 </i>
    <i name="e_0_energy">   -145.58862931 </i>
   </energy>
  </scstep>
  <scstep>
   <time name="dav">   33.94   33.94</time>
   <time name="total">   40.00   40.01</time>
   <energy>
    <i name="e_fr_energy">   -145.60808080 </i>
    <i name="e_wo_entrp">   -145.59657761 </i>
    <i name="e_0_energy">   -145.60232921 </i>
   </energy>
  </scstep>
  <scstep>
   <time name="dav">   33.11   33.11</time>
   <time name="total">   39.18   39.21</time>
   <energy>
    <i name="e_fr_energy">   -145.60297067 </i>
    <i name="e_wo_entrp">   -145.59154444 </i>
    <i name="e_0_energy">   -145.59725756 </i>
   </energy>
  </scstep>
  <scstep>
   <time name="dav">   32.98   32.98</time>
   <time name="total">   39.07   39.08</time>
   <energy>
    <i name="e_fr_energy">   -145.60688054 </i>
    <i name="e_wo_entrp">   -145.59508846 </i>
    <i name="e_0_energy">   -145.60098450 </i>
   </energy>
  </scstep>
  <scstep>
   <time name="dav">   33.14   33.14</time>
   <time name="total">   39.19   39.23</time>
   <energy>
    <i name="e_fr_energy">   -145.61313595 </i>
    <i name="e_wo_entrp">   -145.59931109 </i>
    <i name="e_0_energy">   -145.60622352 </i>
   </energy>
  </scstep>
  <scstep>
   <time name="dav">   34.68   34.68</time>
   <time name="total">   40.81   40.82</time>
   <energy>
    <i name="e_fr_energy">   -145.63223475 </i>
    <i name="e_wo_entrp">   -145.61641916 </i>
    <i name="e_0_energy">   -145.62432695 </i>
   </energy>
  </scstep>
  <scstep>
   <time name="dav">   33.18   33.18</time>
   <time name="total">   39.30   39.33</time>
   <energy>
    <i name="e_fr_energy">   -145.63862988 </i>
    <i name="e_wo_entrp">   -145.62162246 </i>
    <i name="e_0_energy">   -145.63012617 </i>
   </energy>
  </scstep>
  <scstep>
   <time name="dav">   33.47   33.47</time>
   <time name="total">   39.58   39.63</time>
   <energy>
    <i name="e_fr_energy">   -145.63508758 </i>
    <i name="e_wo_entrp">   -145.61854784 </i>
    <i name="e_0_energy">   -145.62681771 </i>
   </energy>
  </scstep>
  <scstep>
   <time name="dav">   33.00   33.00</time>
   <time name="total">   39.08   39.11</time>
   <energy>
    <i name="e_fr_energy">   -145.65179327 </i>
    <i name="e_wo_entrp">   -145.63537783 </i>
    <i name="e_0_energy">   -145.64358555 </i>
   </energy>
  </scstep>
  <scstep>
   <time name="dav">   34.38   34.38</time>
   <time name="total">   40.45   40.46</time>
   <energy>
    <i name="e_fr_energy">   -145.64758177 </i>
    <i name="e_wo_entrp">   -145.63266889 </i>
    <i name="e_0_energy">   -145.64012533 </i>
   </energy>
  </scstep>
  <scstep>
   <time name="dav">   34.42   34.42</time>
   <time name="total">   40.50   40.51</time>
   <energy>
    <i name="e_fr_energy">   -145.65337406 </i>
    <i name="e_wo_entrp">   -145.63832090 </i>
    <i name="e_0_energy">   -145.64584748 </i>
   </energy>
  </scstep>
  <scstep>
   <time name="dav">   33.48   33.48</time>
   <time name="total">   39.54   39.55</time>
   <energy>
    <i name="e_fr_energy">   -145.65756333 </i>
    <i name="e_wo_entrp">   -145.64243755 </i>
    <i name="e_0_energy">   -145.65000044 </i>
   </energy>
  </scstep>
  <scstep>
   <time name="dav">   33.01   33.01</time>
   <time name="total">   39.08   39.10</time>
   <energy>
    <i name="e_fr_energy">   -145.66015722 </i>
    <i name="e_wo_entrp">   -145.64450278 </i>
    <i name="e_0_energy">   -145.65233000 </i>
   </energy>
  </scstep>
  <scstep>
   <time name="dav">   32.83   32.83</time>
   <time name="total">   38.90   38.93</time>
   <energy>
    <i name="e_fr_energy">   -145.65894817 </i>
    <i name="e_wo_entrp">   -145.64365772 </i>
    <i name="e_0_energy">   -145.65130294 </i>
   </energy>
  </scstep>
  <scstep>
   <time name="dav">   32.85   32.85</time>
   <time name="total">   38.92   38.93</time>
   <energy>
    <i name="e_fr_energy">   -145.65905975 </i>
    <i name="e_wo_entrp">   -145.64414385 </i>
    <i name="e_0_energy">   -145.65160180 </i>
   </energy>
  </scstep>
  <scstep>
   <time name="dav">   32.80   32.80</time>
   <time name="total">   38.87   38.89</time>
   <energy>
    <i name="e_fr_energy">   -145.65511908 </i>
    <i name="e_wo_entrp">   -145.64048372 </i>
    <i name="e_0_energy">   -145.64780140 </i>
   </energy>
  </scstep>
  <scstep>
   <time name="dav">   33.81   33.81</time>
   <time name="total">   39.92   39.93</time>
   <energy>
    <i name="e_fr_energy">   -145.65408781 </i>
    <i name="e_wo_entrp">   -145.63927317 </i>
    <i name="e_0_energy">   -145.64668049 </i>
   </energy>
  </scstep>
  <scstep>
   <time name="dav">   33.93   33.93</time>
   <time name="total">   39.98   40.01</time>
   <energy>
    <i name="e_fr_energy">   -145.64886830 </i>
    <i name="e_wo_entrp">   -145.63388594 </i>
    <i name="e_0_energy">   -145.64137712 </i>
   </energy>
  </scstep>
  <scstep>
   <time name="dav">   33.51   33.51</time>
   <time name="total">   39.58   39.59</time>
   <energy>
    <i name="e_fr_energy">   -145.65035099 </i>
    <i name="e_wo_entrp">   -145.63530524 </i>
    <i name="e_0_energy">   -145.64282811 </i>
   </energy>
  </scstep>
  <scstep>
   <time name="dav">   32.95   32.95</time>
   <time name="total">   39.01   39.02</time>
   <energy>
    <i name="e_fr_energy">   -145.64715153 </i>
    <i name="e_wo_entrp">   -145.63207163 </i>
    <i name="e_0_energy">   -145.63961158 </i>
   </energy>
  </scstep>
  <scstep>
   <time name="dav">   33.19   33.19</time>
   <time name="total">   39.26   39.27</time>
   <energy>
    <i name="e_fr_energy">   -145.64805427 </i>
    <i name="e_wo_entrp">   -145.63372056 </i>
    <i name="e_0_energy">   -145.64088741 </i>
   </energy>
  </scstep>
  <scstep>
   <time name="dav">   33.79   33.79</time>
   <time name="total">   39.85   39.87</time>
   <energy>
    <i name="e_fr_energy">   -145.63843730 </i>
    <i name="e_wo_entrp">   -145.62489689 </i>
    <i name="e_0_energy">   -145.63166709 </i>
   </energy>
  </scstep>
  <scstep>
   <time name="dav">   33.96   33.96</time>
   <time name="total">   40.03   40.03</time>
   <energy>
    <i name="e_fr_energy">   -145.62520544 </i>
    <i name="e_wo_entrp">   -145.61163699 </i>
    <i name="e_0_energy">   -145.61842121 </i>
   </energy>
  </scstep>
  <scstep>
   <time name="dav">   33.92   33.92</time>
   <time name="total">   40.01   40.03</time>
   <energy>
    <i name="e_fr_energy">   -145.62766224 </i>
    <i name="e_wo_entrp">   -145.61457869 </i>
    <i name="e_0_energy">   -145.62112047 </i>
   </energy>
  </scstep>
  <scstep>
   <time name="dav">   33.01   33.01</time>
   <time name="total">   39.09   39.09</time>
   <energy>
    <i name="e_fr_energy">   -145.61809199 </i>
    <i name="e_wo_entrp">   -145.60530942 </i>
    <i name="e_0_energy">   -145.61170071 </i>
   </energy>
  </scstep>
  <scstep>
   <time name="dav">   33.14   33.14</time>
   <time name="total">   39.68   39.70</time>
   <energy>
    <i name="e_fr_energy">   -145.61682916 </i>
    <i name="e_wo_entrp">   -145.60402778 </i>
    <i name="e_0_energy">   -145.61042847 </i>
   </energy>
  </scstep>
  <scstep>
   <time name="dav">   33.39   33.40</time>
   <time name="total">   39.47   39.50</time>
   <energy>
    <i name="e_fr_energy">   -145.61587488 </i>
    <i name="e_wo_entrp">   -145.60279563 </i>
    <i name="e_0_energy">   -145.60933525 </i>
   </energy>
  </scstep>
  <scstep>
   <time name="dav">   32.77   32.77</time>
   <time name="total">   38.81   38.83</time>
   <energy>
    <i name="e_fr_energy">   -145.62430413 </i>
    <i name="e_wo_entrp">   -145.61098678 </i>
    <i name="e_0_energy">   -145.61764545 </i>
   </energy>
  </scstep>
  <scstep>
   <time name="dav">   33.79   33.79</time>
   <time name="total">   39.95   39.97</time>
   <energy>
    <i name="e_fr_energy">   -145.62707256 </i>
    <i name="e_wo_entrp">   -145.61251039 </i>
    <i name="e_0_energy">   -145.61979148 </i>
   </energy>
  </scstep>
  <scstep>
   <time name="dav">   34.83   34.83</time>
   <time name="total">   40.92   40.93</time>
   <energy>
    <i name="e_fr_energy">   -145.63581867 </i>
    <i name="e_wo_entrp">   -145.62120257 </i>
    <i name="e_0_energy">   -145.62851062 </i>
   </energy>
  </scstep>
  <scstep>
   <time name="dav">   33.43   33.43</time>
   <time name="total">   39.50   39.51</time>
   <energy>
    <i name="e_fr_energy">   -145.63628479 </i>
    <i name="e_wo_entrp">   -145.62122791 </i>
    <i name="e_0_energy">   -145.62875635 </i>
   </energy>
  </scstep>
  <scstep>
   <time name="dav">   33.45   33.45</time>
   <time name="total">   39.52   39.54</time>
   <energy>
    <i name="e_fr_energy">   -145.64019856 </i>
    <i name="e_wo_entrp">   -145.62511737 </i>
    <i name="e_0_energy">   -145.63265796 </i>
   </energy>
  </scstep>
  <scstep>
   <time name="dav">   32.68   32.68</time>
   <time name="total">   38.75   38.76</time>
   <energy>
    <i name="e_fr_energy">   -145.63993955 </i>
    <i name="e_wo_entrp">   -145.62482096 </i>
    <i name="e_0_energy">   -145.63238026 </i>
   </energy>
  </scstep>
  <scstep>
   <time name="dav">   32.70   32.70</time>
   <time name="total">   38.77   38.78</time>
   <energy>
    <i name="e_fr_energy">   -145.64188053 </i>
    <i name="e_wo_entrp">   -145.62699534 </i>
    <i name="e_0_energy">   -145.63443794 </i>
   </energy>
  </scstep>
  <scstep>
   <time name="dav">   32.70   32.70</time>
   <time name="total">   38.81   38.82</time>
   <energy>
    <i name="e_fr_energy">   -145.64125741 </i>
    <i name="e_wo_entrp">   -145.62627389 </i>
    <i name="e_0_energy">   -145.63376565 </i>
   </energy>
  </scstep>
  <scstep>
   <time name="dav">   33.09   33.10</time>
   <time name="total">   39.18   39.23</time>
   <energy>
    <i name="e_fr_energy">   -145.66576582 </i>
    <i name="e_wo_entrp">   -145.65533551 </i>
    <i name="e_0_energy">   -145.66055067 </i>
   </energy>
  </scstep>
  <scstep>
   <time name="dav">   32.99   32.99</time>
   <time name="total">   39.02   39.03</time>
   <energy>
    <i name="e_fr_energy">   -145.65481708 </i>
    <i name="e_wo_entrp">   -145.64011546 </i>
    <i name="e_0_energy">   -145.64746627 </i>
   </energy>
  </scstep>
  <scstep>
   <time name="dav">   32.69   32.69</time>
   <time name="total">   38.76   38.78</time>
   <energy>
    <i name="e_fr_energy">   -145.66480413 </i>
    <i name="e_wo_entrp">   -145.65212796 </i>
    <i name="e_0_energy">   -145.65846605 </i>
   </energy>
  </scstep>
  <scstep>
   <time name="dav">   32.63   32.63</time>
   <time name="total">   38.69   38.71</time>
   <energy>
    <i name="e_fr_energy">   -145.65959775 </i>
    <i name="e_wo_entrp">   -145.64488823 </i>
    <i name="e_0_energy">   -145.65224299 </i>
   </energy>
  </scstep>
  <scstep>
   <time name="dav">   33.20   33.20</time>
   <time name="total">   39.27   39.29</time>
   <energy>
    <i name="e_fr_energy">   -145.65888579 </i>
    <i name="e_wo_entrp">   -145.64452200 </i>
    <i name="e_0_energy">   -145.65170389 </i>
   </energy>
  </scstep>
  <scstep>
   <time name="dav">   32.85   32.85</time>
   <time name="total">   38.93   38.94</time>
   <energy>
    <i name="e_fr_energy">   -145.66304828 </i>
    <i name="e_wo_entrp">   -145.64829621 </i>
    <i name="e_0_energy">   -145.65567224 </i>
   </energy>
  </scstep>
  <scstep>
   <time name="dav">   32.60   32.60</time>
   <time name="total">   38.67   38.69</time>
   <energy>
    <i name="e_fr_energy">   -145.66149982 </i>
    <i name="e_wo_entrp">   -145.64642234 </i>
    <i name="e_0_energy">   -145.65396108 </i>
   </energy>
  </scstep>
  <scstep>
   <time name="dav">   32.78   32.78</time>
   <time name="total">   38.85   38.87</time>
   <energy>
    <i name="e_fr_energy">   -145.66321421 </i>
    <i name="e_wo_entrp">   -145.64823601 </i>
    <i name="e_0_energy">   -145.65572511 </i>
   </energy>
  </scstep>
  <scstep>
   <time name="dav">   32.74   32.74</time>
   <time name="total">   38.80   38.83</time>
   <energy>
    <i name="e_fr_energy">   -145.66356031 </i>
    <i name="e_wo_entrp">   -145.64848462 </i>
    <i name="e_0_energy">   -145.65602246 </i>
   </energy>
  </scstep>
  <scstep>
   <time name="dav">   32.60   32.60</time>
   <time name="total">   38.68   38.69</time>
   <energy>
    <i name="e_fr_energy">   -145.66376728 </i>
    <i name="e_wo_entrp">   -145.64872488 </i>
    <i name="e_0_energy">   -145.65624608 </i>
   </energy>
  </scstep>
  <scstep>
   <time name="dav">   32.60   32.60</time>
   <time name="total">   38.74   38.78</time>
   <energy>
    <i name="e_fr_energy">   -145.66471923 </i>
    <i name="e_wo_entrp">   -145.64954935 </i>
    <i name="e_0_energy">   -145.65713429 </i>
   </energy>
  </scstep>
  <scstep>
   <time name="dav">   32.68   32.68</time>
   <time name="total">   38.74   38.77</time>
   <energy>
    <i name="e_fr_energy">   -145.66686194 </i>
    <i name="e_wo_entrp">   -145.65180955 </i>
    <i name="e_0_energy">   -145.65933575 </i>
   </energy>
  </scstep>
  <scstep>
   <time name="dav">   32.63   32.63</time>
   <time name="total">   38.65   38.67</time>
   <energy>
    <i name="e_fr_energy">   -145.66699515 </i>
    <i name="e_wo_entrp">   -145.65190151 </i>
    <i name="e_0_energy">   -145.65944833 </i>
   </energy>
  </scstep>
  <scstep>
   <time name="dav">   32.60   32.60</time>
   <time name="total">   38.68   38.68</time>
   <energy>
    <i name="e_fr_energy">   -145.66788931 </i>
    <i name="e_wo_entrp">   -145.65273786 </i>
    <i name="e_0_energy">   -145.66031358 </i>
   </energy>
  </scstep>
  <scstep>
   <time name="dav">   32.63   32.63</time>
   <time name="total">   38.71   38.73</time>
   <energy>
    <i name="e_fr_energy">   -145.66696191 </i>
    <i name="e_wo_entrp">   -145.65182187 </i>
    <i name="e_0_energy">   -145.65939189 </i>
   </energy>
  </scstep>
  <scstep>
   <time name="dav">   32.63   32.63</time>
   <time name="total">   38.70   38.71</time>
   <energy>
    <i name="e_fr_energy">   -145.66903415 </i>
    <i name="e_wo_entrp">   -145.65361771 </i>
    <i name="e_0_energy">   -145.66132593 </i>
   </energy>
  </scstep>
  <scstep>
   <time name="dav">   32.77   32.78</time>
   <time name="total">   38.84   38.87</time>
   <energy>
    <i name="e_fr_energy">   -145.66695156 </i>
    <i name="e_wo_entrp">   -145.65161638 </i>
    <i name="e_0_energy">   -145.65928397 </i>
   </energy>
  </scstep>
  <scstep>
   <time name="dav">   32.61   32.61</time>
   <time name="total">   38.67   38.68</time>
   <energy>
    <i name="e_fr_energy">   -145.67099185 </i>
    <i name="e_wo_entrp">   -145.65575227 </i>
    <i name="e_0_energy">   -145.66337206 </i>
   </energy>
  </scstep>
  <scstep>
   <time name="dav">   32.95   32.95</time>
   <time name="total">   39.02   39.03</time>
   <energy>
    <i name="e_fr_energy">   -145.66854857 </i>
    <i name="e_wo_entrp">   -145.65334029 </i>
    <i name="e_0_energy">   -145.66094443 </i>
   </energy>
  </scstep>
  <scstep>
   <time name="dav">   32.79   32.79</time>
   <time name="total">   38.85   38.86</time>
   <energy>
    <i name="e_fr_energy">   -145.67274302 </i>
    <i name="e_wo_entrp">   -145.65747285 </i>
    <i name="e_0_energy">   -145.66510794 </i>
   </energy>
  </scstep>
  <scstep>
   <time name="dav">   33.75   33.75</time>
   <time name="total">   39.85   39.87</time>
   <energy>
    <i name="e_fr_energy">   -145.67118935 </i>
    <i name="e_wo_entrp">   -145.65825659 </i>
    <i name="e_0_energy">   -145.66472297 </i>
   </energy>
  </scstep>
  <scstep>
   <time name="dav">   32.61   32.61</time>
   <time name="total">   38.75   38.77</time>
   <energy>
    <i name="e_fr_energy">   -145.66640541 </i>
    <i name="e_wo_entrp">   -145.65294877 </i>
    <i name="e_0_energy">   -145.65967709 </i>
   </energy>
  </scstep>
  <scstep>
   <time name="dav">   32.67   32.67</time>
   <time name="total">   38.72   38.76</time>
   <energy>
    <i name="e_fr_energy">   -145.66920342 </i>
    <i name="e_wo_entrp">   -145.65564481 </i>
    <i name="e_0_energy">   -145.66242412 </i>
   </energy>
  </scstep>
  <scstep>
   <time name="dav">   32.60   32.60</time>
   <time name="total">   38.67   38.67</time>
   <energy>
    <i name="e_fr_energy">   -145.66542770 </i>
    <i name="e_wo_entrp">   -145.65192640 </i>
    <i name="e_0_energy">   -145.65867705 </i>
   </energy>
  </scstep>
  <scstep>
   <time name="dav">   32.58   32.58</time>
   <time name="total">   38.65   38.66</time>
   <energy>
    <i name="e_fr_energy">   -145.66759681 </i>
    <i name="e_wo_entrp">   -145.65385985 </i>
    <i name="e_0_energy">   -145.66072833 </i>
   </energy>
  </scstep>
  <scstep>
   <time name="dav">   32.59   32.59</time>
   <time name="total">   38.66   38.68</time>
   <energy>
    <i name="e_fr_energy">   -145.66400807 </i>
    <i name="e_wo_entrp">   -145.64989984 </i>
    <i name="e_0_energy">   -145.65695396 </i>
   </energy>
  </scstep>
  <scstep>
   <time name="dav">   32.89   32.89</time>
   <time name="total">   38.96   38.96</time>
   <energy>
    <i name="e_fr_energy">   -145.66249617 </i>
    <i name="e_wo_entrp">   -145.64834053 </i>
    <i name="e_0_energy">   -145.65541835 </i>
   </energy>
  </scstep>
  <scstep>
   <time name="dav">   32.78   32.78</time>
   <time name="total">   38.84   38.85</time>
   <energy>
    <i name="e_fr_energy">   -145.66389863 </i>
    <i name="e_wo_entrp">   -145.64947396 </i>
    <i name="e_0_energy">   -145.65668630 </i>
   </energy>
  </scstep>
  <scstep>
   <time name="dav">   33.21   33.21</time>
   <time name="total">   39.29   39.30</time>
   <energy>
    <i name="e_fr_energy">   -145.65916747 </i>
    <i name="e_wo_entrp">   -145.64452526 </i>
    <i name="e_0_energy">   -145.65184636 </i>
   </energy>
  </scstep>
  <scstep>
   <time name="dav">   33.09   33.09</time>
   <time name="total">   39.16   39.17</time>
   <energy>
    <i name="e_fr_energy">   -145.66383526 </i>
    <i name="e_wo_entrp">   -145.64878937 </i>
    <i name="e_0_energy">   -145.65631231 </i>
   </energy>
  </scstep>
  <scstep>
   <time name="dav">   34.53   34.53</time>
   <time name="total">   40.61   40.63</time>
   <energy>
    <i name="e_fr_energy">   -145.68168186 </i>
    <i name="e_wo_entrp">   -145.66907168 </i>
    <i name="e_0_energy">   -145.67537677 </i>
   </energy>
  </scstep>
  <scstep>
   <time name="dav">   33.17   33.17</time>
   <time name="total">   39.31   39.33</time>
   <energy>
    <i name="e_fr_energy">   -145.68218656 </i>
    <i name="e_wo_entrp">   -145.66956048 </i>
    <i name="e_0_energy">   -145.67587352 </i>
   </energy>
  </scstep>
  <scstep>
   <time name="dav">   34.16   34.16</time>
   <time name="total">   40.17   40.20</time>
   <energy>
    <i name="e_fr_energy">   -145.68141447 </i>
    <i name="e_wo_entrp">   -145.66871872 </i>
    <i name="e_0_energy">   -145.67506659 </i>
   </energy>
  </scstep>
  <scstep>
   <time name="dav">   33.10   33.10</time>
   <time name="total">   39.18   39.18</time>
   <energy>
    <i name="e_fr_energy">   -145.68100497 </i>
    <i name="e_wo_entrp">   -145.66833811 </i>
    <i name="e_0_energy">   -145.67467154 </i>
   </energy>
  </scstep>
  <scstep>
   <time name="dav">   32.87   32.87</time>
   <time name="total">   38.94   38.96</time>
   <energy>
    <i name="e_fr_energy">   -145.67775913 </i>
    <i name="e_wo_entrp">   -145.66464638 </i>
    <i name="e_0_energy">   -145.67120275 </i>
   </energy>
  </scstep>
  <scstep>
   <time name="dav">   32.73   32.73</time>
   <time name="total">   38.80   38.82</time>
   <energy>
    <i name="e_fr_energy">   -145.67795087 </i>
    <i name="e_wo_entrp">   -145.66492598 </i>
    <i name="e_0_energy">   -145.67143842 </i>
   </energy>
  </scstep>
  <scstep>
   <time name="dav">   32.74   32.74</time>
   <time name="total">   38.96   38.98</time>
   <energy>
    <i name="e_fr_energy">   -145.67962117 </i>
    <i name="e_wo_entrp">   -145.66693775 </i>
    <i name="e_0_energy">   -145.67327946 </i>
   </energy>
  </scstep>
  <scstep>
   <time name="dav">   32.43   32.43</time>
   <time name="total">   38.50   38.51</time>
   <energy>
    <i name="e_fr_energy">   -145.67879513 </i>
    <i name="e_wo_entrp">   -145.66593305 </i>
    <i name="e_0_energy">   -145.67236409 </i>
   </energy>
  </scstep>
  <scstep>
   <time name="dav">   32.72   32.72</time>
   <time name="total">   38.79   38.80</time>
   <energy>
    <i name="e_fr_energy">   -145.67482217 </i>
    <i name="e_wo_entrp">   -145.66133684 </i>
    <i name="e_0_energy">   -145.66807950 </i>
   </energy>
  </scstep>
  <scstep>
   <time name="dav">   32.91   32.91</time>
   <time name="total">   38.97   38.98</time>
   <energy>
    <i name="e_fr_energy">   -145.67228067 </i>
    <i name="e_wo_entrp">   -145.65805198 </i>
    <i name="e_0_energy">   -145.66516633 </i>
   </energy>
  </scstep>
  <scstep>
   <time name="dav">   32.65   32.65</time>
   <time name="total">   38.72   38.73</time>
   <energy>
    <i name="e_fr_energy">   -145.67705295 </i>
    <i name="e_wo_entrp">   -145.66359878 </i>
    <i name="e_0_energy">   -145.67032587 </i>
   </energy>
  </scstep>
  <scstep>
   <time name="dav">   32.65   32.65</time>
   <time name="total">   38.78   38.81</time>
   <energy>
    <i name="e_fr_energy">   -145.67569750 </i>
    <i name="e_wo_entrp">   -145.66128865 </i>
    <i name="e_0_energy">   -145.66849307 </i>
   </energy>
  </scstep>
  <scstep>
   <time name="dav">   32.62   32.62</time>
   <time name="total">   38.70   38.73</time>
   <energy>
    <i name="e_fr_energy">   -145.67317641 </i>
    <i name="e_wo_entrp">   -145.65838001 </i>
    <i name="e_0_energy">   -145.66577821 </i>
   </energy>
  </scstep>
  <scstep>
   <time name="dav">   32.68   32.68</time>
   <time name="total">   38.71   38.72</time>
   <energy>
    <i name="e_fr_energy">   -145.67487027 </i>
    <i name="e_wo_entrp">   -145.66023460 </i>
    <i name="e_0_energy">   -145.66755243 </i>
   </energy>
  </scstep>
  <scstep>
   <time name="dav">   32.09   32.09</time>
   <time name="total">   38.15   38.18</time>
   <energy>
    <i name="e_fr_energy">   -145.67410174 </i>
    <i name="e_wo_entrp">   -145.65950747 </i>
    <i name="e_0_energy">   -145.66680461 </i>
   </energy>
  </scstep>
  <scstep>
   <time name="dav">   32.64   32.64</time>
   <time name="total">   38.71   38.72</time>
   <energy>
    <i name="e_fr_energy">   -145.68107282 </i>
    <i name="e_wo_entrp">   -145.66727738 </i>
    <i name="e_0_energy">   -145.67417510 </i>
   </energy>
  </scstep>
  <scstep>
   <time name="dav">   32.62   32.62</time>
   <time name="total">   38.69   38.72</time>
   <energy>
    <i name="e_fr_energy">   -145.67526331 </i>
    <i name="e_wo_entrp">   -145.66076054 </i>
    <i name="e_0_energy">   -145.66801193 </i>
   </energy>
  </scstep>
  <scstep>
   <time name="dav">   32.63   32.63</time>
   <time name="total">   38.69   38.70</time>
   <energy>
    <i name="e_fr_energy">   -145.67714777 </i>
    <i name="e_wo_entrp">   -145.66293509 </i>
    <i name="e_0_energy">   -145.67004143 </i>
   </energy>
  </scstep>
  <scstep>
   <time name="dav">   32.54   32.54</time>
   <time name="total">   38.61   38.63</time>
   <energy>
    <i name="e_fr_energy">   -145.67548069 </i>
    <i name="e_wo_entrp">   -145.66106997 </i>
    <i name="e_0_energy">   -145.66827533 </i>
   </energy>
  </scstep>
  <scstep>
   <time name="dav">   32.65   32.65</time>
   <time name="total">   38.72   38.73</time>
   <energy>
    <i name="e_fr_energy">   -145.67431635 </i>
    <i name="e_wo_entrp">   -145.65974339 </i>
    <i name="e_0_energy">   -145.66702987 </i>
   </energy>
  </scstep>
  <scstep>
   <time name="dav">   32.61   32.61</time>
   <time name="total">   38.96   38.98</time>
   <energy>
    <i name="e_fr_energy">   -145.67265645 </i>
    <i name="e_wo_entrp">   -145.65799632 </i>
    <i name="e_0_energy">   -145.66532639 </i>
   </energy>
  </scstep>
  <scstep>
   <time name="dav">   32.58   32.58</time>
   <time name="total">   38.65   38.67</time>
   <energy>
    <i name="e_fr_energy">   -145.67453883 </i>
    <i name="e_wo_entrp">   -145.66005822 </i>
    <i name="e_0_energy">   -145.66729853 </i>
   </energy>
  </scstep>
  <scstep>
   <time name="dav">   32.31   32.31</time>
   <time name="total">   38.43   38.46</time>
   <energy>
    <i name="e_fr_energy">   -145.67451024 </i>
    <i name="e_wo_entrp">   -145.66006301 </i>
    <i name="e_0_energy">   -145.66728662 </i>
   </energy>
  </scstep>
  <scstep>
   <time name="dav">   32.57   32.57</time>
   <time name="total">   33.63   33.66</time>
   <energy>
    <i name="alphaZ">    418.47245222 </i>
    <i name="ewald">  -4785.77685820 </i>
    <i name="hartreedc">  -3591.40939178 </i>
    <i name="XCdc">    513.38105554 </i>
    <i name="pawpsdc">   8596.93392338 </i>
    <i name="pawaedc">  -8647.61860513 </i>
    <i name="eentropy">     -0.01442822 </i>
    <i name="bandstr">  -1593.89273367 </i>
    <i name="atom">   8944.24845171 </i>
    <i name="e_fr_energy">   -145.67613414 </i>
    <i name="e_wo_entrp">   -145.66170592 </i>
    <i name="e_0_energy">   -145.66892003 </i>
   </energy>
  </scstep>
  <structure>
   <crystal>
    <varray name="basis" >
     <v>       5.07008323      -0.00253625      -0.47205442 </v>
     <v>      -0.00303742       4.61654879      -0.05826778 </v>
     <v>      -4.41704027      -2.51616415      18.32859262 </v>
    </varray>
    <i name="volume">    418.63066990 </i>
    <varray name="rec_basis" >
     <v>       0.20177268       0.00074778       0.04872821 </v>
     <v>       0.00294831       0.21699893       0.03050031 </v>
     <v>       0.00520604       0.00070911       0.05591152 </v>
    </varray>
   </crystal>
   <varray name="positions" >
    <v>       0.35092227       0.65686611       0.83334212 </v>
    <v>       0.59619037       0.43527217       0.32431944 </v>
    <v>       0.64964545       0.34332547       0.16656923 </v>
    <v>       0.40221238       0.56472645       0.67547705 </v>
    <v>       0.76372500       0.23348266       0.97328031 </v>
    <v>       0.12079635       0.98402499       0.40181967 </v>
    <v>       0.23773567       0.76576025       0.02674192 </v>
    <v>       0.87722290       0.01667356       0.59846664 </v>
    <v>       0.73174453       0.89877116       0.26336070 </v>
    <v>       0.90434461       0.68430408       0.87971705 </v>
    <v>       0.26818555       0.10122257       0.73654955 </v>
    <v>       0.09671083       0.31556533       0.12038524 </v>
    <v>       0.14404667       0.85894461       0.19419213 </v>
    <v>       0.85651741       0.14106058       0.80577896 </v>
   </varray>
  </structure>
  <varray name="forces" >
   <v>       0.02526118       0.01945786       0.01312952 </v>
   <v>       0.03801932       0.00652151      -0.01047820 </v>
   <v>      -0.02944886      -0.00189898       0.08441660 </v>
   <v>      -0.00052201      -0.00626304      -0.05549634 </v>
   <v>       0.00760380      -0.00753238      -0.05969170 </v>
   <v>       0.01341624      -0.00285530       0.00938143 </v>
   <v>      -0.01956925       0.00192883      -0.06573665 </v>
   <v>      -0.05339820      -0.01113328      -0.13664639 </v>
   <v>      -0.03566858       0.00037596      -0.32841048 </v>
   <v>       0.00648865       0.01029449      -0.01789562 </v>
   <v>       0.02187054      -0.02767828       0.27429301 </v>
   <v>      -0.00201825       0.00848131      -0.00089615 </v>
   <v>       0.03258819       0.00011721       0.23172233 </v>
   <v>      -0.00462277       0.01018409       0.06230863 </v>
  </varray>
  <varray name="stress" >
   <v>       0.20223151       0.33057740       1.69938102 </v>
   <v>       0.33069890      -0.91995271       0.45766106 </v>
   <v>       1.69844568       0.46106482       9.26767771 </v>
  </varray>
  <energy>
   <i name="e_fr_energy">   -145.67613414 </i>
   <i name="e_wo_entrp">   -145.66170592 </i>
   <i name="e_0_energy">   -145.66892003 </i>
  </energy>
  <time name="totalsc"> 4015.51 4017.28</time>
 </calculation>
 <calculation>
  <scstep>
   <time name="dav">   32.59   32.59</time>
   <time name="total">   38.66   38.67</time>
   <energy>
    <i name="alphaZ">    420.73977782 </i>
    <i name="ewald">  -4793.64271321 </i>
    <i name="hartreedc">  -3598.46693252 </i>
    <i name="XCdc">    514.06736358 </i>
    <i name="pawpsdc">   8597.13349742 </i>
    <i name="pawaedc">  -8647.81460317 </i>
    <i name="eentropy">     -0.01412053 </i>
    <i name="bandstr">  -1581.95677288 </i>
    <i name="atom">   8944.24845171 </i>
    <i name="e_fr_energy">   -145.70605177 </i>
    <i name="e_wo_entrp">   -145.69193125 </i>
    <i name="e_0_energy">   -145.69899151 </i>
   </energy>
  </scstep>
  <scstep>
   <time name="dav">   35.53   35.53</time>
   <time name="total">   41.62   41.63</time>
   <energy>
    <i name="e_fr_energy">   -145.69534536 </i>
    <i name="e_wo_entrp">   -145.68143827 </i>
    <i name="e_0_energy">   -145.68839181 </i>
   </energy>
  </scstep>
  <scstep>
   <time name="dav">   34.37   34.37</time>
   <time name="total">   40.49   40.51</time>
   <energy>
    <i name="e_fr_energy">   -145.70169228 </i>
    <i name="e_wo_entrp">   -145.68988467 </i>
    <i name="e_0_energy">   -145.69578847 </i>
   </energy>
  </scstep>
  <scstep>
   <time name="dav">   35.28   35.28</time>
   <time name="total">   41.34   41.36</time>
   <energy>
    <i name="e_fr_energy">   -145.70555682 </i>
    <i name="e_wo_entrp">   -145.69345656 </i>
    <i name="e_0_energy">   -145.69950669 </i>
   </energy>
  </scstep>
  <scstep>
   <time name="dav">   34.18   34.18</time>
   <time name="total">   40.25   40.27</time>
   <energy>
    <i name="e_fr_energy">   -145.69892502 </i>
    <i name="e_wo_entrp">   -145.68553186 </i>
    <i name="e_0_energy">   -145.69222844 </i>
   </energy>
  </scstep>
  <scstep>
   <time name="dav">   33.41   33.41</time>
   <time name="total">   39.48   39.48</time>
   <energy>
    <i name="e_fr_energy">   -145.70354141 </i>
    <i name="e_wo_entrp">   -145.69067801 </i>
    <i name="e_0_energy">   -145.69710971 </i>
   </energy>
  </scstep>
  <scstep>
   <time name="dav">   34.29   34.29</time>
   <time name="total">   40.41   40.41</time>
   <energy>
    <i name="e_fr_energy">   -145.71062905 </i>
    <i name="e_wo_entrp">   -145.69844138 </i>
    <i name="e_0_energy">   -145.70453522 </i>
   </energy>
  </scstep>
  <scstep>
   <time name="dav">   32.66   32.66</time>
   <time name="total">   38.79   38.80</time>
   <energy>
    <i name="e_fr_energy">   -145.71325595 </i>
    <i name="e_wo_entrp">   -145.70156674 </i>
    <i name="e_0_energy">   -145.70741135 </i>
   </energy>
  </scstep>
  <scstep>
   <time name="dav">   32.60   32.60</time>
   <time name="total">   38.68   38.71</time>
   <energy>
    <i name="e_fr_energy">   -145.70611977 </i>
    <i name="e_wo_entrp">   -145.69292569 </i>
    <i name="e_0_energy">   -145.69952273 </i>
   </energy>
  </scstep>
  <scstep>
   <time name="dav">   33.50   33.50</time>
   <time name="total">   39.58   39.61</time>
   <energy>
    <i name="e_fr_energy">   -145.70407207 </i>
    <i name="e_wo_entrp">   -145.69111084 </i>
    <i name="e_0_energy">   -145.69759145 </i>
   </energy>
  </scstep>
  <scstep>
   <time name="dav">   32.67   32.67</time>
   <time name="total">   38.74   38.77</time>
   <energy>
    <i name="e_fr_energy">   -145.70343269 </i>
    <i name="e_wo_entrp">   -145.69032691 </i>
    <i name="e_0_energy">   -145.69687980 </i>
   </energy>
  </scstep>
  <scstep>
   <time name="dav">   33.23   33.23</time>
   <time name="total">   39.31   39.33</time>
   <energy>
    <i name="e_fr_energy">   -145.70663016 </i>
    <i name="e_wo_entrp">   -145.69378792 </i>
    <i name="e_0_energy">   -145.70020904 </i>
   </energy>
  </scstep>
  <scstep>
   <time name="dav">   32.64   32.64</time>
   <time name="total">   38.70   38.73</time>
   <energy>
    <i name="e_fr_energy">   -145.70446032 </i>
    <i name="e_wo_entrp">   -145.69144138 </i>
    <i name="e_0_energy">   -145.69795085 </i>
   </energy>
  </scstep>
  <scstep>
   <time name="dav">   32.67   32.67</time>
   <time name="total">   38.74   38.77</time>
   <energy>
    <i name="e_fr_energy">   -145.70801499 </i>
    <i name="e_wo_entrp">   -145.69525105 </i>
    <i name="e_0_energy">   -145.70163302 </i>
   </energy>
  </scstep>
  <scstep>
   <time name="dav">   32.63   32.63</time>
   <time name="total">   38.74   38.75</time>
   <energy>
    <i name="e_fr_energy">   -145.70513015 </i>
    <i name="e_wo_entrp">   -145.69228559 </i>
    <i name="e_0_energy">   -145.69870787 </i>
   </energy>
  </scstep>
  <scstep>
   <time name="dav">   32.66   32.66</time>
   <time name="total">   38.79   38.81</time>
   <energy>
    <i name="e_fr_energy">   -145.70923842 </i>
    <i name="e_wo_entrp">   -145.69666479 </i>
    <i name="e_0_energy">   -145.70295161 </i>
   </energy>
  </scstep>
  <scstep>
   <time name="dav">   32.70   32.70</time>
   <time name="total">   38.72   38.73</time>
   <energy>
    <i name="e_fr_energy">   -145.70643139 </i>
    <i name="e_wo_entrp">   -145.69376369 </i>
    <i name="e_0_energy">   -145.70009754 </i>
   </energy>
  </scstep>
  <scstep>
   <time name="dav">   32.64   32.64</time>
   <time name="total">   38.71   38.72</time>
   <energy>
    <i name="e_fr_energy">   -145.71068332 </i>
    <i name="e_wo_entrp">   -145.69837223 </i>
    <i name="e_0_energy">   -145.70452777 </i>
   </energy>
  </scstep>
  <scstep>
   <time name="dav">   32.68   32.68</time>
   <time name="total">   38.81   38.82</time>
   <energy>
    <i name="e_fr_energy">   -145.70761231 </i>
    <i name="e_wo_entrp">   -145.69514564 </i>
    <i name="e_0_energy">   -145.70137898 </i>
   </energy>
  </scstep>
  <scstep>
   <time name="dav">   32.82   32.83</time>
   <time name="total">   38.89   38.91</time>
   <energy>
    <i name="e_fr_energy">   -145.71187288 </i>
    <i name="e_wo_entrp">   -145.69968296 </i>
    <i name="e_0_energy">   -145.70577792 </i>
   </energy>
  </scstep>
  <scstep>
   <time name="dav">   32.64   32.64</time>
   <time name="total">   38.71   38.73</time>
   <energy>
    <i name="e_fr_energy">   -145.70807065 </i>
    <i name="e_wo_entrp">   -145.69561568 </i>
    <i name="e_0_energy">   -145.70184317 </i>
   </energy>
  </scstep>
  <scstep>
   <time name="dav">   32.66   32.66</time>
   <time name="total">   38.72   38.74</time>
   <energy>
    <i name="e_fr_energy">   -145.71208093 </i>
    <i name="e_wo_entrp">   -145.69990428 </i>
    <i name="e_0_energy">   -145.70599260 </i>
   </energy>
  </scstep>
  <scstep>
   <time name="dav">   32.62   32.62</time>
   <time name="total">   38.69   38.69</time>
   <energy>
    <i name="e_fr_energy">   -145.70812828 </i>
    <i name="e_wo_entrp">   -145.69568683 </i>
    <i name="e_0_energy">   -145.70190756 </i>
   </energy>
  </scstep>
  <scstep>
   <time name="dav">   32.64   32.64</time>
   <time name="total">   38.71   38.72</time>
   <energy>
    <i name="e_fr_energy">   -145.71235022 </i>
    <i name="e_wo_entrp">   -145.70016881 </i>
    <i name="e_0_energy">   -145.70625952 </i>
   </energy>
  </scstep>
  <scstep>
   <time name="dav">   32.64   32.64</time>
   <time name="total">   38.71   38.74</time>
   <energy>
    <i name="e_fr_energy">   -145.70821974 </i>
    <i name="e_wo_entrp">   -145.69576090 </i>
    <i name="e_0_energy">   -145.70199032 </i>
   </energy>
  </scstep>
  <scstep>
   <time name="dav">   32.62   32.62</time>
   <time name="total">   38.72   38.72</time>
   <energy>
    <i name="e_fr_energy">   -145.71222490 </i>
    <i name="e_wo_entrp">   -145.70001389 </i>
    <i name="e_0_energy">   -145.70611940 </i>
   </energy>
  </scstep>
  <scstep>
   <time name="dav">   33.08   33.08</time>
   <time name="total">   39.19   39.21</time>
   <energy>
    <i name="e_fr_energy">   -145.70829975 </i>
    <i name="e_wo_entrp">   -145.69579063 </i>
    <i name="e_0_energy">   -145.70204519 </i>
   </energy>
  </scstep>
  <scstep>
   <time name="dav">   32.63   32.63</time>
   <time name="total">   38.66   38.67</time>
   <energy>
    <i name="e_fr_energy">   -145.71194046 </i>
    <i name="e_wo_entrp">   -145.69965514 </i>
    <i name="e_0_energy">   -145.70579780 </i>
   </energy>
  </scstep>
  <scstep>
   <time name="dav">   32.62   32.62</time>
   <time name="total">   38.67   38.69</time>
   <energy>
    <i name="e_fr_energy">   -145.70839984 </i>
    <i name="e_wo_entrp">   -145.69579820 </i>
    <i name="e_0_energy">   -145.70209902 </i>
   </energy>
  </scstep>
  <scstep>
   <time name="dav">   32.61   32.61</time>
   <time name="total">   38.67   38.69</time>
   <energy>
    <i name="e_fr_energy">   -145.71200651 </i>
    <i name="e_wo_entrp">   -145.69972365 </i>
    <i name="e_0_energy">   -145.70586508 </i>
   </energy>
  </scstep>
  <scstep>
   <time name="dav">   32.62   32.62</time>
   <time name="total">   38.69   38.70</time>
   <energy>
    <i name="e_fr_energy">   -145.70854730 </i>
    <i name="e_wo_entrp">   -145.69598105 </i>
    <i name="e_0_energy">   -145.70226418 </i>
   </energy>
  </scstep>
  <scstep>
   <time name="dav">   32.63   32.63</time>
   <time name="total">   38.69   38.70</time>
   <energy>
    <i name="e_fr_energy">   -145.71214878 </i>
    <i name="e_wo_entrp">   -145.69988182 </i>
    <i name="e_0_energy">   -145.70601530 </i>
   </energy>
  </scstep>
  <scstep>
   <time name="dav">   32.63   32.63</time>
   <time name="total">   39.26   39.28</time>
   <energy>
    <i name="e_fr_energy">   -145.70861469 </i>
    <i name="e_wo_entrp">   -145.69606050 </i>
    <i name="e_0_energy">   -145.70233760 </i>
   </energy>
  </scstep>
  <scstep>
   <time name="dav">   32.63   32.63</time>
   <time name="total">   38.70   38.72</time>
   <energy>
    <i name="e_fr_energy">   -145.71231296 </i>
    <i name="e_wo_entrp">   -145.70004758 </i>
    <i name="e_0_energy">   -145.70618027 </i>
   </energy>
  </scstep>
  <scstep>
   <time name="dav">   33.13   33.13</time>
   <time name="total">   39.61   39.64</time>
   <energy>
    <i name="e_fr_energy">   -145.70895299 </i>
    <i name="e_wo_entrp">   -145.69639180 </i>
    <i name="e_0_energy">   -145.70267240 </i>
   </energy>
  </scstep>
  <scstep>
   <time name="dav">   32.88   32.88</time>
   <time name="total">   39.40   39.42</time>
   <energy>
    <i name="e_fr_energy">   -145.71181025 </i>
    <i name="e_wo_entrp">   -145.69951682 </i>
    <i name="e_0_energy">   -145.70566353 </i>
   </energy>
  </scstep>
  <scstep>
   <time name="dav">   32.90   32.90</time>
   <time name="total">   39.00   39.03</time>
   <energy>
    <i name="e_fr_energy">   -145.70916829 </i>
    <i name="e_wo_entrp">   -145.69653404 </i>
    <i name="e_0_energy">   -145.70285117 </i>
   </energy>
  </scstep>
  <scstep>
