unknown system                          
           1
     4.930594   -0.001668   -0.431764
    -0.002180    4.649828   -0.053440
    -4.142572   -2.514903   18.425061
   K    N    Sr
     8     4     2
Direct configuration=     1
   0.35235477  0.65640362  0.83234581
   0.59712049  0.43577087  0.32572996
   0.64859556  0.34347044  0.16759718
   0.40087481  0.56406377  0.67382500
   0.76313393  0.23332659  0.97263679
   0.12167564  0.98392603  0.40259060
   0.23856942  0.76597690  0.02736906
   0.87525988  0.01680773  0.59756890
   0.72534805  0.89659658  0.25873223
   0.90585513  0.68459934  0.88159562
   0.27488863  0.10353941  0.74117777
   0.09567184  0.31546343  0.11869943
   0.14992619  0.86156920  0.19901850
   0.85072566  0.13848608  0.80111316
unknown system                          
           1
     4.938579   -0.001767   -0.432858
    -0.002337    4.640670   -0.054235
    -4.157421   -2.513506   18.378461
   K    N    Sr
     8     4     2
Direct configuration=     2
   0.35226819  0.65657173  0.83264634
   0.59731145  0.43566969  0.32549228
   0.64864318  0.34332407  0.16726389
   0.40075539  0.56422724  0.67411213
   0.76316103  0.23330323  0.97256849
   0.12138962  0.98391063  0.40245609
   0.23857261  0.76602305  0.02746660
   0.87581185  0.01683972  0.59775937
   0.72636316  0.89720543  0.25979105
   0.90561411  0.68446524  0.88118699
   0.27376171  0.10290115  0.74011627
   0.09572492  0.31555964  0.11906954
   0.14887016  0.86087817  0.19787088
   0.85175262  0.13912099  0.80220009
unknown system                          
           1
     4.957981   -0.002008   -0.435515
    -0.002720    4.618417   -0.056165
    -4.193501   -2.510111   18.265227
   K    N    Sr
     8     4     2
Direct configuration=     3
   0.35206200  0.65698187  0.83337856
   0.59777166  0.43542269  0.32491320
   0.64875442  0.34296678  0.16645184
   0.40046937  0.56462605  0.67481171
   0.76322588  0.23324616  0.97240207
   0.12069403  0.98387275  0.40212836
   0.23858162  0.76613569  0.02770427
   0.87715338  0.01691817  0.59822347
   0.72883947  0.89869088  0.26237088
   0.90502415  0.68413758  0.88019137
   0.27101410  0.10134411  0.73752991
   0.09585844  0.31579491  0.11997128
   0.14629344  0.85919241  0.19507468
   0.85425804  0.14066994  0.80484841
unknown system                          
           1
     4.995473   -0.002185   -0.447735
    -0.002826    4.617792   -0.056869
    -4.268262   -2.512135   18.286419
   K    N    Sr
     8     4     2
Direct configuration=     4
   0.35167914  0.65694324  0.83336649
   0.59724220  0.43537246  0.32471469
   0.64905345  0.34308667  0.16649102
   0.40105294  0.56465951  0.67503416
   0.76339079  0.23332522  0.97269589
   0.12072940  0.98392365  0.40202505
   0.23830044  0.76601020  0.02738234
   0.87717596  0.01683637  0.59830483
   0.72981249  0.89871753  0.26270177
   0.90479732  0.68419331  0.88003273
   0.27006676  0.10130366  0.73720217
   0.09614355  0.31571808  0.12010971
   0.14554129  0.85910969  0.19477961
   0.85501427  0.14080042  0.80515954
unknown system                          
           1
     5.070083   -0.002536   -0.472054
    -0.003037    4.616549   -0.058268
    -4.417040   -2.516164   18.328593
   K    N    Sr
     8     4     2
Direct configuration=     5
   0.35092227  0.65686611  0.83334212
   0.59619037  0.43527217  0.32431944
   0.64964545  0.34332547  0.16656923
   0.40221238  0.56472645  0.67547705
   0.76372500  0.23348266  0.97328031
   0.12079635  0.98402499  0.40181967
   0.23773567  0.76576025  0.02674192
   0.87722290  0.01667356  0.59846664
   0.73174453  0.89877116  0.26336070
   0.90434461  0.68430408  0.87971705
   0.26818555  0.10122257  0.73654955
   0.09671083  0.31556533  0.12038524
   0.14404667  0.85894461  0.19419213
   0.85651741  0.14106058  0.80577896
