Na6 Mg6 Al6 P12                         
   1.00000000000000     
    -3.3111209726338449   -6.8618980408337276    0.2826517621822673
    -3.3019720511943040    6.8564992712607866    0.2660830969462009
     0.7999267369874007    0.0183611200809746  -14.1347346644598026
   Al   Na   P    Mg
     6     6    12     6
Direct
  0.8373383333501083  0.5297047759790440  0.1768262810780189
  0.5283873660219318  0.8384692527606875  0.1770907806041844
  0.1624509870953339  0.4703823705447652  0.8233303632925610
  0.4711661723524840  0.1614241731744502  0.8229935838354842
  0.3965510104660652  0.3962868959752227  0.5848929221939315
  0.6037153729530251  0.6036314047991937  0.4151467853125948
  0.1408368437632124  0.4771172610488144  0.3174756414958782
  0.4775119984838435  0.1417573647496199  0.3185632801142997
  0.8595610675343792  0.5219810549257512  0.6819562999991553
  0.5245979081103935  0.8603622476165188  0.6816325849867387
  0.2860586613998535  0.2868589759241226  0.0831718146753902
  0.7137334071542373  0.7130483070024770  0.9167869990188461
  0.8758201264679611  0.5901208177007222  0.3538661558490253
  0.5905739057006120  0.8762999374961705  0.3537353716672531
  0.1246265591830903  0.4099400679337757  0.6460575527688519
  0.4090842928486906  0.1234254698714590  0.6462794424766425
  0.1373965782089395  0.5375431372626399  0.1264409017586497
  0.5349635493782516  0.1382601439199046  0.1268378822615436
  0.8622172101711824  0.4624666985475522  0.8735896224990640
  0.4644675972094450  0.8617633605400850  0.8735206172838087
  0.2460799519332510  0.2458212502034376  0.4214680988711293
  0.7542656838285310  0.7538500901099532  0.5783740624292416
  0.8007038543089054  0.8027336988889808  0.1204666567155154
  0.1985726317484374  0.1968437349592357  0.8794854376942773
  0.9283613841009171  0.9285690033115316  0.2935901088806259
  0.0708713006735134  0.0708649116864955  0.7063265082582445
  0.8777391302782882  0.1267726586145902  0.4989083816027838
  0.1233355416233335  0.8731936465704779  0.5005729338402692
  0.7947888678354035  0.2045422810322663  0.0017152139525898
  0.2042227058163798  0.7959650068500835  0.9988977145833939
 
  0.00000000E+00  0.00000000E+00  0.00000000E+00
  0.00000000E+00  0.00000000E+00  0.00000000E+00
  0.00000000E+00  0.00000000E+00  0.00000000E+00
  0.00000000E+00  0.00000000E+00  0.00000000E+00
  0.00000000E+00  0.00000000E+00  0.00000000E+00
  0.00000000E+00  0.00000000E+00  0.00000000E+00
  0.00000000E+00  0.00000000E+00  0.00000000E+00
  0.00000000E+00  0.00000000E+00  0.00000000E+00
  0.00000000E+00  0.00000000E+00  0.00000000E+00
  0.00000000E+00  0.00000000E+00  0.00000000E+00
  0.00000000E+00  0.00000000E+00  0.00000000E+00
  0.00000000E+00  0.00000000E+00  0.00000000E+00
  0.00000000E+00  0.00000000E+00  0.00000000E+00
  0.00000000E+00  0.00000000E+00  0.00000000E+00
  0.00000000E+00  0.00000000E+00  0.00000000E+00
  0.00000000E+00  0.00000000E+00  0.00000000E+00
  0.00000000E+00  0.00000000E+00  0.00000000E+00
  0.00000000E+00  0.00000000E+00  0.00000000E+00
  0.00000000E+00  0.00000000E+00  0.00000000E+00
  0.00000000E+00  0.00000000E+00  0.00000000E+00
  0.00000000E+00  0.00000000E+00  0.00000000E+00
  0.00000000E+00  0.00000000E+00  0.00000000E+00
  0.00000000E+00  0.00000000E+00  0.00000000E+00
  0.00000000E+00  0.00000000E+00  0.00000000E+00
  0.00000000E+00  0.00000000E+00  0.00000000E+00
  0.00000000E+00  0.00000000E+00  0.00000000E+00
  0.00000000E+00  0.00000000E+00  0.00000000E+00
  0.00000000E+00  0.00000000E+00  0.00000000E+00
  0.00000000E+00  0.00000000E+00  0.00000000E+00
  0.00000000E+00  0.00000000E+00  0.00000000E+00
