Na12 Zn3 N6                             
   1.00000000000000     
     4.3463698583668045    0.0001869044639506   -0.0000060883459931
    -2.1730230671746606    3.7641631856946063    0.0000065599763836
     0.0000301078077427   -0.0000147850196042   20.3688256074775005
   Na   Zn   N 
    12     3     6
Direct
  0.0000160567204731 -0.0000240399950407  0.7938264482707855
 -0.0000154822027002  0.0000233840868695  0.2061738419193806
  0.6666755013904175  0.3333243101738755  0.1274711518072169
  0.6666778623156514  0.3333221481404586  0.5395009862830549
  0.3333204046203443  0.6666797229894890  0.4604992023406884
  0.3333250322416283  0.6666748809721803  0.8725284338891169
 -0.0000072638210406  0.0000073235698580  0.5968356559729572
  0.0000072803942506 -0.0000072693901110  0.4031644586368913
  0.6666712598677637  0.3333286371635039  0.9302680201058292
  0.6666732481439636  0.3333264590530562  0.7359997684472837
  0.3333269412154761  0.6666733461549817  0.2640004016124963
  0.3333292443731551  0.6666708366477193  0.0697320854535253
  0.0000001122512335  0.9999998848078691 -0.0000002586290115
  0.6666653836846349  0.3333347070022546  0.3337069072261405
  0.3333346281040005  0.6666653278463055  0.6662938238577603
  0.0000014487814491  0.9999984429508649  0.9105189750619899
  0.0000004149908843 -0.0000003281595415  0.0894797530451664
  0.6666651639628419  0.3333353445584981  0.2442029424607790
  0.6666731915493123  0.3333268766853597  0.4231267221551144
  0.3333256911904097  0.6666744123124626  0.5768733921186607
  0.3333338802258576  0.6666655924290649  0.7557972879641817
 
  0.00000000E+00  0.00000000E+00  0.00000000E+00
  0.00000000E+00  0.00000000E+00  0.00000000E+00
  0.00000000E+00  0.00000000E+00  0.00000000E+00
  0.00000000E+00  0.00000000E+00  0.00000000E+00
  0.00000000E+00  0.00000000E+00  0.00000000E+00
  0.00000000E+00  0.00000000E+00  0.00000000E+00
  0.00000000E+00  0.00000000E+00  0.00000000E+00
  0.00000000E+00  0.00000000E+00  0.00000000E+00
  0.00000000E+00  0.00000000E+00  0.00000000E+00
  0.00000000E+00  0.00000000E+00  0.00000000E+00
  0.00000000E+00  0.00000000E+00  0.00000000E+00
  0.00000000E+00  0.00000000E+00  0.00000000E+00
  0.00000000E+00  0.00000000E+00  0.00000000E+00
  0.00000000E+00  0.00000000E+00  0.00000000E+00
  0.00000000E+00  0.00000000E+00  0.00000000E+00
  0.00000000E+00  0.00000000E+00  0.00000000E+00
  0.00000000E+00  0.00000000E+00  0.00000000E+00
  0.00000000E+00  0.00000000E+00  0.00000000E+00
  0.00000000E+00  0.00000000E+00  0.00000000E+00
  0.00000000E+00  0.00000000E+00  0.00000000E+00
  0.00000000E+00  0.00000000E+00  0.00000000E+00
