Na8 N4 Zn2                              
   1.00000000000000     
     4.5532756839859028   -0.1890903774238712    0.4932917419257106
    -0.1902519853931916    4.5531145515413671    0.4913281420897678
    -0.6212693353170109   -0.6285866674981385   13.0701317141064024
   Na   N    Zn
     8     4     2
Direct
  0.5585837050298152  0.7441196127626858  0.8728438174819859
  0.7441787025221884  0.5585423495513709  0.3728473571083639
  0.4413369688995324  0.2557956396448759  0.1272239785956337
  0.2568381495230763  0.4419356582997082  0.6262763007936779
  0.0152268076346865  0.2652057585895470  0.9312474859686645
  0.2651134072372007  0.0154420880803815  0.4312430835013006
 -0.0154515105407824  0.7347655729683085  0.0688000684861009
  0.7347572141443993 -0.0155509252158330  0.5688313711156723
  0.7764685553119279  0.0552483501553672  0.3863983986015829
  0.0553190197252279  0.7766047563503338  0.8863153665726549
  0.2232296846228191 -0.0554062930822118  0.6138297151212470
 -0.0555382277844978  0.2233974304778464  0.1139539512319216
 -0.1214868458646323  0.1214708379871001  0.2501275357694797
  0.1214243695390380 -0.1215708365694799  0.7500615696517160
 
  0.00000000E+00  0.00000000E+00  0.00000000E+00
  0.00000000E+00  0.00000000E+00  0.00000000E+00
  0.00000000E+00  0.00000000E+00  0.00000000E+00
  0.00000000E+00  0.00000000E+00  0.00000000E+00
  0.00000000E+00  0.00000000E+00  0.00000000E+00
  0.00000000E+00  0.00000000E+00  0.00000000E+00
  0.00000000E+00  0.00000000E+00  0.00000000E+00
  0.00000000E+00  0.00000000E+00  0.00000000E+00
  0.00000000E+00  0.00000000E+00  0.00000000E+00
  0.00000000E+00  0.00000000E+00  0.00000000E+00
  0.00000000E+00  0.00000000E+00  0.00000000E+00
  0.00000000E+00  0.00000000E+00  0.00000000E+00
  0.00000000E+00  0.00000000E+00  0.00000000E+00
  0.00000000E+00  0.00000000E+00  0.00000000E+00
