Li4 Ca4 Ga4 P8                          
   1.00000000000000     
     6.7588930075262130    0.0000089394038431   -0.0028507480055086
     0.0000105804489538    8.2132126584686649   -0.0000075134833207
     0.0303979416178063   -0.0000066483736903    7.0114111205010525
   Li   Ca   Ga   P 
     4     4     4     8
Direct
  0.3726408677834799  0.3814759294729473  0.9129916367664833
  0.6273586714641466  0.8814763698606709  0.5870079010848115
  0.6273611365558895  0.6185242588595259  0.0870090121718184
  0.3726405379195398  0.1185242603565224  0.4129910963992173
  0.0056401968220433  0.1257337586308341  0.7405825067078112
  0.9943591147002645  0.6257325672696477  0.7594187470306982
  0.9943609397632721  0.8742681885886346  0.2594180894976489
  0.0056405686024006  0.3742669315100084  0.2405807756987747
  0.6262526290805420  0.3663528819666278  0.5828098464591991
  0.3737502251357545  0.8663483280502364  0.9171870624733154
  0.3737465496737600  0.6336482799331938  0.4171897107736826
  0.6262511686738502  0.1336497117076466  0.0828115606706250
  0.2562167835304912  0.8664840359438627  0.5925840575150860
  0.7437792758987309  0.3664859746188926  0.9074160518680996
  0.7437797305610245  0.1335160965330389  0.4074167651879955
  0.2562204567974821  0.6335128637401011  0.0925840537133133
  0.2687943072703413  0.3863366907459028  0.5699776826477813
  0.7312064105110444  0.8863389477083987  0.9300241123983207
  0.7312046099687086  0.6136633303760818  0.4300232559171199
  0.2687958192872201  0.1136605941272411  0.0699760750181985
 
  0.00000000E+00  0.00000000E+00  0.00000000E+00
  0.00000000E+00  0.00000000E+00  0.00000000E+00
  0.00000000E+00  0.00000000E+00  0.00000000E+00
  0.00000000E+00  0.00000000E+00  0.00000000E+00
  0.00000000E+00  0.00000000E+00  0.00000000E+00
  0.00000000E+00  0.00000000E+00  0.00000000E+00
  0.00000000E+00  0.00000000E+00  0.00000000E+00
  0.00000000E+00  0.00000000E+00  0.00000000E+00
  0.00000000E+00  0.00000000E+00  0.00000000E+00
  0.00000000E+00  0.00000000E+00  0.00000000E+00
  0.00000000E+00  0.00000000E+00  0.00000000E+00
  0.00000000E+00  0.00000000E+00  0.00000000E+00
  0.00000000E+00  0.00000000E+00  0.00000000E+00
  0.00000000E+00  0.00000000E+00  0.00000000E+00
  0.00000000E+00  0.00000000E+00  0.00000000E+00
  0.00000000E+00  0.00000000E+00  0.00000000E+00
  0.00000000E+00  0.00000000E+00  0.00000000E+00
  0.00000000E+00  0.00000000E+00  0.00000000E+00
  0.00000000E+00  0.00000000E+00  0.00000000E+00
  0.00000000E+00  0.00000000E+00  0.00000000E+00
