K6 Ca6 Al6 P12                          
   1.00000000000000     
    -3.4368798332689923   -7.2240155945491749    0.2363280414472177
    -3.4366618441784849    7.2239065718306135    0.2361555274108638
     0.6810942857875444    0.0001916212473040  -15.3392316678883507
   Al   K    P    Ca
     6     6    12     6
Direct
  0.8478893880443025  0.5328775340520857  0.1763170683336971
  0.5328733510644547  0.8479018827070783  0.1763188062527083
  0.1521271107079918  0.4671398096607018  0.8236770223885197
  0.4671496208748754  0.1521224600075783  0.8236762817952586
  0.3991748181747617  0.3991714539344045  0.5869047666932883
  0.6008168455327209  0.6008156760859883  0.4130959315149952
  0.1064211947101909  0.4345298387906750  0.3074751574382940
  0.4344640901618344  0.1063990337331686  0.3074565902855244
  0.8935909274837408  0.5654711534239588  0.6925241234132633
  0.5655254118788453  0.8936062584098962  0.6925237707406275
  0.3367879315422067  0.3368021568976658  0.0889270026065867
  0.6631622627820075  0.6631615538088204  0.9110928330538388
  0.8567331856328297  0.5819201629509767  0.3461941343520288
  0.5819239009864723  0.8567492537238612  0.3461933475559955
  0.1432594174102439  0.4180617743780183  0.6538028106870297
  0.4180585808666178  0.1432424724282383  0.6538082277474856
  0.1534925009123292  0.5723830894651566  0.1271104402222979
  0.5723754202188650  0.1534944309756728  0.1271039654914103
  0.8465233482317440  0.4276384786774278  0.8728838131863321
  0.4276466015785219  0.8465207483748832  0.8728861273444170
  0.2585653318362934  0.2585635371276738  0.4372467337934983
  0.7414303521971635  0.7414252270901452  0.5627554457093306
  0.8059632492097892  0.8059694437675579  0.1195077036874242
  0.1940719246374108  0.1940665379597416  0.8804978313413988
  0.9451291604940234  0.9451440718751644  0.2929341903801004
  0.0548536600088026  0.0548397672183509  0.7070938246747072
  0.8600003897778338  0.1399888577526048  0.4999992790314925
  0.1399842785107477  0.8599882299717505  0.5000036831708514
  0.8264859781654790  0.1735202939682634  0.9999997644087275
  0.1735197663668864  0.8264848107824910  0.9999893226988636
 
  0.00000000E+00  0.00000000E+00  0.00000000E+00
  0.00000000E+00  0.00000000E+00  0.00000000E+00
  0.00000000E+00  0.00000000E+00  0.00000000E+00
  0.00000000E+00  0.00000000E+00  0.00000000E+00
  0.00000000E+00  0.00000000E+00  0.00000000E+00
  0.00000000E+00  0.00000000E+00  0.00000000E+00
  0.00000000E+00  0.00000000E+00  0.00000000E+00
  0.00000000E+00  0.00000000E+00  0.00000000E+00
  0.00000000E+00  0.00000000E+00  0.00000000E+00
  0.00000000E+00  0.00000000E+00  0.00000000E+00
  0.00000000E+00  0.00000000E+00  0.00000000E+00
  0.00000000E+00  0.00000000E+00  0.00000000E+00
  0.00000000E+00  0.00000000E+00  0.00000000E+00
  0.00000000E+00  0.00000000E+00  0.00000000E+00
  0.00000000E+00  0.00000000E+00  0.00000000E+00
  0.00000000E+00  0.00000000E+00  0.00000000E+00
  0.00000000E+00  0.00000000E+00  0.00000000E+00
  0.00000000E+00  0.00000000E+00  0.00000000E+00
  0.00000000E+00  0.00000000E+00  0.00000000E+00
  0.00000000E+00  0.00000000E+00  0.00000000E+00
  0.00000000E+00  0.00000000E+00  0.00000000E+00
  0.00000000E+00  0.00000000E+00  0.00000000E+00
  0.00000000E+00  0.00000000E+00  0.00000000E+00
  0.00000000E+00  0.00000000E+00  0.00000000E+00
  0.00000000E+00  0.00000000E+00  0.00000000E+00
  0.00000000E+00  0.00000000E+00  0.00000000E+00
  0.00000000E+00  0.00000000E+00  0.00000000E+00
  0.00000000E+00  0.00000000E+00  0.00000000E+00
  0.00000000E+00  0.00000000E+00  0.00000000E+00
  0.00000000E+00  0.00000000E+00  0.00000000E+00
