K8 P4 Ca2                               
   1.00000000000000     
     5.7412399767860771   -0.0548643594510087    0.7972351983132970
    -0.0140654062444526    5.1763240994491708    0.4616817699732091
    -0.5079034262596217   -1.3795482509441011   15.4473311045993196
   K    P    Ca
     8     4     2
Direct
  0.3260809559467219  0.7497503996455563  0.7515259040903288
  0.1582848252576810  0.2499646885497384  0.3698395977111630
  0.6738403083124069  0.2499649947690443  0.2484821621944135
  0.8414043601589967  0.7499165700538413  0.6301101569280689
  0.7362125005316855  0.2505323713110457  0.0184655254701340
  0.2990898723183761  0.7498665758879426  0.4907081844623278
  0.2640597730960579  0.7504443244718502  0.9815283057875561
  0.7006970051513051  0.2501569783229058  0.5092897140407118
  0.8148774594686969  0.7497497728883147  0.3745749811778509
  0.7988903345897214  0.7500841999723917  0.8589986643835701
  0.1850074187304358  0.2498677567701648  0.6254316612834714
  0.2013928147964847  0.2500464277610419  0.1410463865457245
  0.1171729106818589  0.7499218799436491  0.2138132678571409
  0.8829894609595641  0.2497330596525131  0.7861854880675310
 
  0.00000000E+00  0.00000000E+00  0.00000000E+00
  0.00000000E+00  0.00000000E+00  0.00000000E+00
  0.00000000E+00  0.00000000E+00  0.00000000E+00
  0.00000000E+00  0.00000000E+00  0.00000000E+00
  0.00000000E+00  0.00000000E+00  0.00000000E+00
  0.00000000E+00  0.00000000E+00  0.00000000E+00
  0.00000000E+00  0.00000000E+00  0.00000000E+00
  0.00000000E+00  0.00000000E+00  0.00000000E+00
  0.00000000E+00  0.00000000E+00  0.00000000E+00
  0.00000000E+00  0.00000000E+00  0.00000000E+00
  0.00000000E+00  0.00000000E+00  0.00000000E+00
  0.00000000E+00  0.00000000E+00  0.00000000E+00
  0.00000000E+00  0.00000000E+00  0.00000000E+00
  0.00000000E+00  0.00000000E+00  0.00000000E+00
