Li4 Zn4 Ga4 N8                          
   1.00000000000000     
     5.9177934118057340   -0.0001067362799566    0.1664207591906276
     0.0000712462270102    5.5706142143149755   -0.0000930347169519
     0.2202604665539986    0.0000354156353794    6.6999150945878112
   Li   Zn   Ga   N 
     4     4     4     8
Direct
  0.3987100055275218  0.4398496446372006  0.8205027801465595
  0.6013516680611759  0.9398521454844362  0.6794926747399619
  0.6013102030497478  0.5601443422811759  0.1794971579992310
  0.3986554477718006  0.0601507053567375  0.3205032936036860
  0.1232306336029928  0.1245872725829530  0.6932003746732720
  0.8767759547551199  0.6245782565240617  0.8068067484638982
  0.8767718796252888  0.8754159642201716  0.3068068529087970
  0.1232239789863687  0.3754239389300510  0.1931939191722972
  0.6877517780496327  0.3581600126168906  0.5005965966226189
  0.3122481532842193  0.8581568678168549  0.9993956468006913
  0.3122493187015277  0.6418440093531639  0.4993997633636498
  0.6877493843372338  0.1418354136693683  0.0006040880842729
  0.1760280282102719  0.7714084533693009  0.7505331722859226
  0.8239556682221941  0.2714013659013508  0.7494670011804849
  0.8239628259526077  0.2285894446883697  0.2494664717774938
  0.1760337341442362  0.7286036186349922  0.2505360998626056
  0.3579143146663850  0.2963449932227276  0.5350317706102294
  0.6420781655536856  0.7963392728679036  0.9649648057220609
  0.6420830156107513  0.7036530476161791  0.4649659882827575
  0.3579158418872451  0.2036612302261107  0.0350347936994950
 
  0.00000000E+00  0.00000000E+00  0.00000000E+00
  0.00000000E+00  0.00000000E+00  0.00000000E+00
  0.00000000E+00  0.00000000E+00  0.00000000E+00
  0.00000000E+00  0.00000000E+00  0.00000000E+00
  0.00000000E+00  0.00000000E+00  0.00000000E+00
  0.00000000E+00  0.00000000E+00  0.00000000E+00
  0.00000000E+00  0.00000000E+00  0.00000000E+00
  0.00000000E+00  0.00000000E+00  0.00000000E+00
  0.00000000E+00  0.00000000E+00  0.00000000E+00
  0.00000000E+00  0.00000000E+00  0.00000000E+00
  0.00000000E+00  0.00000000E+00  0.00000000E+00
  0.00000000E+00  0.00000000E+00  0.00000000E+00
  0.00000000E+00  0.00000000E+00  0.00000000E+00
  0.00000000E+00  0.00000000E+00  0.00000000E+00
  0.00000000E+00  0.00000000E+00  0.00000000E+00
  0.00000000E+00  0.00000000E+00  0.00000000E+00
  0.00000000E+00  0.00000000E+00  0.00000000E+00
  0.00000000E+00  0.00000000E+00  0.00000000E+00
  0.00000000E+00  0.00000000E+00  0.00000000E+00
  0.00000000E+00  0.00000000E+00  0.00000000E+00
