Strontium Calcium Zinc Nitride          
   1.00000000000000     
     3.7279771724004371    0.0000000354409098   -0.0000000058863595
     0.0000000359276908    3.7279771719370713   -0.0000000014354141
    -0.0000000137288935    0.0000000005957326   12.6152098067231595
   Sr   Ca   Zn   N 
     2     2     2     4
Direct
  0.9999994820296779  0.9999999956497801  0.3413292593075095
  0.9999994632461374  0.0000000018745244  0.6586707415346064
  0.4999999394127118  0.5000000279326289  0.8381592762665133
  0.4999999426593337  0.4999999881521821  0.1618407193592180
  0.9999999612663789 -0.0000000004187685 -0.0000000344593894
  0.5000001034865708  0.4999999952715058  0.5000000234118578
  0.9999998545728369  0.0000000015041472  0.1440327268471772
  0.9999998524177920  0.0000000018761561  0.8559673095547392
  0.5000006930721218  0.4999999934772071  0.6445538411596535
  0.5000007078364460  0.4999999946806367  0.3554461370181146
 
  0.00000000E+00  0.00000000E+00  0.00000000E+00
  0.00000000E+00  0.00000000E+00  0.00000000E+00
  0.00000000E+00  0.00000000E+00  0.00000000E+00
  0.00000000E+00  0.00000000E+00  0.00000000E+00
  0.00000000E+00  0.00000000E+00  0.00000000E+00
  0.00000000E+00  0.00000000E+00  0.00000000E+00
  0.00000000E+00  0.00000000E+00  0.00000000E+00
  0.00000000E+00  0.00000000E+00  0.00000000E+00
  0.00000000E+00  0.00000000E+00  0.00000000E+00
  0.00000000E+00  0.00000000E+00  0.00000000E+00
