Ca Sr Zn P2                             
   1.00000000000000     
     4.3950561082228479    0.0001711716040383   -0.0000051479715373
    -2.1973542819816925    3.8063307837520863    0.0000051768481872
    -0.0000086354208096    0.0000051018642694    7.3212576785436605
   Sr   Ca   Zn   P 
     1     1     1     2
Direct
 -0.0000021290229578  0.0000021917512626  0.0080815282302944
  0.3333254431509488  0.6666745627349401  0.6241868057572509
  0.6666629319629837  0.3333370846019639  0.3696530115244379
  0.3333402632522422  0.6666597115558259  0.2535015990571863
  0.6666734306567782  0.3333264493560147  0.7445770854308261
 
  0.00000000E+00  0.00000000E+00  0.00000000E+00
  0.00000000E+00  0.00000000E+00  0.00000000E+00
  0.00000000E+00  0.00000000E+00  0.00000000E+00
  0.00000000E+00  0.00000000E+00  0.00000000E+00
  0.00000000E+00  0.00000000E+00  0.00000000E+00
