Ca Sr Zn P2                             
   1.00000000000000     
     4.3952068453688087    0.0001757539469190   -0.0000044141768782
    -2.1974261694264730    3.8064633468012792    0.0000044552026776
    -0.0000074104774722    0.0000044076252701    7.3237423833357971
   Sr   Ca   Zn   P 
     1     1     1     2
Direct
 -0.0000020429179511  0.0000021277948432  0.0080493028004741
  0.3333260025285925  0.6666739924430570  0.6241462989030585
  0.6666633686837624  0.3333366452329319  0.3696265619690883
  0.3333395998972673  0.6666603862234117  0.2535241537235265
  0.6666730118083168  0.3333268483057563  0.7446537126038550
 
  0.00000000E+00  0.00000000E+00  0.00000000E+00
  0.00000000E+00  0.00000000E+00  0.00000000E+00
  0.00000000E+00  0.00000000E+00  0.00000000E+00
  0.00000000E+00  0.00000000E+00  0.00000000E+00
  0.00000000E+00  0.00000000E+00  0.00000000E+00
