Mg Ca Zn N2                             
   1.00000000000000     
     3.4815981416289974    0.0001464303674670   -0.0000467520799703
    -1.7405423247627374    3.0153010683496966    0.0000467339493323
    -0.0000797979888677    0.0000466781991889    5.9943218174150639
   Ca   Mg   Zn   N 
     1     1     1     2
Direct
  0.9999948158451544  0.0000051493894406  0.0044114349875107
  0.3333312171482373  0.6666687405413989  0.6342930772589701
  0.6666601571956117  0.3333398215220187  0.3599230993819988
  0.3333212623427836  0.6666786327568214  0.2652723971897128
  0.6666924874682080  0.3333076557903207  0.7361000211818171
 
  0.00000000E+00  0.00000000E+00  0.00000000E+00
  0.00000000E+00  0.00000000E+00  0.00000000E+00
  0.00000000E+00  0.00000000E+00  0.00000000E+00
  0.00000000E+00  0.00000000E+00  0.00000000E+00
  0.00000000E+00  0.00000000E+00  0.00000000E+00
