Primitive Cell
  1.000000
    3.61737948440253    2.08844684623406    0.00000000000000
   -3.61737948440253    2.08844684623406    0.00000000000000
   -0.00020206660012    0.00000000000000    7.17233154785470
  Sr  Mg  Zn  P 
   1   1   1   2
DIRECT
    0.0000016726225698   -0.0000016726225698    0.0034538008110560    Sr1
    0.6666803950526394    0.3333196049473606    0.6221859511680314    Mg1
    0.3333371790713359    0.6666628209286641    0.3748215865173822    Zn1
    0.6666671339531245    0.3333328660468756    0.2694269923565094     P1
    0.3333135347736863    0.6666864652263137    0.7301116991470165     P2
