Li8 P4 Zn2                              
   1.00000000000000     
     3.9993385508025074    0.8178285304632404    0.0806073754760143
     0.8132221503591346    4.0126289723322675    0.0856283996911054
    -2.1807996273036050   -2.1715180239223906   13.4731781995015609
   Li   P    Zn
     8     4     2
Direct
  0.3789239131043066  0.4241173161486945  0.8269354185963659
  0.4238970730520626  0.3808433145648957  0.3265394897064793
  0.6211961402114676  0.5760047200378052  0.1730694616729264
  0.5759180350781733  0.6191809688775949  0.6734120835709287
  0.1471342451284762  0.1454501403660244  0.9479259400479844
  0.1444144541723622  0.1489044400520112  0.4479518389111130
 -0.1470715466483696  0.8547153131407248  0.0520993454147045
  0.8554844276389721 -0.1492635311714215  0.5520277253047109
  0.7874854438572080  0.7679346057424136  0.3637651376882835
  0.7656647429154255  0.7883081293990167  0.8640136689726801
  0.2123533079766084  0.2319225096833489  0.6362065996486773
  0.2344896550635495  0.2118262498932220  0.1360115645957951
  0.0415565807676606  0.9609367126590815  0.2501215651826246
  0.9585535276821037  0.0391191106065954  0.7499201606867184
 
  0.00000000E+00  0.00000000E+00  0.00000000E+00
  0.00000000E+00  0.00000000E+00  0.00000000E+00
  0.00000000E+00  0.00000000E+00  0.00000000E+00
  0.00000000E+00  0.00000000E+00  0.00000000E+00
  0.00000000E+00  0.00000000E+00  0.00000000E+00
  0.00000000E+00  0.00000000E+00  0.00000000E+00
  0.00000000E+00  0.00000000E+00  0.00000000E+00
  0.00000000E+00  0.00000000E+00  0.00000000E+00
  0.00000000E+00  0.00000000E+00  0.00000000E+00
  0.00000000E+00  0.00000000E+00  0.00000000E+00
  0.00000000E+00  0.00000000E+00  0.00000000E+00
  0.00000000E+00  0.00000000E+00  0.00000000E+00
  0.00000000E+00  0.00000000E+00  0.00000000E+00
  0.00000000E+00  0.00000000E+00  0.00000000E+00
