K6 Sr6 Al6 N12                          
   1.00000000000000     
    -3.0630001706022743   -6.0110774892451611    0.0836953715602155
    -3.0633680215433827    6.0112756374674206    0.0843969109266461
     0.0265298668738704   -0.0007821068290559  -13.3503665079234075
   Al   K    N    Sr
     6     6    12     6
Direct
  0.8447115529026364  0.5104093848159977  0.1841978663419743
  0.5105237141974553  0.8446910305040584  0.1841473512799044
  0.1552678807454048  0.4895549318843627  0.8158191630638929
  0.4894841988361007  0.1552871511197264  0.8158467685292637
  0.3963782419088139  0.3963777433743784  0.5888270472706802
  0.6036333366293100  0.6036238651748123  0.4111776890870972
  0.1316860744239543  0.4722634920127410  0.3277249176471040
  0.4722461355185155  0.1316140756027191  0.3277210490708026
  0.8683252933010170  0.5277645774562114  0.6722975381733004
  0.5277403610105579  0.8683443166938650  0.6722856018411276
  0.3515409239289659  0.3515229569926113  0.0885799152530542
  0.6485229460309738  0.6485299914629572  0.9114014982778339
  0.8398976587098195  0.5899155616871986  0.3356793583659822
  0.5899565268821005  0.8399121081863150  0.3357023382560749
  0.1600798878549521  0.4100528385191277  0.6643007042209168
  0.4100376883207382  0.1600778029061818  0.6642832588478326
  0.1705717343103447  0.6203109266497927  0.1483557213523182
  0.6202947758982265  0.1705573827665147  0.1483537801324881
  0.8293969523185966  0.3796245440589046  0.8516472320070280
  0.3796258185992833  0.8294159715808357  0.8516445426682725
  0.2880511802152949  0.2880548892697832  0.4521559263371526
  0.7119382427838141  0.7119265520388286  0.5478185140171100
  0.7675789056156090  0.7677410514962176  0.1159876606780188
  0.2324162965799016  0.2323401686397714  0.8840101594075260
  0.9830211148905197  0.9829884132436824  0.2651438608234303
  0.0170030900416729  0.0170304049051447  0.7348499556943305
  0.8571190971637295  0.1428497669444219  0.5000060601620502
  0.1428734110075537  0.8571404390509066  0.5000058013768479
  0.8388410075659322  0.1612695513560382  0.0000085915036440
  0.1612359518082036  0.8388081096058932  0.0000201283129399
 
  0.00000000E+00  0.00000000E+00  0.00000000E+00
  0.00000000E+00  0.00000000E+00  0.00000000E+00
  0.00000000E+00  0.00000000E+00  0.00000000E+00
  0.00000000E+00  0.00000000E+00  0.00000000E+00
  0.00000000E+00  0.00000000E+00  0.00000000E+00
  0.00000000E+00  0.00000000E+00  0.00000000E+00
  0.00000000E+00  0.00000000E+00  0.00000000E+00
  0.00000000E+00  0.00000000E+00  0.00000000E+00
  0.00000000E+00  0.00000000E+00  0.00000000E+00
  0.00000000E+00  0.00000000E+00  0.00000000E+00
  0.00000000E+00  0.00000000E+00  0.00000000E+00
  0.00000000E+00  0.00000000E+00  0.00000000E+00
  0.00000000E+00  0.00000000E+00  0.00000000E+00
  0.00000000E+00  0.00000000E+00  0.00000000E+00
  0.00000000E+00  0.00000000E+00  0.00000000E+00
  0.00000000E+00  0.00000000E+00  0.00000000E+00
  0.00000000E+00  0.00000000E+00  0.00000000E+00
  0.00000000E+00  0.00000000E+00  0.00000000E+00
  0.00000000E+00  0.00000000E+00  0.00000000E+00
  0.00000000E+00  0.00000000E+00  0.00000000E+00
  0.00000000E+00  0.00000000E+00  0.00000000E+00
  0.00000000E+00  0.00000000E+00  0.00000000E+00
  0.00000000E+00  0.00000000E+00  0.00000000E+00
  0.00000000E+00  0.00000000E+00  0.00000000E+00
  0.00000000E+00  0.00000000E+00  0.00000000E+00
  0.00000000E+00  0.00000000E+00  0.00000000E+00
  0.00000000E+00  0.00000000E+00  0.00000000E+00
  0.00000000E+00  0.00000000E+00  0.00000000E+00
  0.00000000E+00  0.00000000E+00  0.00000000E+00
  0.00000000E+00  0.00000000E+00  0.00000000E+00
