Li4 Zn4 In4 N8                          
   1.00000000000000     
     5.7713020463077438   -0.0000748609016760   -0.0353863692127835
    -0.0000381513783617    6.5590004817267191   -0.0001483503902212
    -0.0174496592408891   -0.0000204177461689    6.7507045831256827
   Li   Zn   In   N 
     4     4     4     8
Direct
  0.1978109042720106  0.4651459861282987  0.9364385384318510
  0.8025656068334115  0.9650547649107111  0.5636020093471643
  0.8023481419847300  0.5348309841927446  0.0635577494154944
  0.1975904345043347  0.0349640717093109  0.4364008976493707
  0.1619912172475679  0.1838217032452363  0.7493143682954155
  0.8379975719602442  0.6837243883931450  0.7506760546869344
  0.8379983541495051  0.8162061233120781  0.2506820555282516
  0.1619888674829397  0.3162480913341597  0.2493167619605146
  0.6948778985728197  0.3500533762208917  0.5158574022508446
  0.3049753843949929  0.8501407846750766  0.9841436738304807
  0.3050659072994506  0.6499649930041471  0.4841344075139062
  0.6950031452889789  0.1498527136071033  0.0158744232008772
  0.1289537794008808  0.8576394115162671  0.6869153561921451
  0.8709437812831737  0.3575461468725507  0.8130822813633571
  0.8709971331308779  0.1423711219127526  0.3130802616905370
  0.1290193171464580  0.6424301787337683  0.1869133105731748
  0.3218234413058738  0.3155359523068668  0.5220903850062015
  0.6780366735401415  0.8154243548851383  0.9779285793089301
  0.6781154803959737  0.6844956425315232  0.4779161494310173
  0.3218969598056205  0.1845492105082300  0.0220753343235458
 
  0.00000000E+00  0.00000000E+00  0.00000000E+00
  0.00000000E+00  0.00000000E+00  0.00000000E+00
  0.00000000E+00  0.00000000E+00  0.00000000E+00
  0.00000000E+00  0.00000000E+00  0.00000000E+00
  0.00000000E+00  0.00000000E+00  0.00000000E+00
  0.00000000E+00  0.00000000E+00  0.00000000E+00
  0.00000000E+00  0.00000000E+00  0.00000000E+00
  0.00000000E+00  0.00000000E+00  0.00000000E+00
  0.00000000E+00  0.00000000E+00  0.00000000E+00
  0.00000000E+00  0.00000000E+00  0.00000000E+00
  0.00000000E+00  0.00000000E+00  0.00000000E+00
  0.00000000E+00  0.00000000E+00  0.00000000E+00
  0.00000000E+00  0.00000000E+00  0.00000000E+00
  0.00000000E+00  0.00000000E+00  0.00000000E+00
  0.00000000E+00  0.00000000E+00  0.00000000E+00
  0.00000000E+00  0.00000000E+00  0.00000000E+00
  0.00000000E+00  0.00000000E+00  0.00000000E+00
  0.00000000E+00  0.00000000E+00  0.00000000E+00
  0.00000000E+00  0.00000000E+00  0.00000000E+00
  0.00000000E+00  0.00000000E+00  0.00000000E+00
