Na8 N4 Sr2                              
   1.00000000000000     
     4.4727540782870499   -0.0036302720921322    0.0038549188092217
    -0.0036305670106356    4.4723649386421247    0.0041287046498901
    -2.2226650849574603   -2.2216322964112991   14.0991356667895769
   Na   N    Sr
     8     4     2
Direct
  0.4323911435741131  0.6804823142236976  0.8612939692556933
  0.6804936327614916  0.4323302467758175  0.3613134800034500
  0.5676218665764190  0.3194987487047193  0.1386993834754499
  0.3194964083127817  0.5676836521096555  0.6386851450755486
  0.9873369127689742  0.2299372242810207  0.9587171021201222
  0.2299608584413387  0.9874195538853873  0.4587090033509224
  0.0126020607730406  0.7700122335762970  0.0412795312256329
  0.7699965161635531  0.0125914293976180  0.5412725582382952
  0.6811351827547780  0.9330623117589502  0.3628021011957647
  0.9331303719435546  0.6810734563583093  0.8628010143260268
  0.3189529952766932  0.0669577006095340  0.6372081210391829
  0.0668949487042117  0.3189117130536496  0.1372167853404144
  0.1243739617806766  0.8755438388668935  0.2499995145615835
  0.8756131401683805  0.1244955763984582  0.7500022907919057
 
  0.00000000E+00  0.00000000E+00  0.00000000E+00
  0.00000000E+00  0.00000000E+00  0.00000000E+00
  0.00000000E+00  0.00000000E+00  0.00000000E+00
  0.00000000E+00  0.00000000E+00  0.00000000E+00
  0.00000000E+00  0.00000000E+00  0.00000000E+00
  0.00000000E+00  0.00000000E+00  0.00000000E+00
  0.00000000E+00  0.00000000E+00  0.00000000E+00
  0.00000000E+00  0.00000000E+00  0.00000000E+00
  0.00000000E+00  0.00000000E+00  0.00000000E+00
  0.00000000E+00  0.00000000E+00  0.00000000E+00
  0.00000000E+00  0.00000000E+00  0.00000000E+00
  0.00000000E+00  0.00000000E+00  0.00000000E+00
  0.00000000E+00  0.00000000E+00  0.00000000E+00
  0.00000000E+00  0.00000000E+00  0.00000000E+00
