Li4 Ca4 Al4 P8                          
   1.00000000000000     
     6.7665953798747314   -0.0000000060055561   -0.0214126856407357
    -0.0000000086451767    8.1975813846396051   -0.0000000050132305
     0.0111971452301711   -0.0000000027667590    6.9903154679823514
   Li   Ca   Al   P 
     4     4     4     8
Direct
  0.3710304539927267  0.3838789632848482  0.9148010182120145
  0.6289695679589231  0.8838790560743502  0.5851989294207058
  0.6289695802125177  0.6161210016075925  0.0851989933617349
  0.3710304866370155  0.1161209832695496  0.4148010489861442
  0.0073448152320916  0.1244501968528272  0.7399706698328834
  0.9926551681649992  0.6244500818754520  0.7600293640640520
  0.9926551502269521  0.8755498880905002  0.2600293412254749
  0.0073448287492963  0.3755497873914614  0.2399706790612633
  0.6238424702188556  0.3681843787969967  0.5786310886590851
  0.3761575235778826  0.8681843293995277  0.9213689034361662
  0.3761575216205507  0.6318156723018780  0.4213689003489922
  0.6238424623821982  0.1318156348408623  0.0786310727886479
  0.2581354107326604  0.8629690300680198  0.5962414176288863
  0.7418645650548682  0.3629689649208272  0.9037585846897267
  0.7418645946412666  0.1370310513683704  0.4037585637931358
  0.2581354411051601  0.6370309667262037  0.0962414105830540
  0.2701066597423817  0.3857287563484849  0.5706756142132178
  0.7298932639565698  0.8857287299751513  0.9293244185179529
  0.7298933260268494  0.6142712906914147  0.4293244060651792
  0.2701067097662480  0.1142712361156817  0.0706755751116829
 
  0.00000000E+00  0.00000000E+00  0.00000000E+00
  0.00000000E+00  0.00000000E+00  0.00000000E+00
  0.00000000E+00  0.00000000E+00  0.00000000E+00
  0.00000000E+00  0.00000000E+00  0.00000000E+00
  0.00000000E+00  0.00000000E+00  0.00000000E+00
  0.00000000E+00  0.00000000E+00  0.00000000E+00
  0.00000000E+00  0.00000000E+00  0.00000000E+00
  0.00000000E+00  0.00000000E+00  0.00000000E+00
  0.00000000E+00  0.00000000E+00  0.00000000E+00
  0.00000000E+00  0.00000000E+00  0.00000000E+00
  0.00000000E+00  0.00000000E+00  0.00000000E+00
  0.00000000E+00  0.00000000E+00  0.00000000E+00
  0.00000000E+00  0.00000000E+00  0.00000000E+00
  0.00000000E+00  0.00000000E+00  0.00000000E+00
  0.00000000E+00  0.00000000E+00  0.00000000E+00
  0.00000000E+00  0.00000000E+00  0.00000000E+00
  0.00000000E+00  0.00000000E+00  0.00000000E+00
  0.00000000E+00  0.00000000E+00  0.00000000E+00
  0.00000000E+00  0.00000000E+00  0.00000000E+00
  0.00000000E+00  0.00000000E+00  0.00000000E+00
