Sr6 Li6 Al6 P12                         
   1.00000000000000     
    -3.5536297475026442   -6.0976551933141820    0.0503819325722298
    -3.5536297559738328    6.0976552026082764    0.0503819152507911
    -0.1372387717763650    0.0000000248608278  -14.5957229207596075
   Al   Li   P    Sr
     6     6    12     6
Direct
  0.8053112772489495  0.4809098409265973  0.1864547586646650
  0.4809098403220295  0.8053112765191713  0.1864547585715403
  0.1946886977099677  0.5190901811827714  0.8135452353105657
  0.5190901827034087  0.1946886955559858  0.8135452340808345
  0.3872401108820557  0.3872401071839323  0.5813444495853632
  0.6127599291946698  0.6127599274242091  0.4186554140474619
  0.2030716098941753  0.5315511518053855  0.3221784976336713
  0.5315511319186832  0.2030716027674680  0.3221784827613952
  0.7969283577412215  0.4684489160166449  0.6778214861318363
  0.4684489374413359  0.7969283768933312  0.6778214976742932
  0.3842293956154121  0.3842293938360131  0.0686906348122955
  0.6157704261544767  0.6157704240369621  0.9313094855101055
  0.8729488270776863  0.5555475954310733  0.3462423359228045
  0.5555475818667497  0.8729488161022738  0.3462423356533276
  0.1270512200146409  0.4444524828048296  0.6537575834863903
  0.4444524871458292  0.1270512132390885  0.6537575803724003
  0.1369121756199505  0.4869346192277743  0.1474878900429184
  0.4869346196102490  0.1369121755268644  0.1474878918470809
  0.8630877857445283  0.5130653606321147  0.8525120778194419
  0.5130653646948748  0.8630877901347551  0.8525120785925624
  0.2738644590156157  0.2738644639239538  0.4261126789756480
  0.7261357958717184  0.7261358035782836  0.5738872591785777
  0.7408625273303937  0.7408625304210050  0.1021810512249087
  0.2591373950531759  0.2591373911326097  0.8978188997879565
  0.0250894314549589  0.0250894513642745  0.2547235073897558
  0.9749104498155343  0.9749104657731011  0.7452765360303919
  0.8190175926475359  0.1809821987752718  0.5000001650500604
  0.1809821974080296  0.8190175785621134  0.5000001860239279
  0.8304452507058643  0.1695549709703296  0.0000000056609654
  0.1695549420962932  0.8304451982518114  0.0000000021568531
 
  0.00000000E+00  0.00000000E+00  0.00000000E+00
  0.00000000E+00  0.00000000E+00  0.00000000E+00
  0.00000000E+00  0.00000000E+00  0.00000000E+00
  0.00000000E+00  0.00000000E+00  0.00000000E+00
  0.00000000E+00  0.00000000E+00  0.00000000E+00
  0.00000000E+00  0.00000000E+00  0.00000000E+00
  0.00000000E+00  0.00000000E+00  0.00000000E+00
  0.00000000E+00  0.00000000E+00  0.00000000E+00
  0.00000000E+00  0.00000000E+00  0.00000000E+00
  0.00000000E+00  0.00000000E+00  0.00000000E+00
  0.00000000E+00  0.00000000E+00  0.00000000E+00
  0.00000000E+00  0.00000000E+00  0.00000000E+00
  0.00000000E+00  0.00000000E+00  0.00000000E+00
  0.00000000E+00  0.00000000E+00  0.00000000E+00
  0.00000000E+00  0.00000000E+00  0.00000000E+00
  0.00000000E+00  0.00000000E+00  0.00000000E+00
  0.00000000E+00  0.00000000E+00  0.00000000E+00
  0.00000000E+00  0.00000000E+00  0.00000000E+00
  0.00000000E+00  0.00000000E+00  0.00000000E+00
  0.00000000E+00  0.00000000E+00  0.00000000E+00
  0.00000000E+00  0.00000000E+00  0.00000000E+00
  0.00000000E+00  0.00000000E+00  0.00000000E+00
  0.00000000E+00  0.00000000E+00  0.00000000E+00
  0.00000000E+00  0.00000000E+00  0.00000000E+00
  0.00000000E+00  0.00000000E+00  0.00000000E+00
  0.00000000E+00  0.00000000E+00  0.00000000E+00
  0.00000000E+00  0.00000000E+00  0.00000000E+00
  0.00000000E+00  0.00000000E+00  0.00000000E+00
  0.00000000E+00  0.00000000E+00  0.00000000E+00
  0.00000000E+00  0.00000000E+00  0.00000000E+00
