Li8 N4 Zn2                              
   1.00000000000000     
     3.5940552998644089   -0.0161355979202020   -0.0541494003505214
    -0.0161348948742021    3.5936347864594320   -0.0518071183511115
    -1.9582486991357417   -1.9506006502993418   11.4591469755492490
   Li   N    Zn
     8     4     2
Direct
  0.4453200523457838  0.6835378764383124  0.8484755373871302
  0.6829291379632431  0.4452299922897441  0.3486858777071539
  0.5545143656438799  0.3178626761617911  0.1515975149050516
  0.3170610616649287  0.5546030131859608  0.6513161315948103
  0.0617085291749940  0.2251424548272780  0.9552213744559991
  0.2251202702776653  0.0601561037540907  0.4551130284897708
 -0.0614575089512405  0.7744700888881341  0.0447608953605876
  0.7749905885254380 -0.0604873572864311  0.5448661921790747
  0.6724901403641014  0.9558277929194938  0.3666157890470234
  0.9562054755264221  0.6726325777006084  0.8666281757326254
  0.3275668436778771  0.0439442495812912  0.6333424112815703
  0.0436241334642341  0.3268322859471071  0.1333785505684529
  0.1290179937290410  0.8711632608947535  0.2499536749126233
  0.8709089165936310  0.1290849846978522  0.7500448463781345
 
  0.00000000E+00  0.00000000E+00  0.00000000E+00
  0.00000000E+00  0.00000000E+00  0.00000000E+00
  0.00000000E+00  0.00000000E+00  0.00000000E+00
  0.00000000E+00  0.00000000E+00  0.00000000E+00
  0.00000000E+00  0.00000000E+00  0.00000000E+00
  0.00000000E+00  0.00000000E+00  0.00000000E+00
  0.00000000E+00  0.00000000E+00  0.00000000E+00
  0.00000000E+00  0.00000000E+00  0.00000000E+00
  0.00000000E+00  0.00000000E+00  0.00000000E+00
  0.00000000E+00  0.00000000E+00  0.00000000E+00
  0.00000000E+00  0.00000000E+00  0.00000000E+00
  0.00000000E+00  0.00000000E+00  0.00000000E+00
  0.00000000E+00  0.00000000E+00  0.00000000E+00
  0.00000000E+00  0.00000000E+00  0.00000000E+00
