K4 Mg4 Al4 P8                           
   1.00000000000000     
     6.8438230064750556   -0.0005508109653638    0.0923221726661409
    -0.0009806304624533    7.9787168701402393   -0.0000454565594503
     0.1141774014363290   -0.0001371429203830    8.0286289938221262
   K    Mg   Al   P 
     4     4     4     8
Direct
  0.3770505380843133  0.4988174434832375  0.8513324694201480
  0.6229809557546981 -0.0013242209400281  0.6486937172598889
  0.6229872510643885  0.5012286587191884  0.1487618280593771
  0.3770358889169648  0.0012210585410611  0.3512768198830216
  0.1289837883311559  0.1577808612876143  0.7361236291801938
  0.8710983650626387  0.6578139573826622  0.7639174850361063
  0.8710636969423098  0.8422061831146308  0.2639000828872055
  0.1289516568168134  0.3421670355707373  0.2361481777156192
  0.6719666236429970  0.3651328115805803  0.5194700514908244
  0.3279185074604994  0.8651899192924044  0.9805853227495875
  0.3280241538989363  0.6348444937239086  0.4805823399145727
  0.6719586260191249  0.1348591401447767  0.0193997011682750
  0.1858874239016073  0.8230317144451349  0.7031208942929466
  0.8142468784784451  0.3230927969419229  0.7968349136830505
  0.8141668509233670  0.1769981328462409  0.2968305673006268
  0.1857670861387954  0.6769702432005356  0.2031916546331512
  0.3186225182576081  0.3396138733011841  0.5135234689145987
  0.6813235723773655  0.8396569158701781  0.9863551019156324
  0.6813989625383947  0.6603047804639035  0.4864482955573122
  0.3185666553895702  0.1603942010301339  0.0135034789378608
 
  0.00000000E+00  0.00000000E+00  0.00000000E+00
  0.00000000E+00  0.00000000E+00  0.00000000E+00
  0.00000000E+00  0.00000000E+00  0.00000000E+00
  0.00000000E+00  0.00000000E+00  0.00000000E+00
  0.00000000E+00  0.00000000E+00  0.00000000E+00
  0.00000000E+00  0.00000000E+00  0.00000000E+00
  0.00000000E+00  0.00000000E+00  0.00000000E+00
  0.00000000E+00  0.00000000E+00  0.00000000E+00
  0.00000000E+00  0.00000000E+00  0.00000000E+00
  0.00000000E+00  0.00000000E+00  0.00000000E+00
  0.00000000E+00  0.00000000E+00  0.00000000E+00
  0.00000000E+00  0.00000000E+00  0.00000000E+00
  0.00000000E+00  0.00000000E+00  0.00000000E+00
  0.00000000E+00  0.00000000E+00  0.00000000E+00
  0.00000000E+00  0.00000000E+00  0.00000000E+00
  0.00000000E+00  0.00000000E+00  0.00000000E+00
  0.00000000E+00  0.00000000E+00  0.00000000E+00
  0.00000000E+00  0.00000000E+00  0.00000000E+00
  0.00000000E+00  0.00000000E+00  0.00000000E+00
  0.00000000E+00  0.00000000E+00  0.00000000E+00
