Na4 Mg4 Ga4 N8                          
   1.00000000000000     
     5.7227076987235090    0.0022317224942774    0.0872502985517195
     0.0017726774580806    6.3829131004819963   -0.0002742801783623
     0.1483448447932725    0.0018212750737459    6.5520359634460901
   Na   Mg   Ga   N 
     4     4     4     8
Direct
  0.3880754153722443  0.4745060831511556  0.8470478849194053
  0.6157206219250734  0.9747343952237754  0.6530326576564377
  0.6129161873022299  0.5258262526867092  0.1544460751361429
  0.3842686398134839  0.0252154003535495  0.3467318060357676
  0.1222588994515804  0.1576318652151802  0.7387225425486948
  0.8790480437296019  0.6566021264389521  0.7614320669260686
  0.8777525123124672  0.8424261882741607  0.2612459896603970
  0.1210317746698572  0.3433500939482637  0.2384580702638794
  0.6733866062119021  0.3580573576967919  0.5155352375431616
  0.3265172041993521  0.8582839992150849  0.9840734668193267
  0.3264656954770002  0.6418601747553176  0.4845150316126244
  0.6733242548464090  0.1416419444667203  0.0156181257169157
  0.1953059325657141  0.8201130108677519  0.7068847288789473
  0.8045641603300826  0.3194745737675866  0.7926874105375967
  0.8044853345342297  0.1800097258859637  0.2927586495850787
  0.1952550102909270  0.6803919851325074  0.2070120419470869
  0.3185402477164332  0.3352994060288124  0.5184561881247728
  0.6811536715002363  0.8347086950821071  0.9812469213302353
  0.6813638016615273  0.6647414526749922  0.4815608663237526
  0.3185659860896488  0.1651252691346250  0.0185342384337090
 
  0.00000000E+00  0.00000000E+00  0.00000000E+00
  0.00000000E+00  0.00000000E+00  0.00000000E+00
  0.00000000E+00  0.00000000E+00  0.00000000E+00
  0.00000000E+00  0.00000000E+00  0.00000000E+00
  0.00000000E+00  0.00000000E+00  0.00000000E+00
  0.00000000E+00  0.00000000E+00  0.00000000E+00
  0.00000000E+00  0.00000000E+00  0.00000000E+00
  0.00000000E+00  0.00000000E+00  0.00000000E+00
  0.00000000E+00  0.00000000E+00  0.00000000E+00
  0.00000000E+00  0.00000000E+00  0.00000000E+00
  0.00000000E+00  0.00000000E+00  0.00000000E+00
  0.00000000E+00  0.00000000E+00  0.00000000E+00
  0.00000000E+00  0.00000000E+00  0.00000000E+00
  0.00000000E+00  0.00000000E+00  0.00000000E+00
  0.00000000E+00  0.00000000E+00  0.00000000E+00
  0.00000000E+00  0.00000000E+00  0.00000000E+00
  0.00000000E+00  0.00000000E+00  0.00000000E+00
  0.00000000E+00  0.00000000E+00  0.00000000E+00
  0.00000000E+00  0.00000000E+00  0.00000000E+00
  0.00000000E+00  0.00000000E+00  0.00000000E+00
