K6 Mg6 Al6 N12                          
   1.00000000000000     
    -2.7655936871027298   -6.3511478534036803    0.3491970636460258
    -2.7657416881316008    6.3512224166117290    0.3493888684488614
     1.1954916347316868   -0.0001681166909422  -12.1510402829610236
   Al   K    N    Mg
     6     6    12     6
Direct
  0.8197081642772309  0.5172970219794801  0.1785091700700722
  0.5173597673186928  0.8196344806986968  0.1784957870611196
  0.1808415492553994  0.4829170260482061  0.8215060454678026
  0.4828555150703968  0.1808753795018631  0.8215129501064812
  0.4133764312454078  0.4134169887392170  0.5897675328288525
  0.5861572758599097  0.5861284176034658  0.4104297090020493
  0.0740543726117522  0.4354519698516517  0.3249313880206151
  0.4353558492144913  0.0739480072177889  0.3248384680543108
  0.9267989666408851  0.5651759420642587  0.6750985645071508
  0.5652885569283960  0.9269629115273414  0.6751824558854678
  0.2438216794920617  0.2437941927523696  0.0817103165567160
  0.7567147631999048  0.7567041462390659  0.9183114578908281
  0.8510782270723025  0.6130285424631217  0.3488585234725667
  0.6130404965351558  0.8510439604058074  0.3488400610443806
  0.1485727754805961  0.3864911638950931  0.6511399734870498
  0.3864640587790539  0.1486238416631010  0.6511493314475212
  0.1325128573781591  0.5813170165844725  0.1314447065887040
  0.5813805098411089  0.1324493600097713  0.1314411197962882
  0.8678076951625247  0.4191359654818638  0.8687271560096791
  0.4191163956559359  0.8678338089243954  0.8687432970374693
  0.2522190827764186  0.2521991451364837  0.4336137768409511
  0.7472176372005869  0.7472708613531457  0.5663122196689190
  0.7405166269826704  0.7404375707742996  0.1399013478648281
  0.2596906793962569  0.2597309308132246  0.8598818222888591
  0.9322313999035222  0.9322201550455842  0.2996671175818423
  0.0655511750839272  0.0656101143099567  0.7001224227368061
  0.8902034004538342  0.1098502937325027  0.4997780404671894
  0.1098633542890186  0.8902547179794538  0.4997726438763010
  0.7791132322418756  0.2210923539781522  0.0001507400713655
  0.2210875046525320  0.7791037132261802  0.0001618542678053
 
  0.00000000E+00  0.00000000E+00  0.00000000E+00
  0.00000000E+00  0.00000000E+00  0.00000000E+00
  0.00000000E+00  0.00000000E+00  0.00000000E+00
  0.00000000E+00  0.00000000E+00  0.00000000E+00
  0.00000000E+00  0.00000000E+00  0.00000000E+00
  0.00000000E+00  0.00000000E+00  0.00000000E+00
  0.00000000E+00  0.00000000E+00  0.00000000E+00
  0.00000000E+00  0.00000000E+00  0.00000000E+00
  0.00000000E+00  0.00000000E+00  0.00000000E+00
  0.00000000E+00  0.00000000E+00  0.00000000E+00
  0.00000000E+00  0.00000000E+00  0.00000000E+00
  0.00000000E+00  0.00000000E+00  0.00000000E+00
  0.00000000E+00  0.00000000E+00  0.00000000E+00
  0.00000000E+00  0.00000000E+00  0.00000000E+00
  0.00000000E+00  0.00000000E+00  0.00000000E+00
  0.00000000E+00  0.00000000E+00  0.00000000E+00
  0.00000000E+00  0.00000000E+00  0.00000000E+00
  0.00000000E+00  0.00000000E+00  0.00000000E+00
  0.00000000E+00  0.00000000E+00  0.00000000E+00
  0.00000000E+00  0.00000000E+00  0.00000000E+00
  0.00000000E+00  0.00000000E+00  0.00000000E+00
  0.00000000E+00  0.00000000E+00  0.00000000E+00
  0.00000000E+00  0.00000000E+00  0.00000000E+00
  0.00000000E+00  0.00000000E+00  0.00000000E+00
  0.00000000E+00  0.00000000E+00  0.00000000E+00
  0.00000000E+00  0.00000000E+00  0.00000000E+00
  0.00000000E+00  0.00000000E+00  0.00000000E+00
  0.00000000E+00  0.00000000E+00  0.00000000E+00
  0.00000000E+00  0.00000000E+00  0.00000000E+00
  0.00000000E+00  0.00000000E+00  0.00000000E+00
