Na4 Zn4 Ga4 P8                          
   1.00000000000000     
     6.7266298334227574    0.0006480041264903    0.0032094278976093
     0.0007464748463966    7.4975908761431498   -0.0000121177653894
     0.0256292063281351    0.0000311564349919    7.6298058244187237
   Na   Zn   Ga   P 
     4     4     4     8
Direct
  0.2474230657345864  0.4951441479609663  0.8771561296903643
  0.7512882132363642  0.9951632945309421  0.6230821457121640
  0.7511811096512176  0.5047346618177299  0.1230560267836769
  0.2513485321056119  0.0046311953577706  0.3764519835104453
  0.1591369797451000  0.1546658949951233  0.7565753319483883
  0.8407405649981532  0.6546632657965944  0.7434234358915822
  0.8408541073806866  0.8453893433368660  0.2434129091865266
  0.1590841959708307  0.3452259793018481  0.2567131375689353
  0.6757609649865247  0.3528934136590427  0.5042462465904008
  0.3240518517972749  0.8528720470341495  0.9957249208844615
  0.3240050648558246  0.6470999897889212  0.4958141120971482
  0.6758179811777941  0.1471273461050145  0.0042306579254501
  0.1507419621639352  0.8219451245065413  0.7161586560501919
  0.8490614055193451  0.3218244571530969  0.7837985249529721
  0.8491390066306606  0.1781566602017350  0.2838423048345632
  0.1507005341715251  0.6782518975944253  0.2162399628349290
  0.3269225947812954  0.3291935547254016  0.5369588942482258
  0.6729021382025349  0.8291617902020697  0.9631825834248244
  0.6728493086133961  0.6709050987339897  0.4631283442606077
  0.3269904182773328  0.1709508371977710  0.0368036916041348
 
  0.00000000E+00  0.00000000E+00  0.00000000E+00
  0.00000000E+00  0.00000000E+00  0.00000000E+00
  0.00000000E+00  0.00000000E+00  0.00000000E+00
  0.00000000E+00  0.00000000E+00  0.00000000E+00
  0.00000000E+00  0.00000000E+00  0.00000000E+00
  0.00000000E+00  0.00000000E+00  0.00000000E+00
  0.00000000E+00  0.00000000E+00  0.00000000E+00
  0.00000000E+00  0.00000000E+00  0.00000000E+00
  0.00000000E+00  0.00000000E+00  0.00000000E+00
  0.00000000E+00  0.00000000E+00  0.00000000E+00
  0.00000000E+00  0.00000000E+00  0.00000000E+00
  0.00000000E+00  0.00000000E+00  0.00000000E+00
  0.00000000E+00  0.00000000E+00  0.00000000E+00
  0.00000000E+00  0.00000000E+00  0.00000000E+00
  0.00000000E+00  0.00000000E+00  0.00000000E+00
  0.00000000E+00  0.00000000E+00  0.00000000E+00
  0.00000000E+00  0.00000000E+00  0.00000000E+00
  0.00000000E+00  0.00000000E+00  0.00000000E+00
  0.00000000E+00  0.00000000E+00  0.00000000E+00
  0.00000000E+00  0.00000000E+00  0.00000000E+00
