Li6 Zn6 Ga6 N12                         
   1.00000000000000     
    -2.8275707587343799   -5.1590395688664703    0.4257137640870416
    -2.8280167631525810    5.1597269739391161    0.4298233681445970
     1.5356211521474323   -0.0044745945427982  -11.3995002950136755
   Ga   Li   N    Zn
     6     6    12     6
Direct
  0.7829703777837285  0.4543118753333797  0.1975637113596750
  0.4560550734133761  0.7826864258879365  0.1975174600739562
  0.2010853278767979  0.5201733455568904  0.8168818899362410
  0.5193685174991093  0.2017712608933844  0.8171614959378688
  0.3561166862263871  0.3564407199899883  0.5840650366476394
  0.6437204549753440  0.6437743716548363  0.4391649105183819
  0.1750069741224664  0.4960565998789876  0.3319212578883632
  0.4947753298215359  0.1735349332200877  0.3319416754910370
  0.8112928786565257  0.4594670932632879  0.6695949843948322
  0.4602373663425930  0.8120660737476669  0.6691789169446324
  0.3602528474710733  0.3599444727198741  0.0615613767371045
  0.6889011444643270  0.6892804811035445  0.9562473691647481
  0.8750485853131218  0.5349070433745778  0.3779468160834732
  0.5351886579543965  0.8751492788176567  0.3778877814631766
  0.0848494962107617  0.3860992686473305  0.6426694782839647
  0.3862485546957830  0.0854442094457495  0.6427259711466095
  0.0803661840002920  0.4118807442767529  0.1516867240291470
  0.4123927160435218  0.0795045198825213  0.1517457110987851
  0.9064040970104603  0.5225402397666009  0.8794356551651901
  0.5216640058154929  0.9075508751025009  0.8798843150729713
  0.2466817189265675  0.2467737188737902  0.4018235585683695
  0.6943618560997218  0.6944328302777453  0.6083205029175246
  0.7119759254873289  0.7109582020563764  0.1385561356981405
  0.2489210525314637  0.2500956737894418  0.8802621193267558
  0.0678337571413190  0.0673990663547504  0.2037345963648230
  0.0123998653512604  0.0120236411749641  0.7069175657323244
  0.8908405674875621  0.2428412784271665  0.4625493187183524
  0.2419472548555810  0.8896776397540360  0.4629064256579071
  0.8925885971189711  0.2412929249342503  0.9790121735042264
  0.2405041293031452  0.8919211917939273  0.9791350660737738
 
  0.00000000E+00  0.00000000E+00  0.00000000E+00
  0.00000000E+00  0.00000000E+00  0.00000000E+00
  0.00000000E+00  0.00000000E+00  0.00000000E+00
  0.00000000E+00  0.00000000E+00  0.00000000E+00
  0.00000000E+00  0.00000000E+00  0.00000000E+00
  0.00000000E+00  0.00000000E+00  0.00000000E+00
  0.00000000E+00  0.00000000E+00  0.00000000E+00
  0.00000000E+00  0.00000000E+00  0.00000000E+00
  0.00000000E+00  0.00000000E+00  0.00000000E+00
  0.00000000E+00  0.00000000E+00  0.00000000E+00
  0.00000000E+00  0.00000000E+00  0.00000000E+00
  0.00000000E+00  0.00000000E+00  0.00000000E+00
  0.00000000E+00  0.00000000E+00  0.00000000E+00
  0.00000000E+00  0.00000000E+00  0.00000000E+00
  0.00000000E+00  0.00000000E+00  0.00000000E+00
  0.00000000E+00  0.00000000E+00  0.00000000E+00
  0.00000000E+00  0.00000000E+00  0.00000000E+00
  0.00000000E+00  0.00000000E+00  0.00000000E+00
  0.00000000E+00  0.00000000E+00  0.00000000E+00
  0.00000000E+00  0.00000000E+00  0.00000000E+00
  0.00000000E+00  0.00000000E+00  0.00000000E+00
  0.00000000E+00  0.00000000E+00  0.00000000E+00
  0.00000000E+00  0.00000000E+00  0.00000000E+00
  0.00000000E+00  0.00000000E+00  0.00000000E+00
  0.00000000E+00  0.00000000E+00  0.00000000E+00
  0.00000000E+00  0.00000000E+00  0.00000000E+00
  0.00000000E+00  0.00000000E+00  0.00000000E+00
  0.00000000E+00  0.00000000E+00  0.00000000E+00
  0.00000000E+00  0.00000000E+00  0.00000000E+00
  0.00000000E+00  0.00000000E+00  0.00000000E+00
