Na8 P4 Mg2                              
   1.00000000000000     
     4.5310919375985819   -0.0137630832097626   -0.3615084618519139
    -0.0365079828748051    4.9503118264639321   -0.5894848934372781
    -3.4284499361791898   -4.3910886751381586   14.5677836339721498
   Na   P    Mg
     8     4     2
Direct
  0.6143910379468008  0.1924850724705253  0.8649578971376932
  0.5064670065860114  0.4393302072620690  0.2562698324839210
  0.3855421562034897  0.8073321520576756  0.1349475488323259
  0.4956876543025054  0.5609239838121872  0.7442762396525324
  0.2441556638610381  0.2107072390895985  0.9949182321664889
  0.2644941584298800  0.2752386986315388  0.5143111517054888
  0.7553313975818094  0.7891721738928928  0.0048359551201735
  0.7337906421875987  0.7253316808552772  0.4857889376272842
  0.6161471092194821  0.0777137800089700  0.3646004654956074
  0.1243657685741800  0.5791836349775048  0.8738121844334705
  0.3838122443311751  0.9220535335368977  0.6353254755554752
  0.8758767438967202  0.4205441597744793  0.1260510753622390
  0.0355583683463027  0.9001393931438100  0.2837399023103490
  0.9643800485330205  0.0998442904865813  0.7161651021169508
 
  0.00000000E+00  0.00000000E+00  0.00000000E+00
  0.00000000E+00  0.00000000E+00  0.00000000E+00
  0.00000000E+00  0.00000000E+00  0.00000000E+00
  0.00000000E+00  0.00000000E+00  0.00000000E+00
  0.00000000E+00  0.00000000E+00  0.00000000E+00
  0.00000000E+00  0.00000000E+00  0.00000000E+00
  0.00000000E+00  0.00000000E+00  0.00000000E+00
  0.00000000E+00  0.00000000E+00  0.00000000E+00
  0.00000000E+00  0.00000000E+00  0.00000000E+00
  0.00000000E+00  0.00000000E+00  0.00000000E+00
  0.00000000E+00  0.00000000E+00  0.00000000E+00
  0.00000000E+00  0.00000000E+00  0.00000000E+00
  0.00000000E+00  0.00000000E+00  0.00000000E+00
  0.00000000E+00  0.00000000E+00  0.00000000E+00
