Na4 Ca4 Ga4 P8                          
   1.00000000000000     
     6.8178692899132995    0.0000088805306826   -0.0816687680539959
     0.0000118230453906    8.7278280088014366    0.0000315768442031
    -0.0507354840135190    0.0000258368852096    7.2242982100469373
   Na   Ca   Ga   P 
     4     4     4     8
Direct
  0.3615768086238290  0.3853813197426283  0.9216386616938915
  0.6384271570701843  0.8853812315948025  0.5783614650778002
  0.6384207495124717  0.6146190266615849  0.0783589595634040
  0.3615775484771158  0.1146187807675251  0.4216406338425907
  0.0035117348694285  0.1170292041924811  0.7423914205948531
  0.9964891185888511  0.6170299260842445  0.7576069177153368
  0.9964858916745695  0.8829707884202734  0.2576077173443667
  0.0035119679559410  0.3829683445581513  0.2423956420812425
  0.6312789277932828  0.3649830882376495  0.5759880619270362
  0.3687203851977348  0.8649791719087730  0.9240116706991804
  0.3687228598340542  0.6350183264445165  0.4240104285296780
  0.6312771061817158  0.1350178083957892  0.0759860097193442
  0.2366750290720126  0.8494682823390878  0.6054976239254315
  0.7633252110411134  0.3494665874780327  0.8945005511635724
  0.7633219614639438  0.1505309410258606  0.3945004043455609
  0.2366776104700889  0.6505310337888945  0.1054987261623093
  0.2714721544594514  0.3971441977154411  0.5580078888281641
  0.7285296771796828  0.8971430247965418  0.9419962984033958
  0.7285273628555154  0.6028601226548096  0.4419964336670377
  0.2714707376790058  0.1028587931929132  0.0580044847157969
 
  0.00000000E+00  0.00000000E+00  0.00000000E+00
  0.00000000E+00  0.00000000E+00  0.00000000E+00
  0.00000000E+00  0.00000000E+00  0.00000000E+00
  0.00000000E+00  0.00000000E+00  0.00000000E+00
  0.00000000E+00  0.00000000E+00  0.00000000E+00
  0.00000000E+00  0.00000000E+00  0.00000000E+00
  0.00000000E+00  0.00000000E+00  0.00000000E+00
  0.00000000E+00  0.00000000E+00  0.00000000E+00
  0.00000000E+00  0.00000000E+00  0.00000000E+00
  0.00000000E+00  0.00000000E+00  0.00000000E+00
  0.00000000E+00  0.00000000E+00  0.00000000E+00
  0.00000000E+00  0.00000000E+00  0.00000000E+00
  0.00000000E+00  0.00000000E+00  0.00000000E+00
  0.00000000E+00  0.00000000E+00  0.00000000E+00
  0.00000000E+00  0.00000000E+00  0.00000000E+00
  0.00000000E+00  0.00000000E+00  0.00000000E+00
  0.00000000E+00  0.00000000E+00  0.00000000E+00
  0.00000000E+00  0.00000000E+00  0.00000000E+00
  0.00000000E+00  0.00000000E+00  0.00000000E+00
  0.00000000E+00  0.00000000E+00  0.00000000E+00
