Mg Ca Sr N2                             
   1.00000000000000     
     3.6332340326710084   -0.0016419706111353    0.0013846805964368
    -1.8157430516617632    3.1469731838587118   -0.0013826283288908
     0.0021707322098146   -0.0012517349852957    7.5349969596666915
   Ca   Mg   Sr   N 
     1     1     1     2
Direct
  0.0001625157750268  0.9998393220232575  0.0072193208835912
  0.3329700995365191  0.6670297349030258  0.7177858567532361
  0.6668302416103585  0.3331671152257048  0.3544441361749219
  0.3335345263305466  0.6664648423475161  0.1788701944764181
  0.6665025567475512  0.3334989855004958  0.7416805217118351
 
  0.00000000E+00  0.00000000E+00  0.00000000E+00
  0.00000000E+00  0.00000000E+00  0.00000000E+00
  0.00000000E+00  0.00000000E+00  0.00000000E+00
  0.00000000E+00  0.00000000E+00  0.00000000E+00
  0.00000000E+00  0.00000000E+00  0.00000000E+00
