Na6 Al6 Zn6 P12                         
   1.00000000000000     
    -3.2488152027744994   -6.9576850862956316    0.3757024276453746
    -3.2488457921718998    6.9577037458277990    0.3757918409532402
     1.2042637977169708   -0.0000915567231473  -13.8236198030792199
   Al   Na   P    Zn
     6     6    12     6
Direct
  0.8532470207765805  0.5499975881172828  0.1787024967034182
  0.5500024568963311  0.8532379425182428  0.1787018170967379
  0.1467525432550842  0.4499994004508531  0.8212952384774155
  0.4499881490845802  0.1467644916565708  0.8212962048047224
  0.3951810420499564  0.3951782619319770  0.5841033107705178
  0.6048361690675157  0.6048366958105816  0.4158994486341874
  0.1216376056731369  0.4587003826124955  0.3203831097718945
  0.4586850413463520  0.1216290783478417  0.3203882584838688
  0.8783829396170242  0.5412834915387351  0.6795839522909258
  0.5413000831541707  0.8783826796153938  0.6795787545154149
  0.2421194048230973  0.2421126262758108  0.0850641263214692
  0.7578453539025646  0.7578449910626474  0.9149234184210736
  0.8829398671650375  0.6005118452756850  0.3590114645102074
  0.6005060867449852  0.8829343718839564  0.3590119138541124
  0.1170697032768769  0.3995120106336711  0.6409932011071480
  0.3995181745811458  0.1170739924506214  0.6409915805062965
  0.1443458614666381  0.5477601931698898  0.1244709657609343
  0.5477720298592059  0.1443411085402203  0.1244756154924513
  0.8556627082169617  0.4522531178530693  0.8755504342826077
  0.4522467064616406  0.8556761960133811  0.8755482450630848
  0.2447508637393825  0.2447520563409104  0.4153318091699110
  0.7552614616684565  0.7552639300382475  0.5846845749806242
  0.8142826729242403  0.8142721918034623  0.1271348021282759
  0.1856732885662569  0.1856885197753772  0.8728621230525020
  0.9165581472203492  0.9165587284425533  0.2994082042858341
  0.0835204506722605  0.0835212748473692  0.7005886090474431
  0.8780043008597652  0.1219741719494155  0.5000092822828188
  0.1219755057648179  0.8780049452048291  0.5000107785314637
  0.7717666240718496  0.2281700769283251 -0.0000026642228933
  0.2281677370937410  0.7717636389106050 -0.0000010761244545
 
  0.00000000E+00  0.00000000E+00  0.00000000E+00
  0.00000000E+00  0.00000000E+00  0.00000000E+00
  0.00000000E+00  0.00000000E+00  0.00000000E+00
  0.00000000E+00  0.00000000E+00  0.00000000E+00
  0.00000000E+00  0.00000000E+00  0.00000000E+00
  0.00000000E+00  0.00000000E+00  0.00000000E+00
  0.00000000E+00  0.00000000E+00  0.00000000E+00
  0.00000000E+00  0.00000000E+00  0.00000000E+00
  0.00000000E+00  0.00000000E+00  0.00000000E+00
  0.00000000E+00  0.00000000E+00  0.00000000E+00
  0.00000000E+00  0.00000000E+00  0.00000000E+00
  0.00000000E+00  0.00000000E+00  0.00000000E+00
  0.00000000E+00  0.00000000E+00  0.00000000E+00
  0.00000000E+00  0.00000000E+00  0.00000000E+00
  0.00000000E+00  0.00000000E+00  0.00000000E+00
  0.00000000E+00  0.00000000E+00  0.00000000E+00
  0.00000000E+00  0.00000000E+00  0.00000000E+00
  0.00000000E+00  0.00000000E+00  0.00000000E+00
  0.00000000E+00  0.00000000E+00  0.00000000E+00
  0.00000000E+00  0.00000000E+00  0.00000000E+00
  0.00000000E+00  0.00000000E+00  0.00000000E+00
  0.00000000E+00  0.00000000E+00  0.00000000E+00
  0.00000000E+00  0.00000000E+00  0.00000000E+00
  0.00000000E+00  0.00000000E+00  0.00000000E+00
  0.00000000E+00  0.00000000E+00  0.00000000E+00
  0.00000000E+00  0.00000000E+00  0.00000000E+00
  0.00000000E+00  0.00000000E+00  0.00000000E+00
  0.00000000E+00  0.00000000E+00  0.00000000E+00
  0.00000000E+00  0.00000000E+00  0.00000000E+00
  0.00000000E+00  0.00000000E+00  0.00000000E+00
