K4 Al4 Zn4 N8                           
   1.00000000000000     
     5.5249507186696247   -0.0002038164630424   -1.1509354958298159
    -0.0003069018448914    8.9510323190097445    0.0000018391970124
    -1.1007868114082215    0.0000297604446105    6.0335205655020578
   K    Zn   Al   N 
     4     4     4     8
Direct
  0.2574902119400739  0.4166132877838316  0.9894168073904777
  0.7426410320666167  0.9166311402610928  0.5106238668204531
  0.7427150900334653  0.5834042176030309  0.0106135192943217
  0.2572344980538496  0.0833593607163425  0.4893475689311993
  0.9450541091553848  0.1394703817014653  0.8952349187922831
  0.0550929328547345  0.6393623360163608  0.6048809339346786
  0.0549287652736092  0.8605432155186498  0.1047372992719413
  0.9450240466467311  0.3605778602775604  0.3952056713040706
  0.5858141491680234  0.3605089528440653  0.5662755812082793
  0.4141327583897649  0.8605267924269533  0.9336864799925029
  0.4141518258289762  0.6395212412001320  0.4337010356994769
  0.5858589431456828  0.1394708566031811  0.0662975266112977
  0.3304229874612741  0.7684839976112496  0.6399702927158060
  0.6694553570341879  0.2684736911544783  0.8599449242117424
  0.6695385651120199  0.2315126939476785  0.3600142299598863
  0.3305021056703762  0.7315350805543848  0.1400159933760136
  0.2560708248304905  0.4504888435454472  0.4446468387535005
  0.7439259829506184  0.9504987630416595  0.0553379302937311
  0.7438689724686284  0.5495313852871980  0.5553114888616254
  0.2560768419155000  0.0494859019052444  0.9447370925767212
 
  0.00000000E+00  0.00000000E+00  0.00000000E+00
  0.00000000E+00  0.00000000E+00  0.00000000E+00
  0.00000000E+00  0.00000000E+00  0.00000000E+00
  0.00000000E+00  0.00000000E+00  0.00000000E+00
  0.00000000E+00  0.00000000E+00  0.00000000E+00
  0.00000000E+00  0.00000000E+00  0.00000000E+00
  0.00000000E+00  0.00000000E+00  0.00000000E+00
  0.00000000E+00  0.00000000E+00  0.00000000E+00
  0.00000000E+00  0.00000000E+00  0.00000000E+00
  0.00000000E+00  0.00000000E+00  0.00000000E+00
  0.00000000E+00  0.00000000E+00  0.00000000E+00
  0.00000000E+00  0.00000000E+00  0.00000000E+00
  0.00000000E+00  0.00000000E+00  0.00000000E+00
  0.00000000E+00  0.00000000E+00  0.00000000E+00
  0.00000000E+00  0.00000000E+00  0.00000000E+00
  0.00000000E+00  0.00000000E+00  0.00000000E+00
  0.00000000E+00  0.00000000E+00  0.00000000E+00
  0.00000000E+00  0.00000000E+00  0.00000000E+00
  0.00000000E+00  0.00000000E+00  0.00000000E+00
  0.00000000E+00  0.00000000E+00  0.00000000E+00
