Na6 Sr6 Ga6 N12                         
   1.00000000000000     
    -3.0904052299084448   -5.4871092572391289    0.0810474205847198
    -3.0904126557999967    5.4871135561763227    0.0810573527993538
     0.0291881715785575   -0.0000116724324631  -12.9490158107548439
   Ga   Na   N    Sr
     6     6    12     6
Direct
  0.8239655009862150  0.4978841271683463  0.1841377176846937
  0.4978876241013946  0.8239713286358596  0.1841383659759264
  0.1760361396608617  0.5021157364502787  0.8158623781159259
  0.5021148829497984  0.1760353473301708  0.8158614844747972
  0.3855173454689914  0.3855164397485542  0.5864661698561405
  0.6144759430533043  0.6144774696383101  0.4135497814125239
  0.1837694033238545  0.5229766069103706  0.3229679786427186
  0.5229763158033700  0.1837674981537600  0.3229680297281987
  0.8162340876693760  0.4770245223397606  0.6770297231504586
  0.4770244562550878  0.8162345136600744  0.6770297602271458
  0.3827356479725294  0.3827352785018765  0.0750219442809860
  0.6172641058975017  0.6172639519659271  0.9249772877032916
  0.8669690642209985  0.5806417393470891  0.3418458297498196
  0.5806418518973193  0.8669690334858836  0.3418453080052138
  0.1330389600270361  0.4193585585152854  0.6581527761397222
  0.4193585509261524  0.1330388575641111  0.6581531489348943
  0.1483111826446717  0.5383226462119751  0.1430340376518969
  0.5383221446105734  0.1483143645266980  0.1430339624840083
  0.8516757047817285  0.4616672284023017  0.8569610338760378
  0.4616695810187895  0.8516753830545885  0.8569608071085214
  0.2824416000482083  0.2824413482527396  0.4369391342155723
  0.7175677646439513  0.7175671912454349  0.5630685586193958
  0.7595801130931156  0.7595803407097029  0.1122599613837252
  0.2404221129676929  0.2404204572847171  0.8877372726496807
  0.0129385498502810  0.0129396011079992  0.2621027756942757
  0.9870506802128186  0.9870498446539160  0.7378996550705154
  0.8340761307310537  0.1659333722270572  0.4999986554752602
  0.1659335638108147  0.8340761831138582  0.4999987369822428
  0.8345770377050737  0.1654267749506650  0.9999990877429797
  0.1654239536674295  0.8345742548426959  0.9999986369634380
 
  0.00000000E+00  0.00000000E+00  0.00000000E+00
  0.00000000E+00  0.00000000E+00  0.00000000E+00
  0.00000000E+00  0.00000000E+00  0.00000000E+00
  0.00000000E+00  0.00000000E+00  0.00000000E+00
  0.00000000E+00  0.00000000E+00  0.00000000E+00
  0.00000000E+00  0.00000000E+00  0.00000000E+00
  0.00000000E+00  0.00000000E+00  0.00000000E+00
  0.00000000E+00  0.00000000E+00  0.00000000E+00
  0.00000000E+00  0.00000000E+00  0.00000000E+00
  0.00000000E+00  0.00000000E+00  0.00000000E+00
  0.00000000E+00  0.00000000E+00  0.00000000E+00
  0.00000000E+00  0.00000000E+00  0.00000000E+00
  0.00000000E+00  0.00000000E+00  0.00000000E+00
  0.00000000E+00  0.00000000E+00  0.00000000E+00
  0.00000000E+00  0.00000000E+00  0.00000000E+00
  0.00000000E+00  0.00000000E+00  0.00000000E+00
  0.00000000E+00  0.00000000E+00  0.00000000E+00
  0.00000000E+00  0.00000000E+00  0.00000000E+00
  0.00000000E+00  0.00000000E+00  0.00000000E+00
  0.00000000E+00  0.00000000E+00  0.00000000E+00
  0.00000000E+00  0.00000000E+00  0.00000000E+00
  0.00000000E+00  0.00000000E+00  0.00000000E+00
  0.00000000E+00  0.00000000E+00  0.00000000E+00
  0.00000000E+00  0.00000000E+00  0.00000000E+00
  0.00000000E+00  0.00000000E+00  0.00000000E+00
  0.00000000E+00  0.00000000E+00  0.00000000E+00
  0.00000000E+00  0.00000000E+00  0.00000000E+00
  0.00000000E+00  0.00000000E+00  0.00000000E+00
  0.00000000E+00  0.00000000E+00  0.00000000E+00
  0.00000000E+00  0.00000000E+00  0.00000000E+00
