K12 Mg3 N6                              
   1.00000000000000     
     5.1206882900421977   -0.0008150999972246   -0.0006744238931757
    -2.5610492206730360    4.4353770095629024    0.0004957249871610
    -0.0028483555432429    0.0007390984983748   22.7533313736901555
   K    Mg   N 
    12     3     6
Direct
  0.9998617890610654  0.9999507368979312  0.7920710607364969
  0.0000394571082902  0.9998655507277515  0.2075581100674174
  0.6666622325887932  0.3334521957524909  0.1249914785923239
  0.6667832466771345  0.3331410810638963  0.5413332475634186
  0.3332311292831177  0.6662983706680043  0.4588034087234183
  0.3332713286526636  0.6667303965975393  0.8748400642361783
  0.0000441875394761  0.9996070849827230  0.5941392115328969
  0.0000351360060130  0.9996567897761373  0.4063540864217661
  0.6667120263287813  0.3337951955388930  0.9269858903408221
  0.6666742699263878  0.3333123741970346  0.7402081286203596
  0.3333397221687748  0.6665993053326109  0.2603411952721338
  0.3333349436526886  0.6670391139209575  0.0728509128101409
 -0.0001732002549108  0.0002114706740829  0.9998643934548453
  0.6666128049968315  0.3332105949198554  0.3328265966500414
  0.3335303513388675  0.6667030064891810  0.6671746566075896
 -0.0000160294767019  0.0005010448728933  0.9134922620907884
 -0.0000214300363082  0.0005208588289913  0.0861784245936582
  0.6666353586849716  0.3332416156644466  0.2464764578252983
  0.6667251879855194  0.3331348497488822  0.4193337654941317
  0.3333662693249329  0.6664606415230013  0.5806840793751709
  0.3333512184435978  0.6665677218226964  0.7534925689911177
 
  0.00000000E+00  0.00000000E+00  0.00000000E+00
  0.00000000E+00  0.00000000E+00  0.00000000E+00
  0.00000000E+00  0.00000000E+00  0.00000000E+00
  0.00000000E+00  0.00000000E+00  0.00000000E+00
  0.00000000E+00  0.00000000E+00  0.00000000E+00
  0.00000000E+00  0.00000000E+00  0.00000000E+00
  0.00000000E+00  0.00000000E+00  0.00000000E+00
  0.00000000E+00  0.00000000E+00  0.00000000E+00
  0.00000000E+00  0.00000000E+00  0.00000000E+00
  0.00000000E+00  0.00000000E+00  0.00000000E+00
  0.00000000E+00  0.00000000E+00  0.00000000E+00
  0.00000000E+00  0.00000000E+00  0.00000000E+00
  0.00000000E+00  0.00000000E+00  0.00000000E+00
  0.00000000E+00  0.00000000E+00  0.00000000E+00
  0.00000000E+00  0.00000000E+00  0.00000000E+00
  0.00000000E+00  0.00000000E+00  0.00000000E+00
  0.00000000E+00  0.00000000E+00  0.00000000E+00
  0.00000000E+00  0.00000000E+00  0.00000000E+00
  0.00000000E+00  0.00000000E+00  0.00000000E+00
  0.00000000E+00  0.00000000E+00  0.00000000E+00
  0.00000000E+00  0.00000000E+00  0.00000000E+00
