Na4 Mg4 In4 N8                          
   1.00000000000000     
     5.8986510124009701    0.0075915001776943    0.1231776510640085
     0.0090869787528636    6.8814427228229027   -0.0043930870478458
     0.1558323962455383   -0.0040975073124190    6.7795168863218311
   Na   Mg   In   N 
     4     4     4     8
Direct
  0.3452323039094899  0.4651812471196118  0.8638519434646190
  0.6554012940802320  0.9651656189942135  0.6355600220326402
  0.6546122300298929  0.5347782354298596  0.1359027469368586
  0.3345683673099897  0.0345717277196105  0.3644305852405547
  0.1263158032440579  0.1675732543105488  0.7409056184365345
  0.8742826691290677  0.6671432006199436  0.7594074733092800
  0.8739988993246786  0.8311330354439689  0.2590622884463116
  0.1265154279733020  0.3349952416436772  0.2397778067889731
  0.6850953699960726  0.3533988909198492  0.5246696177533946
  0.3160301539983329  0.8547327278295972  0.9750700512621745
  0.3164192469377765  0.6457824067296085  0.4755694993361106
  0.6849836781530181  0.1453517229890877  0.0255669347427544
  0.1626839271573694  0.8495303348371637  0.6874720943042777
  0.8369931843645771  0.3490782055481610  0.8130889275545822
  0.8404147352034324  0.1505307490884747  0.3123934536125760
  0.1643693464500183  0.6513352274341450  0.1873136862438984
  0.3082673277426808  0.3315554187171723  0.5245351753271226
  0.6923766865396010  0.8309332105378650  0.9757373784641411
  0.6928876784679497  0.6679818637999070  0.4755285930257495
  0.3085516699884464  0.1692476802875470  0.0241561037174474
 
  0.00000000E+00  0.00000000E+00  0.00000000E+00
  0.00000000E+00  0.00000000E+00  0.00000000E+00
  0.00000000E+00  0.00000000E+00  0.00000000E+00
  0.00000000E+00  0.00000000E+00  0.00000000E+00
  0.00000000E+00  0.00000000E+00  0.00000000E+00
  0.00000000E+00  0.00000000E+00  0.00000000E+00
  0.00000000E+00  0.00000000E+00  0.00000000E+00
  0.00000000E+00  0.00000000E+00  0.00000000E+00
  0.00000000E+00  0.00000000E+00  0.00000000E+00
  0.00000000E+00  0.00000000E+00  0.00000000E+00
  0.00000000E+00  0.00000000E+00  0.00000000E+00
  0.00000000E+00  0.00000000E+00  0.00000000E+00
  0.00000000E+00  0.00000000E+00  0.00000000E+00
  0.00000000E+00  0.00000000E+00  0.00000000E+00
  0.00000000E+00  0.00000000E+00  0.00000000E+00
  0.00000000E+00  0.00000000E+00  0.00000000E+00
  0.00000000E+00  0.00000000E+00  0.00000000E+00
  0.00000000E+00  0.00000000E+00  0.00000000E+00
  0.00000000E+00  0.00000000E+00  0.00000000E+00
  0.00000000E+00  0.00000000E+00  0.00000000E+00
