Mg Ca Sr N2 _ 2                         
   1.00000000000000     
     3.8275009554719142   -0.0002224714923519    0.0002081403591028
    -1.9140103563722075    3.3145629790551041   -0.0002081262368264
     0.0003551079242068   -0.0002050633107208    6.5074269045787796
   Sr   Ca   Mg   N 
     1     1     1     2
Direct
  0.0000115262482524  0.9999885308284719  0.0064951117365929
  0.3333764062621700  0.6666235134994704  0.6380490375805266
  0.6666674345072267  0.3333325169720840  0.3586587451364965
  0.3333039554647210  0.6666961312663814  0.2639958369182962
  0.6666406175176178  0.3333593074335922  0.7328012986280906
 
  0.00000000E+00  0.00000000E+00  0.00000000E+00
  0.00000000E+00  0.00000000E+00  0.00000000E+00
  0.00000000E+00  0.00000000E+00  0.00000000E+00
  0.00000000E+00  0.00000000E+00  0.00000000E+00
  0.00000000E+00  0.00000000E+00  0.00000000E+00
