Li6 Ca6 In6 N12                         
   1.00000000000000     
    -3.0784215951853255   -5.3886522528365290    0.0925778239840995
    -3.0784251750189657    5.3886541081353725    0.0925677047961198
     0.0982537164039080    0.0000116364024390  -12.4040187469156287
   In   Li   N    Ca
     6     6    12     6
Direct
  0.8094486991719930  0.4831733784215579  0.1862126226301156
  0.4831723924559765  0.8094497680947934  0.1862120638474429
  0.1905528967370878  0.5168281057635629  0.8137893484667614
  0.5168263378893742  0.1905530608779935  0.8137866928580963
  0.3713652884309129  0.3713597128833884  0.5868372609602222
  0.6286389996058488  0.6286373208536429  0.4131610863095294
  0.1796520253133047  0.5249998024956379  0.3376960356038447
  0.5250004170576547  0.1796527792935036  0.3376962650148959
  0.8203488028365515  0.4749933503991278  0.6623062391643657
  0.4749967173209463  0.8203392761966486  0.6623027526417049
  0.3641678959786154  0.3641693952125497  0.0583606138287376
  0.6358414905457230  0.6358432995676898  0.9416399262035690
  0.8679760341272984  0.5067747937719994  0.3609604724463662
  0.5067738348799972  0.8679770733937484  0.3609600986242018
  0.1320194191932413  0.4932147940968206  0.6390428625527428
  0.4932202876472903  0.1320167542444886  0.6390391195578140
  0.1360781401575389  0.4613091414798335  0.1364255077253700
  0.4613069704704291  0.1360793254756575  0.1364265028927953
  0.8639211969876056  0.5386894412678743  0.8635753899417046
  0.5386891570367751  0.8639251262834639  0.8635769432017347
  0.2478101244750102  0.2478104204545001  0.4134731351871694
  0.7521897679726403  0.7521873256621847  0.5865245856404685
  0.7861276396029362  0.7861286337766015  0.1029231684515608
  0.2138745900779620  0.2138747113536565  0.8970796077335320
  0.0921545703029154  0.0921568811789277  0.2357721957212958
  0.9078492275741117  0.9078517195277671  0.7642229138748592
  0.8316939496238982  0.1683047440880108  0.4999991401538204
  0.1683037290322805  0.8316923716008184  0.4999987292340466
  0.8391689907611988  0.1608333507802513  0.9999991688849865
  0.1608304067328824  0.8391741415032993  0.9999995506462386
 
  0.00000000E+00  0.00000000E+00  0.00000000E+00
  0.00000000E+00  0.00000000E+00  0.00000000E+00
  0.00000000E+00  0.00000000E+00  0.00000000E+00
  0.00000000E+00  0.00000000E+00  0.00000000E+00
  0.00000000E+00  0.00000000E+00  0.00000000E+00
  0.00000000E+00  0.00000000E+00  0.00000000E+00
  0.00000000E+00  0.00000000E+00  0.00000000E+00
  0.00000000E+00  0.00000000E+00  0.00000000E+00
  0.00000000E+00  0.00000000E+00  0.00000000E+00
  0.00000000E+00  0.00000000E+00  0.00000000E+00
  0.00000000E+00  0.00000000E+00  0.00000000E+00
  0.00000000E+00  0.00000000E+00  0.00000000E+00
  0.00000000E+00  0.00000000E+00  0.00000000E+00
  0.00000000E+00  0.00000000E+00  0.00000000E+00
  0.00000000E+00  0.00000000E+00  0.00000000E+00
  0.00000000E+00  0.00000000E+00  0.00000000E+00
  0.00000000E+00  0.00000000E+00  0.00000000E+00
  0.00000000E+00  0.00000000E+00  0.00000000E+00
  0.00000000E+00  0.00000000E+00  0.00000000E+00
  0.00000000E+00  0.00000000E+00  0.00000000E+00
  0.00000000E+00  0.00000000E+00  0.00000000E+00
  0.00000000E+00  0.00000000E+00  0.00000000E+00
  0.00000000E+00  0.00000000E+00  0.00000000E+00
  0.00000000E+00  0.00000000E+00  0.00000000E+00
  0.00000000E+00  0.00000000E+00  0.00000000E+00
  0.00000000E+00  0.00000000E+00  0.00000000E+00
  0.00000000E+00  0.00000000E+00  0.00000000E+00
  0.00000000E+00  0.00000000E+00  0.00000000E+00
  0.00000000E+00  0.00000000E+00  0.00000000E+00
  0.00000000E+00  0.00000000E+00  0.00000000E+00
