Strontium Calcium Zinc Nitride          
   1.00000000000000     
     3.3695420059059642   -0.0000005243214266   -0.0000397869760240
    -0.0000005232025301    3.3695433254995844   -0.0000193292456700
    -0.0001524704609764   -0.0000741217136214   12.9016011943250000
   Ca   Zn   Mg   N 
     2     2     2     4
Direct
  0.0000046447809471  0.0000026506082360  0.3256370131350508
  0.0000041033697328  0.0000021552942239  0.6744454837283405
  0.5000072899314671  0.5000025122388304  0.8191588122528892
  0.5000000434086945  0.5000019797729680  0.1808541864326287
  0.9999575009890826  0.9999778391693093  0.9999011570453489
  0.5000014934078441  0.5000008298565218  0.5000102942149837
  0.0000057320860544  0.0000009531983425  0.1498471420766202
  0.0000095683524526  0.0000059448318003  0.8500988182897272
  0.5000036735471054  0.5000019617188750  0.6509827730065084
  0.5000059501266190  0.5000031733108926  0.3490643198179025
 
  0.00000000E+00  0.00000000E+00  0.00000000E+00
  0.00000000E+00  0.00000000E+00  0.00000000E+00
  0.00000000E+00  0.00000000E+00  0.00000000E+00
  0.00000000E+00  0.00000000E+00  0.00000000E+00
  0.00000000E+00  0.00000000E+00  0.00000000E+00
  0.00000000E+00  0.00000000E+00  0.00000000E+00
  0.00000000E+00  0.00000000E+00  0.00000000E+00
  0.00000000E+00  0.00000000E+00  0.00000000E+00
  0.00000000E+00  0.00000000E+00  0.00000000E+00
  0.00000000E+00  0.00000000E+00  0.00000000E+00
