Strontium Calcium Zinc Nitride          
   1.00000000000000     
     4.2834132619718943   -0.0000500991671642   -0.0000140033379905
    -0.0000502815721139    4.2858213543573891   -0.0000071108465432
    -0.0000489657167255   -0.0000245649044195   16.0497863013759137
   Sr   Ca   Mg   P 
     2     2     2     4
Direct
 -0.0001251454564035 -0.0000759874191909  0.3344803305360861
 -0.0001172062547073 -0.0000687645914143  0.6655088963181242
  0.5002429891295632  0.5004403248778785  0.8305461301476270
  0.5002078063448443  0.5004279425055009  0.1694577939136426
  0.0000041494032343  0.0000678564200838  0.0000017132553619
  0.5000077966604808  0.4989462757205451  0.5000052059855090
  0.0000124073046323  0.0002260910967327  0.1474559945197303
  0.0000738519890169  0.0002305511825621  0.8525455497119475
  0.4998516376354527  0.4999064385247752  0.6469307163573087
  0.4998417132438720  0.4998992716825122  0.3530676692546551
 
  0.00000000E+00  0.00000000E+00  0.00000000E+00
  0.00000000E+00  0.00000000E+00  0.00000000E+00
  0.00000000E+00  0.00000000E+00  0.00000000E+00
  0.00000000E+00  0.00000000E+00  0.00000000E+00
  0.00000000E+00  0.00000000E+00  0.00000000E+00
  0.00000000E+00  0.00000000E+00  0.00000000E+00
  0.00000000E+00  0.00000000E+00  0.00000000E+00
  0.00000000E+00  0.00000000E+00  0.00000000E+00
  0.00000000E+00  0.00000000E+00  0.00000000E+00
  0.00000000E+00  0.00000000E+00  0.00000000E+00
