Sr4 Li4 Al4 N8                          
   1.00000000000000     
     5.9823952492660135    0.0000000471814435    0.0098167114663405
     0.0000000326604682    7.1465050000020307   -0.0000000248513162
     0.0375218370909846   -0.0000000231069269    5.9411104567864799
   Li   Sr   Al   N 
     4     4     4     8
Direct
  0.3809154602246481  0.4243948795587777  0.8949136915874135
  0.6190822479697470  0.9243997922391267  0.6050862080064611
  0.6190822497700882  0.5756001772384974  0.1050862130494004
  0.3809154841243784  0.0756051142710868  0.3949136518079345
  0.0381660130286779  0.1304789078053058  0.7393150688168943
  0.9618304637457291  0.6304804117938825  0.7606888438700683
  0.9618304392466455  0.8695195937616527  0.2606888526797229
  0.0381659958996875  0.3695210683695019  0.2393150520306188
  0.6090425834961837  0.3564773150921607  0.5643146137990830
  0.3909583419944011  0.8564775342772709  0.9356849093137459
  0.3909583448604153  0.6435224682068219  0.4356849016285531
  0.6090425659377295  0.1435226914702588  0.0643145884763898
  0.2903250569576490  0.8489319846358450  0.6162382298139546
  0.7096767994821712  0.3489321269761901  0.8837608957806985
  0.7096767731612584  0.1510678846936011  0.3837608681877379
  0.2903250651713807  0.6510680239460532  0.1162382410823936
  0.2937147316224924  0.4069289160885681  0.5710360374676264
  0.7062883207398509  0.9069307449730224  0.9289615638773083
  0.7062883497504240  0.5930692603994924  0.4289615598956829
  0.2937147128164424  0.0930711042028622  0.0710360088283124
 
  0.00000000E+00  0.00000000E+00  0.00000000E+00
  0.00000000E+00  0.00000000E+00  0.00000000E+00
  0.00000000E+00  0.00000000E+00  0.00000000E+00
  0.00000000E+00  0.00000000E+00  0.00000000E+00
  0.00000000E+00  0.00000000E+00  0.00000000E+00
  0.00000000E+00  0.00000000E+00  0.00000000E+00
  0.00000000E+00  0.00000000E+00  0.00000000E+00
  0.00000000E+00  0.00000000E+00  0.00000000E+00
  0.00000000E+00  0.00000000E+00  0.00000000E+00
  0.00000000E+00  0.00000000E+00  0.00000000E+00
  0.00000000E+00  0.00000000E+00  0.00000000E+00
  0.00000000E+00  0.00000000E+00  0.00000000E+00
  0.00000000E+00  0.00000000E+00  0.00000000E+00
  0.00000000E+00  0.00000000E+00  0.00000000E+00
  0.00000000E+00  0.00000000E+00  0.00000000E+00
  0.00000000E+00  0.00000000E+00  0.00000000E+00
  0.00000000E+00  0.00000000E+00  0.00000000E+00
  0.00000000E+00  0.00000000E+00  0.00000000E+00
  0.00000000E+00  0.00000000E+00  0.00000000E+00
  0.00000000E+00  0.00000000E+00  0.00000000E+00
