K4 Sr4 Ga4 N8                           
   1.00000000000000     
     6.4624510571074643    0.0000665885262133   -0.6913052815258116
     0.0000859990561048    9.0917411886198476   -0.0000666551158624
    -0.6824925594546434   -0.0000473780015909    6.0083233822774620
   K    Sr   Ga   N 
     4     4     4     8
Direct
  0.3345085957997297  0.3745021599509614  0.0457856636935385
  0.6654974549176939  0.8744741753491306  0.4541910838207689
  0.6654900575887206  0.6255128969679757  0.9542150923148035
  0.3345513325894727  0.1254992710116503  0.5458147096844149
  0.9111986656093527  0.1130446234409133  0.7834538018116122
  0.0887990038543280  0.6130501610126358  0.7165497477609128
  0.0888059508422152  0.8869668693953122  0.2165509148894969
  0.9112042086357208  0.3869472007098551  0.2834569463663352
  0.6014061077482983  0.3746381925829617  0.5926366208565241
  0.3985896990373613  0.8746325397829948  0.9073629735014590
  0.3985864851360860  0.6253670790333847  0.4073676887747436
  0.6014045545907720  0.1253628430792051  0.0926367730510651
  0.2988493734735045  0.8055878576339550  0.5912978401000565
  0.7011322870459439  0.3055957464676232  0.9087004682682714
  0.7011436233437465  0.1944018125396675  0.4087003043686082
  0.2988517778261323  0.6944184506769189  0.0913014242664184
  0.2963552501434992  0.4353049102160997  0.5161743531069070
  0.7036342987336124  0.9353006182573889  0.9838101064716231
  0.7036314021808369  0.5646939926684124  0.4838162572962122
  0.2963598709029597  0.0646985992229751  0.0161772295962276
 
  0.00000000E+00  0.00000000E+00  0.00000000E+00
  0.00000000E+00  0.00000000E+00  0.00000000E+00
  0.00000000E+00  0.00000000E+00  0.00000000E+00
  0.00000000E+00  0.00000000E+00  0.00000000E+00
  0.00000000E+00  0.00000000E+00  0.00000000E+00
  0.00000000E+00  0.00000000E+00  0.00000000E+00
  0.00000000E+00  0.00000000E+00  0.00000000E+00
  0.00000000E+00  0.00000000E+00  0.00000000E+00
  0.00000000E+00  0.00000000E+00  0.00000000E+00
  0.00000000E+00  0.00000000E+00  0.00000000E+00
  0.00000000E+00  0.00000000E+00  0.00000000E+00
  0.00000000E+00  0.00000000E+00  0.00000000E+00
  0.00000000E+00  0.00000000E+00  0.00000000E+00
  0.00000000E+00  0.00000000E+00  0.00000000E+00
  0.00000000E+00  0.00000000E+00  0.00000000E+00
  0.00000000E+00  0.00000000E+00  0.00000000E+00
  0.00000000E+00  0.00000000E+00  0.00000000E+00
  0.00000000E+00  0.00000000E+00  0.00000000E+00
  0.00000000E+00  0.00000000E+00  0.00000000E+00
  0.00000000E+00  0.00000000E+00  0.00000000E+00
