Na12 Zn3 P6                             
   1.00000000000000     
     4.9378264566327825   -0.0017167593362776   -0.0002162960563632
    -2.4703992246235855    4.2749403031918360    0.0012908868149094
    -0.0009904988084075    0.0067195108179121   24.3133981604800908
   Na   Zn   P 
    12     3     6
Direct
  0.0014296835749826  0.0004713916540828  0.7917125531504809
  0.0005138781213785  0.0014650514672830  0.2082719412531489
  0.6667189608080831  0.3332595259460253  0.1252612746012068
  0.6666717236077426  0.3333261049620633  0.5411604796011937
  0.3333154189203595  0.6666688429196329  0.4588459676357678
  0.3332471095265891  0.6666513673959403  0.8747449825712073
  0.0001579955883408 -0.0000493841281870  0.6039870016044120
  0.0000636176499580  0.0003660064571311  0.3960193035069280
  0.6646935276688859  0.3321719279483378  0.9380412046559268
  0.6668119202658096  0.3333258338627944  0.7298870658483052
  0.3327245577106294  0.6673679414860307  0.2701226375720926
  0.3344358487168257  0.6655495389115204  0.0621360731220314
  0.9999558780920549 -0.0001317541886770 -0.0000481484033963
  0.6659633999851464  0.3339583718774316  0.3331591013123948
  0.3338910351368276  0.6661111459368866  0.6668100299443839
  0.9985013269213784  0.9993178625116238  0.9101763792474918
  0.0008115051943310  0.9993234126191989  0.0897683312448145
  0.6661249386998627  0.3342946910141582  0.2433528135440041
  0.6665603264580804  0.3335425460408011  0.4229907019010969
  0.3333857152541545  0.6666374652211897  0.5769844575257927
  0.3340216320985865  0.6663721100847392  0.7566158485607013
 
  0.00000000E+00  0.00000000E+00  0.00000000E+00
  0.00000000E+00  0.00000000E+00  0.00000000E+00
  0.00000000E+00  0.00000000E+00  0.00000000E+00
  0.00000000E+00  0.00000000E+00  0.00000000E+00
  0.00000000E+00  0.00000000E+00  0.00000000E+00
  0.00000000E+00  0.00000000E+00  0.00000000E+00
  0.00000000E+00  0.00000000E+00  0.00000000E+00
  0.00000000E+00  0.00000000E+00  0.00000000E+00
  0.00000000E+00  0.00000000E+00  0.00000000E+00
  0.00000000E+00  0.00000000E+00  0.00000000E+00
  0.00000000E+00  0.00000000E+00  0.00000000E+00
  0.00000000E+00  0.00000000E+00  0.00000000E+00
  0.00000000E+00  0.00000000E+00  0.00000000E+00
  0.00000000E+00  0.00000000E+00  0.00000000E+00
  0.00000000E+00  0.00000000E+00  0.00000000E+00
  0.00000000E+00  0.00000000E+00  0.00000000E+00
  0.00000000E+00  0.00000000E+00  0.00000000E+00
  0.00000000E+00  0.00000000E+00  0.00000000E+00
  0.00000000E+00  0.00000000E+00  0.00000000E+00
  0.00000000E+00  0.00000000E+00  0.00000000E+00
  0.00000000E+00  0.00000000E+00  0.00000000E+00
