Sr6 Li6 In6 N12                         
   1.00000000000000     
    -3.1623806806869159   -5.4289216230707504    0.0832813527800736
    -3.1623776803806898    5.4289198986211193    0.0832802038705457
     0.0378647611594706    0.0000013696937521  -13.0462294104040115
   In   Li   N    Sr
     6     6    12     6
Direct
  0.8097982045907396  0.4842165385071758  0.1861479625437132
  0.4842157235871581  0.8097984276073193  0.1861480562548999
  0.1902009295607531  0.5157843157169182  0.8138510588387384
  0.5157840745649424  0.1902023675143766  0.8138512310537823
  0.3857251604946247  0.3857205840764461  0.5892359914583148
  0.6142806073756601  0.6142745396959212  0.4107638799545925
  0.1819489731074410  0.5453010826744811  0.3281798776769043
  0.5453019600313903  0.1819503690705492  0.3281797432189575
  0.8180484890568608  0.4546974276917075  0.6718179031719985
  0.4546978921133186  0.8180494759048822  0.6718194906588564
  0.3874121563097161  0.3874120295374188  0.0704120806249717
  0.6125886524606121  0.6125892555971786  0.9295904933958733
  0.8687296812170108  0.5193330164081763  0.3520562452239094
  0.5193316217348066  0.8687326104113439  0.3520560074857075
  0.1312688381756582  0.4806726986775019  0.6479431838861315
  0.4806712475361583  0.1312723424337091  0.6479423995813731
  0.1414333359352221  0.4716021197169710  0.1425617642391692
  0.4716015543074525  0.1414329021677122  0.1425614777128708
  0.8585680419243850  0.5283972864548410  0.8574406843637000
  0.5283966914011774  0.8585664658300582  0.8574393249309205
  0.2601235366930299  0.2601242875640429  0.4225004260988797
  0.7398753571887634  0.7398736397286955  0.5774990668759263
  0.7651979639236129  0.7651985402375313  0.1010180564832331
  0.2347994629170330  0.2347988883272361  0.8989803623102826
  0.0783292330878820  0.0783295705456649  0.2455392875289897
  0.9216668732466197  0.9216668278079955  0.7544629229399109
  0.8289927618002613  0.1710063878070164  0.5000007467569392
  0.1710085680590862  0.8289939595252162  0.5000004550361575
  0.8375841175560371  0.1624185214425750 -0.0000003500308987
  0.1624182900425865  0.8375835213193672  0.0000001697251946
 
  0.00000000E+00  0.00000000E+00  0.00000000E+00
  0.00000000E+00  0.00000000E+00  0.00000000E+00
  0.00000000E+00  0.00000000E+00  0.00000000E+00
  0.00000000E+00  0.00000000E+00  0.00000000E+00
  0.00000000E+00  0.00000000E+00  0.00000000E+00
  0.00000000E+00  0.00000000E+00  0.00000000E+00
  0.00000000E+00  0.00000000E+00  0.00000000E+00
  0.00000000E+00  0.00000000E+00  0.00000000E+00
  0.00000000E+00  0.00000000E+00  0.00000000E+00
  0.00000000E+00  0.00000000E+00  0.00000000E+00
  0.00000000E+00  0.00000000E+00  0.00000000E+00
  0.00000000E+00  0.00000000E+00  0.00000000E+00
  0.00000000E+00  0.00000000E+00  0.00000000E+00
  0.00000000E+00  0.00000000E+00  0.00000000E+00
  0.00000000E+00  0.00000000E+00  0.00000000E+00
  0.00000000E+00  0.00000000E+00  0.00000000E+00
  0.00000000E+00  0.00000000E+00  0.00000000E+00
  0.00000000E+00  0.00000000E+00  0.00000000E+00
  0.00000000E+00  0.00000000E+00  0.00000000E+00
  0.00000000E+00  0.00000000E+00  0.00000000E+00
  0.00000000E+00  0.00000000E+00  0.00000000E+00
  0.00000000E+00  0.00000000E+00  0.00000000E+00
  0.00000000E+00  0.00000000E+00  0.00000000E+00
  0.00000000E+00  0.00000000E+00  0.00000000E+00
  0.00000000E+00  0.00000000E+00  0.00000000E+00
  0.00000000E+00  0.00000000E+00  0.00000000E+00
  0.00000000E+00  0.00000000E+00  0.00000000E+00
  0.00000000E+00  0.00000000E+00  0.00000000E+00
  0.00000000E+00  0.00000000E+00  0.00000000E+00
  0.00000000E+00  0.00000000E+00  0.00000000E+00
