Sr6 Li6 In6 P12                         
   1.00000000000000     
    -3.6398716638794624   -6.4236713005606090    0.0301715670521210
    -3.6398003440493372    6.4236308980455572    0.0301737306006689
    -0.2282437588008096   -0.0000027726202235  -14.9464354981591718
   In   Li   P    Sr
     6     6    12     6
Direct
  0.8019796711051127  0.4778916733390772  0.1837605919009223
  0.4778941836870136  0.8019821051987376  0.1837624085482487
  0.1980190043937873  0.5221067400152292  0.8162387300498387
  0.5221165243711574  0.1980417842551192  0.8162423479716832
  0.3774343810298430  0.3774344813851614  0.5817379431813933
  0.6225675911073559  0.6225668601435860  0.4182629242462246
  0.2062632836569296  0.5270805922259312  0.3244979888416289
  0.5270756427218674  0.2062574561990822  0.3244973860234873
  0.7937391042411235  0.4729198949522413  0.6755024719171903
  0.4729198818928199  0.7937377863263683  0.6755012817529193
  0.3810646496456429  0.3810632428059298  0.0660171291170310
  0.6189347792030597  0.6189333679601956  0.9339829710980638
  0.8872458732011860  0.5517949193164108  0.3502462720710426
  0.5518001223958403  0.8872379040606262  0.3502472227913861
  0.1127552289833824  0.4482023075225804  0.6497538720512143
  0.4482028462909098  0.1127547849727680  0.6497536234267052
  0.1308413897754475  0.4607287599010211  0.1440740967096760
  0.4607284065562527  0.1308430383262457  0.1440757771431559
  0.8691545506921934  0.5392701550962880  0.8559232292779347
  0.5392720287014288  0.8691552130843776  0.8559232415973126
  0.2566966100648311  0.2566955718917824  0.4166544637513848
  0.7433064834902183  0.7433053093441169  0.5833483813489934
  0.7526523478678435  0.7526529924625507  0.0945104462161814
  0.2473446563884377  0.2473453320143333  0.9054885515867648
  0.0229642460232351  0.0229670791729001  0.2508083948600536
  0.9770312384255658  0.9770325137051156  0.7491907363482722
  0.8273344013069960  0.1726658360304378  0.4999988270597950
  0.1726657034011183  0.8273338780100967  0.4999993105073321
  0.8305298309461063  0.1694662590954636 -0.0000004782867263
  0.1694653384332937  0.8305321611862259 -0.0000001431091167
 
  0.00000000E+00  0.00000000E+00  0.00000000E+00
  0.00000000E+00  0.00000000E+00  0.00000000E+00
  0.00000000E+00  0.00000000E+00  0.00000000E+00
  0.00000000E+00  0.00000000E+00  0.00000000E+00
  0.00000000E+00  0.00000000E+00  0.00000000E+00
  0.00000000E+00  0.00000000E+00  0.00000000E+00
  0.00000000E+00  0.00000000E+00  0.00000000E+00
  0.00000000E+00  0.00000000E+00  0.00000000E+00
  0.00000000E+00  0.00000000E+00  0.00000000E+00
  0.00000000E+00  0.00000000E+00  0.00000000E+00
  0.00000000E+00  0.00000000E+00  0.00000000E+00
  0.00000000E+00  0.00000000E+00  0.00000000E+00
  0.00000000E+00  0.00000000E+00  0.00000000E+00
  0.00000000E+00  0.00000000E+00  0.00000000E+00
  0.00000000E+00  0.00000000E+00  0.00000000E+00
  0.00000000E+00  0.00000000E+00  0.00000000E+00
  0.00000000E+00  0.00000000E+00  0.00000000E+00
  0.00000000E+00  0.00000000E+00  0.00000000E+00
  0.00000000E+00  0.00000000E+00  0.00000000E+00
  0.00000000E+00  0.00000000E+00  0.00000000E+00
  0.00000000E+00  0.00000000E+00  0.00000000E+00
  0.00000000E+00  0.00000000E+00  0.00000000E+00
  0.00000000E+00  0.00000000E+00  0.00000000E+00
  0.00000000E+00  0.00000000E+00  0.00000000E+00
  0.00000000E+00  0.00000000E+00  0.00000000E+00
  0.00000000E+00  0.00000000E+00  0.00000000E+00
  0.00000000E+00  0.00000000E+00  0.00000000E+00
  0.00000000E+00  0.00000000E+00  0.00000000E+00
  0.00000000E+00  0.00000000E+00  0.00000000E+00
  0.00000000E+00  0.00000000E+00  0.00000000E+00
