Li4 Mg4 Al4 N8                          
   1.00000000000000     
     5.3894353882427097   -0.0000002146204903   -0.0764059310560167
    -0.0000003329303160    6.5015733553979613    0.0000002103395403
    -0.0500984375517741    0.0000002054554282    5.5461732699350108
   Li   Mg   Al   N 
     4     4     4     8
Direct
  0.3526662840982587  0.4036410664486808  0.9032464341506822
  0.6473338328692718  0.9036410269506169  0.5967538251063420
  0.6473340219757440  0.5963588122543524  0.0967536104595877
  0.3526657070780150  0.0963587460678973  0.4032457163437624
  0.0472232407221583  0.1452815493094847  0.7302277320929054
  0.9527758864314579  0.6452820926148427  0.7697728144890292
  0.9527769057080737  0.8547180007500166  0.2697727694164709
  0.0472244081670756  0.3547180659307719  0.2302272938801768
  0.6416853997611512  0.3614754496961273  0.5703175455360386
  0.3583146195419234  0.8614753479941765  0.9296826506084244
  0.3583147470993968  0.6385247901317374  0.4296823832297754
  0.6416854289300226  0.1385247922914057  0.0703173611280207
  0.2304094491004444  0.8572047751806529  0.6071974494396275
  0.7695905532619883  0.3572047198994357  0.8928024842906054
  0.7695905320564628  0.1427952799153146  0.3928024266573840
  0.2304093001213328  0.6427953504195825  0.1071974478853635
  0.2850063688085371  0.3767475616703668  0.5551994913699764
  0.7149934770680371  0.8767475302311813  0.9448005533754749
  0.7149934596872781  0.6232525507516526  0.4448003931691025
  0.2850063775133627  0.1232524914917035  0.0551996173712292
 
  0.00000000E+00  0.00000000E+00  0.00000000E+00
  0.00000000E+00  0.00000000E+00  0.00000000E+00
  0.00000000E+00  0.00000000E+00  0.00000000E+00
  0.00000000E+00  0.00000000E+00  0.00000000E+00
  0.00000000E+00  0.00000000E+00  0.00000000E+00
  0.00000000E+00  0.00000000E+00  0.00000000E+00
  0.00000000E+00  0.00000000E+00  0.00000000E+00
  0.00000000E+00  0.00000000E+00  0.00000000E+00
  0.00000000E+00  0.00000000E+00  0.00000000E+00
  0.00000000E+00  0.00000000E+00  0.00000000E+00
  0.00000000E+00  0.00000000E+00  0.00000000E+00
  0.00000000E+00  0.00000000E+00  0.00000000E+00
  0.00000000E+00  0.00000000E+00  0.00000000E+00
  0.00000000E+00  0.00000000E+00  0.00000000E+00
  0.00000000E+00  0.00000000E+00  0.00000000E+00
  0.00000000E+00  0.00000000E+00  0.00000000E+00
  0.00000000E+00  0.00000000E+00  0.00000000E+00
  0.00000000E+00  0.00000000E+00  0.00000000E+00
  0.00000000E+00  0.00000000E+00  0.00000000E+00
  0.00000000E+00  0.00000000E+00  0.00000000E+00
