Sr4 Li4 In4 P8                          
   1.00000000000000     
     7.1795474180410626   -0.0000047942192592    0.0010198613233485
    -0.0000057636089051    8.6379176934186717    0.0000029762608854
     0.0437252967387109    0.0000025435137815    7.4232559613621003
   Li   Sr   In   P 
     4     4     4     8
Direct
  0.3737530827347197  0.3823612688329381  0.9134501932276001
  0.6262466765293526  0.8823614386414020  0.5865498341967899
  0.6262466199693241  0.6176385081270375  0.0865497776022493
  0.3737530701670712  0.1176386924448477  0.4134502976889768
  0.0063557032817397  0.1269318686701027  0.7449465501265424
  0.9936444699747073  0.6269317179324987  0.7550530895337093
  0.9936443988336375  0.8730682515555777  0.2550533452930157
  0.0063556593108237  0.3730682333122430  0.2449469089131437
  0.6253041139313317  0.3642732405883456  0.5849015121564648
  0.3746959125795264  0.8642724849089340  0.9150979226245177
  0.3746958372450222  0.6357266784761541  0.4150985375991622
  0.6253040689619016  0.1357275867381751  0.0849020646535830
  0.2579658054830054  0.8756247082594348  0.5858664038096404
  0.7420341451411180  0.3756245677190502  0.9141336463075479
  0.7420342563734318  0.1243753312647816  0.4141335421750936
  0.2579659109469364  0.6243754537509740  0.0858662687752151
  0.2650574502442018  0.3816883500388906  0.5763908113959925
  0.7349422224248243  0.8816877046581799  0.9236087304481978
  0.7349428016846984  0.6183115886387452  0.4236092542046192
  0.2650577941826335  0.1183123254416873  0.0763913092679387
 
  0.00000000E+00  0.00000000E+00  0.00000000E+00
  0.00000000E+00  0.00000000E+00  0.00000000E+00
  0.00000000E+00  0.00000000E+00  0.00000000E+00
  0.00000000E+00  0.00000000E+00  0.00000000E+00
  0.00000000E+00  0.00000000E+00  0.00000000E+00
  0.00000000E+00  0.00000000E+00  0.00000000E+00
  0.00000000E+00  0.00000000E+00  0.00000000E+00
  0.00000000E+00  0.00000000E+00  0.00000000E+00
  0.00000000E+00  0.00000000E+00  0.00000000E+00
  0.00000000E+00  0.00000000E+00  0.00000000E+00
  0.00000000E+00  0.00000000E+00  0.00000000E+00
  0.00000000E+00  0.00000000E+00  0.00000000E+00
  0.00000000E+00  0.00000000E+00  0.00000000E+00
  0.00000000E+00  0.00000000E+00  0.00000000E+00
  0.00000000E+00  0.00000000E+00  0.00000000E+00
  0.00000000E+00  0.00000000E+00  0.00000000E+00
  0.00000000E+00  0.00000000E+00  0.00000000E+00
  0.00000000E+00  0.00000000E+00  0.00000000E+00
  0.00000000E+00  0.00000000E+00  0.00000000E+00
  0.00000000E+00  0.00000000E+00  0.00000000E+00
