K4 Sr4 In4 P8                           
   1.00000000000000     
     7.3717539932898619   -0.0000222460138722   -0.3353904662426658
    -0.0000121584384554   10.3433945769425559    0.0004881272415387
    -0.3123355010436646    0.0003557180677182    7.5135244833546802
   K    Sr   In   P 
     4     4     4     8
Direct
  0.3472712183304844  0.3777267039717375  0.9817223048993960
  0.6528005964755980  0.8776995246455056  0.5183564391715214
  0.6526921899784478  0.6222537272267836  0.0182829482595702
  0.3472799803399024  0.1222869089432925  0.4816583414580782
  0.9625597223229345  0.1075045429566584  0.7681916420070515
  0.0374251267739649  0.6074180106673628  0.7318656303005044
  0.0374145919920306  0.8925229101742953  0.2318361800460738
  0.9625853090362549  0.3925750367930348  0.2681642972475247
  0.6317136512840322  0.3699983514573621  0.5859306730504110
  0.3683120523031678  0.8699991881736325  0.9140389079989862
  0.3682594525404395  0.6299823622118248  0.4140399080272700
  0.6317649307536320  0.1300251268866515  0.0859638617293484
  0.2311868174571508  0.8330201174835008  0.5889577303912221
  0.7688353255897837  0.3330819912822300  0.9110063312340562
  0.7688058268796654  0.1669682895547519  0.4109996181782378
  0.2311284867518388  0.6669247000820264  0.0889853743224643
  0.2782097198864067  0.4128389709411751  0.5522829315961237
  0.7217533519169569  0.9129249929984645  0.9477584051362137
  0.7217738578680117  0.5871455755062596  0.4477030205823522
  0.2782277915193034  0.0871029680434568  0.0522554543635944
 
  0.00000000E+00  0.00000000E+00  0.00000000E+00
  0.00000000E+00  0.00000000E+00  0.00000000E+00
  0.00000000E+00  0.00000000E+00  0.00000000E+00
  0.00000000E+00  0.00000000E+00  0.00000000E+00
  0.00000000E+00  0.00000000E+00  0.00000000E+00
  0.00000000E+00  0.00000000E+00  0.00000000E+00
  0.00000000E+00  0.00000000E+00  0.00000000E+00
  0.00000000E+00  0.00000000E+00  0.00000000E+00
  0.00000000E+00  0.00000000E+00  0.00000000E+00
  0.00000000E+00  0.00000000E+00  0.00000000E+00
  0.00000000E+00  0.00000000E+00  0.00000000E+00
  0.00000000E+00  0.00000000E+00  0.00000000E+00
  0.00000000E+00  0.00000000E+00  0.00000000E+00
  0.00000000E+00  0.00000000E+00  0.00000000E+00
  0.00000000E+00  0.00000000E+00  0.00000000E+00
  0.00000000E+00  0.00000000E+00  0.00000000E+00
  0.00000000E+00  0.00000000E+00  0.00000000E+00
  0.00000000E+00  0.00000000E+00  0.00000000E+00
  0.00000000E+00  0.00000000E+00  0.00000000E+00
  0.00000000E+00  0.00000000E+00  0.00000000E+00
