Na6 Sr6 Ga6 P12                         
   1.00000000000000     
    -3.5867746110529599   -6.5493887100305699    0.0492428298795668
    -3.5867712115513752    6.5493869265564397    0.0492381827297167
    -0.1457284208529464    0.0000042149208884  -15.0176760631053252
   Ga   Na   P    Sr
     6     6    12     6
Direct
  0.8214384696545510  0.4999033623455473  0.1853394523119338
  0.4999034237051539  0.8214382961342093  0.1853393942621562
  0.1785615746366292  0.5000977636688930  0.8146601399010682
  0.5000982189024541  0.1785618970977105  0.8146601566566092
  0.3864843089031404  0.3864844960361293  0.5848462855088802
  0.6135153450962625  0.6135151636328994  0.4151542027844290
  0.1937199527770668  0.5201410149706883  0.3223435926099827
  0.5201409764810181  0.1937200068539947  0.3223438326695641
  0.8062786561380917  0.4798595129136949  0.6776564183927534
  0.4798594627573396  0.8062786008752131  0.6776563251027312
  0.3768880038414273  0.3768882434372788  0.0735545278818860
  0.6231084270132221  0.6231085816984853  0.9264555773280143
  0.8774029204715080  0.5813180669272553  0.3462943947498590
  0.5813183777683337  0.8774030202279642  0.3462942023337455
  0.1226011631778114  0.4186885692566090  0.6537042023281234
  0.4186882312341426  0.1226009777559091  0.6537042654989539
  0.1393889426823983  0.5152190117418373  0.1412683145904151
  0.5152193137833447  0.1393893873287690  0.1412682415316391
  0.8606097009597987  0.4847820594760587  0.8587312802543463
  0.4847818305089779  0.8606096887345326  0.8587313074947892
  0.2699991659064579  0.2699995409575407  0.4321899666520609
  0.7300048361877213  0.7300045880621518  0.5678095040539339
  0.7609282184044666  0.7609280397789182  0.1074442382887590
  0.2390644219671221  0.2390643374533452  0.8925539189819787
  0.0100358939200810  0.0100364225414107  0.2616764347677510
  0.9899584126740805  0.9899584272716633  0.7383219354662819
  0.8318309419418636  0.1681749815928112  0.4999993141872835
  0.1681750261847594  0.8318301184847228  0.4999998785904529
  0.8327082922374236  0.1672875498802800 -0.0000006868286174
  0.1672874900833654  0.8327082728634922 -0.0000006183517852
 
  0.00000000E+00  0.00000000E+00  0.00000000E+00
  0.00000000E+00  0.00000000E+00  0.00000000E+00
  0.00000000E+00  0.00000000E+00  0.00000000E+00
  0.00000000E+00  0.00000000E+00  0.00000000E+00
  0.00000000E+00  0.00000000E+00  0.00000000E+00
  0.00000000E+00  0.00000000E+00  0.00000000E+00
  0.00000000E+00  0.00000000E+00  0.00000000E+00
  0.00000000E+00  0.00000000E+00  0.00000000E+00
  0.00000000E+00  0.00000000E+00  0.00000000E+00
  0.00000000E+00  0.00000000E+00  0.00000000E+00
  0.00000000E+00  0.00000000E+00  0.00000000E+00
  0.00000000E+00  0.00000000E+00  0.00000000E+00
  0.00000000E+00  0.00000000E+00  0.00000000E+00
  0.00000000E+00  0.00000000E+00  0.00000000E+00
  0.00000000E+00  0.00000000E+00  0.00000000E+00
  0.00000000E+00  0.00000000E+00  0.00000000E+00
  0.00000000E+00  0.00000000E+00  0.00000000E+00
  0.00000000E+00  0.00000000E+00  0.00000000E+00
  0.00000000E+00  0.00000000E+00  0.00000000E+00
  0.00000000E+00  0.00000000E+00  0.00000000E+00
  0.00000000E+00  0.00000000E+00  0.00000000E+00
  0.00000000E+00  0.00000000E+00  0.00000000E+00
  0.00000000E+00  0.00000000E+00  0.00000000E+00
  0.00000000E+00  0.00000000E+00  0.00000000E+00
  0.00000000E+00  0.00000000E+00  0.00000000E+00
  0.00000000E+00  0.00000000E+00  0.00000000E+00
  0.00000000E+00  0.00000000E+00  0.00000000E+00
  0.00000000E+00  0.00000000E+00  0.00000000E+00
  0.00000000E+00  0.00000000E+00  0.00000000E+00
  0.00000000E+00  0.00000000E+00  0.00000000E+00
