Na4 Sr4 In4 N8                          
   1.00000000000000     
     6.3509119022775700   -0.0000115641471645   -0.0520575184429651
    -0.0000154101734286    7.7754785942619424   -0.0001038858582951
    -0.0216401662006115   -0.0000874678192788    6.5855662860659461
   Na   Sr   In   N 
     4     4     4     8
Direct
  0.3584609234308739  0.3997402066329219  0.9106122928634193
  0.6415465783076320  0.8997398243008855  0.5893883385190907
  0.6415385879576740  0.6002647342253916  0.0893912275252910
  0.3584554789319470  0.1002591739036046  0.4106125933709928
  0.0266031412884944  0.1282508720136579  0.7434524835998754
  0.9733938503592040  0.6282492384148363  0.7565571317231992
  0.9733921717088987  0.8717532755790725  0.2565397612157284
  0.0266240145210007  0.3717506757668507  0.2434280879664443
  0.6314680929581754  0.3591062810389546  0.5731958680053652
  0.3685389430838792  0.8590874751536648  0.9267775740396280
  0.3685605055067866  0.6408867882734652  0.4268072427289090
  0.6314125512012941  0.1409000734120405  0.0732322611135815
  0.2376382986229631  0.8556701699866978  0.6055894425803762
  0.7623641328019718  0.3556712605507383  0.8944099260990596
  0.7623658185310259  0.1443299176122676  0.3944084663543120
  0.2376443433075714  0.6443336724318338  0.1055896717259640
  0.2768428057358743  0.3867646974976540  0.5590303455884622
  0.7231521547164756  0.8867826372775753  0.9409749264472699
  0.7231830325056431  0.6132267743369376  0.4409655571155406
  0.2768145745225928  0.1132322515909431  0.0590368014175053
 
  0.00000000E+00  0.00000000E+00  0.00000000E+00
  0.00000000E+00  0.00000000E+00  0.00000000E+00
  0.00000000E+00  0.00000000E+00  0.00000000E+00
  0.00000000E+00  0.00000000E+00  0.00000000E+00
  0.00000000E+00  0.00000000E+00  0.00000000E+00
  0.00000000E+00  0.00000000E+00  0.00000000E+00
  0.00000000E+00  0.00000000E+00  0.00000000E+00
  0.00000000E+00  0.00000000E+00  0.00000000E+00
  0.00000000E+00  0.00000000E+00  0.00000000E+00
  0.00000000E+00  0.00000000E+00  0.00000000E+00
  0.00000000E+00  0.00000000E+00  0.00000000E+00
  0.00000000E+00  0.00000000E+00  0.00000000E+00
  0.00000000E+00  0.00000000E+00  0.00000000E+00
  0.00000000E+00  0.00000000E+00  0.00000000E+00
  0.00000000E+00  0.00000000E+00  0.00000000E+00
  0.00000000E+00  0.00000000E+00  0.00000000E+00
  0.00000000E+00  0.00000000E+00  0.00000000E+00
  0.00000000E+00  0.00000000E+00  0.00000000E+00
  0.00000000E+00  0.00000000E+00  0.00000000E+00
  0.00000000E+00  0.00000000E+00  0.00000000E+00
