K4 Zn4 In4 P8                           
   1.00000000000000     
     6.5173735911550894   -0.0002268296389750    0.2315169502476137
    -0.0002531243894348    8.3668560467505184   -0.0010728223341862
     0.2915004643941631   -0.0007343592864017    8.7886452198714782
   K    Zn   In   P 
     4     4     4     8
Direct
  0.2800857174978765  0.4430330036861103  0.8921202185722040
  0.7197882261490685  0.9430882247314296  0.6079070036831197
  0.7199655872747561  0.5569045000036349  0.1078780843026613
  0.2798904200761991  0.0569188057581592  0.3921712355423203
  0.0309621759210730  0.0807848662937059  0.8296410908072457
  0.9690425560715851  0.5807689263797766  0.6703754951023486
  0.9690393059669182  0.9191992772548020  0.1703347596075563
  0.0309655301347987  0.4191921895937379  0.3296722999940673
  0.6269159643386415  0.3378371099158093  0.5355231248062157
  0.3730959474854006  0.8378349989232171  0.9644723840089789
  0.3731282744797561  0.6621603583883137  0.4644093624147669
  0.6268541662673495  0.1621549792790304  0.0355353108164564
  0.1928385143841760  0.8155211612275021  0.7039555001276611
  0.8072712059737123  0.3154711040734948  0.7959913622931651
  0.8072656644704029  0.1845290252047103  0.2959530318148010
  0.1928282385261486  0.6845235492777624  0.2039927002846197
  0.2292427339603867  0.3870539611682114  0.5435778603693824
  0.7707910892051079  0.8869365745495668  0.9564548598060731
  0.7708451445911256  0.6130237591202432  0.4564989927929633
  0.2291835372255101  0.1130636251707830  0.0435353228534002
 
  0.00000000E+00  0.00000000E+00  0.00000000E+00
  0.00000000E+00  0.00000000E+00  0.00000000E+00
  0.00000000E+00  0.00000000E+00  0.00000000E+00
  0.00000000E+00  0.00000000E+00  0.00000000E+00
  0.00000000E+00  0.00000000E+00  0.00000000E+00
  0.00000000E+00  0.00000000E+00  0.00000000E+00
  0.00000000E+00  0.00000000E+00  0.00000000E+00
  0.00000000E+00  0.00000000E+00  0.00000000E+00
  0.00000000E+00  0.00000000E+00  0.00000000E+00
  0.00000000E+00  0.00000000E+00  0.00000000E+00
  0.00000000E+00  0.00000000E+00  0.00000000E+00
  0.00000000E+00  0.00000000E+00  0.00000000E+00
  0.00000000E+00  0.00000000E+00  0.00000000E+00
  0.00000000E+00  0.00000000E+00  0.00000000E+00
  0.00000000E+00  0.00000000E+00  0.00000000E+00
  0.00000000E+00  0.00000000E+00  0.00000000E+00
  0.00000000E+00  0.00000000E+00  0.00000000E+00
  0.00000000E+00  0.00000000E+00  0.00000000E+00
  0.00000000E+00  0.00000000E+00  0.00000000E+00
  0.00000000E+00  0.00000000E+00  0.00000000E+00
