Li4 Mg4 Ga4 N8                          
   1.00000000000000     
     5.4373368968740365   -0.0000691202907966   -0.0291888873891966
    -0.0000835680834340    6.5576721224430568   -0.0000048792559827
    -0.0010025835566053   -0.0000044527326266    5.6534546182495227
   Li   Mg   Ga   N 
     4     4     4     8
Direct
  0.3463511224875545  0.3973337281626249  0.9082754680016683
  0.6536450657607324  0.8973332315488661  0.5917180492869349
  0.6536490892109431  0.6026693386351168  0.0917200799274790
  0.3463558960186149  0.1026659265045410  0.4082775538443048
  0.0345103935096301  0.1367270990423543  0.7414952444873907
  0.9655013724323079  0.6367035780287100  0.7585099335493781
  0.9654860205627710  0.8632660130350753  0.2585232997917608
  0.0344961928580782  0.3632998878329434  0.2414961104480453
  0.6354975765843757  0.3575955341637134  0.5771716478292417
  0.3644979698436906  0.8575838910652034  0.9228294458701688
  0.3645119930394627  0.6424069250900610  0.4228277322025261
  0.6355117739063886  0.1424112935878185  0.0771719878155235
  0.2277421137788667  0.8656254546961445  0.6010305180357949
  0.7722475245749669  0.3656251989998257  0.8989602587874078
  0.7722532944753954  0.1343722754989218  0.3989620636066686
  0.2277483664568367  0.6343776836015145  0.1010346024911390
  0.2669893895121601  0.3782097789830177  0.5650110292271475
  0.7330092524365626  0.8782091547601044  0.9349856231535910
  0.7330071203079336  0.6217926187705038  0.4349863984037550
  0.2669884722427216  0.1217913879929387  0.0650129532400739
 
  0.00000000E+00  0.00000000E+00  0.00000000E+00
  0.00000000E+00  0.00000000E+00  0.00000000E+00
  0.00000000E+00  0.00000000E+00  0.00000000E+00
  0.00000000E+00  0.00000000E+00  0.00000000E+00
  0.00000000E+00  0.00000000E+00  0.00000000E+00
  0.00000000E+00  0.00000000E+00  0.00000000E+00
  0.00000000E+00  0.00000000E+00  0.00000000E+00
  0.00000000E+00  0.00000000E+00  0.00000000E+00
  0.00000000E+00  0.00000000E+00  0.00000000E+00
  0.00000000E+00  0.00000000E+00  0.00000000E+00
  0.00000000E+00  0.00000000E+00  0.00000000E+00
  0.00000000E+00  0.00000000E+00  0.00000000E+00
  0.00000000E+00  0.00000000E+00  0.00000000E+00
  0.00000000E+00  0.00000000E+00  0.00000000E+00
  0.00000000E+00  0.00000000E+00  0.00000000E+00
  0.00000000E+00  0.00000000E+00  0.00000000E+00
  0.00000000E+00  0.00000000E+00  0.00000000E+00
  0.00000000E+00  0.00000000E+00  0.00000000E+00
  0.00000000E+00  0.00000000E+00  0.00000000E+00
  0.00000000E+00  0.00000000E+00  0.00000000E+00
