Na6 Ca6 Al6 N12                         
   1.00000000000000     
    -2.9446339770384751   -5.4611348528148351    0.1100389465726780
    -2.9446338957177187    5.4611348048053898    0.1100384803720664
     0.1624700080800117    0.0000005370835411  -12.3377523421959925
   Al   Na   N    Ca
     6     6    12     6
Direct
  0.8271445827443119  0.5043377269349604  0.1802831295009401
  0.5043377039284426  0.8271445363634888  0.1802831100077191
  0.1728589742372227  0.4956663958563576  0.8197151604905095
  0.4956664301095618  0.1728590135413883  0.8197151667673833
  0.3882488573270595  0.3882488686567685  0.5870416651684282
  0.6117416319373813  0.6117415880361856  0.4129622511408975
  0.1701389623238359  0.5181122514560950  0.3253371490003765
  0.5181121620173692  0.1701388547735417  0.3253371106855533
  0.8298549971546909  0.4818820590801164  0.6746599157866505
  0.4818821301341332  0.8298550651520328  0.6746599515363783
  0.3628742874941825  0.3628742889120419  0.0738055139211826
  0.6371288724475991  0.6371288859151610  0.9261940219075956
  0.8631498044602739  0.5916429271444742  0.3406529788403627
  0.5916429765353854  0.8631497892113769  0.3406529734606086
  0.1368448360612835  0.4083540090819048  0.6593475763960711
  0.4083539949509269  0.1368448310873026  0.6593475820473415
  0.1506167633944853  0.5587377567684502  0.1398376075719714
  0.5587377571906066  0.1506167633420470  0.1398376017462120
  0.8493870259468060  0.4412681530294278  0.8601609290140776
  0.4412681236172759  0.8493870315433882  0.8601609438364614
  0.2814109836330327  0.2814109476661317  0.4363452991412085
  0.7185874492131661  0.7185874535695274  0.5636572706938413
  0.7636878816212116  0.7636878814782816  0.1166745337157504
  0.2363168823752186  0.2363168727270019  0.8833261252459588
  0.0049798603742376  0.0049799064704145  0.2678256771335243
  0.9950126907126819  0.9950126019988861  0.7321777043158956
  0.8476964930423990  0.1523031037709839  0.5000005844789712
  0.1523031283895930  0.8476964997548072  0.5000005904773580
  0.8334679668536227  0.1665458627177891 -0.0000000602652179
  0.1665457897720032  0.8334680739596665 -0.0000000637640106
 
  0.00000000E+00  0.00000000E+00  0.00000000E+00
  0.00000000E+00  0.00000000E+00  0.00000000E+00
  0.00000000E+00  0.00000000E+00  0.00000000E+00
  0.00000000E+00  0.00000000E+00  0.00000000E+00
  0.00000000E+00  0.00000000E+00  0.00000000E+00
  0.00000000E+00  0.00000000E+00  0.00000000E+00
  0.00000000E+00  0.00000000E+00  0.00000000E+00
  0.00000000E+00  0.00000000E+00  0.00000000E+00
  0.00000000E+00  0.00000000E+00  0.00000000E+00
  0.00000000E+00  0.00000000E+00  0.00000000E+00
  0.00000000E+00  0.00000000E+00  0.00000000E+00
  0.00000000E+00  0.00000000E+00  0.00000000E+00
  0.00000000E+00  0.00000000E+00  0.00000000E+00
  0.00000000E+00  0.00000000E+00  0.00000000E+00
  0.00000000E+00  0.00000000E+00  0.00000000E+00
  0.00000000E+00  0.00000000E+00  0.00000000E+00
  0.00000000E+00  0.00000000E+00  0.00000000E+00
  0.00000000E+00  0.00000000E+00  0.00000000E+00
  0.00000000E+00  0.00000000E+00  0.00000000E+00
  0.00000000E+00  0.00000000E+00  0.00000000E+00
  0.00000000E+00  0.00000000E+00  0.00000000E+00
  0.00000000E+00  0.00000000E+00  0.00000000E+00
  0.00000000E+00  0.00000000E+00  0.00000000E+00
  0.00000000E+00  0.00000000E+00  0.00000000E+00
  0.00000000E+00  0.00000000E+00  0.00000000E+00
  0.00000000E+00  0.00000000E+00  0.00000000E+00
  0.00000000E+00  0.00000000E+00  0.00000000E+00
  0.00000000E+00  0.00000000E+00  0.00000000E+00
  0.00000000E+00  0.00000000E+00  0.00000000E+00
  0.00000000E+00  0.00000000E+00  0.00000000E+00
