Na4 Al4 Zn4 N8                          
   1.00000000000000     
     5.4446256098337340   -0.0001309876518811   -0.8069114274294369
    -0.0002391708659075    8.3401402631239332    0.0008641334602484
    -0.8263389312859096    0.0002374757405840    5.3554615511294665
   Na   Zn   Al   N 
     4     4     4     8
Direct
  0.2561538410214345  0.3781828003255932  0.9937105499717337
  0.7438015441314137  0.8781927812897948  0.5064599976975886
  0.7438526634242055  0.6218265599480244  0.0063056700855946
  0.2562113885698546  0.1218015197913592  0.4935277207198781
  0.9065610299322975  0.1245814015938739  0.8361310637030762
  0.0934407233376309  0.6245783500252037  0.6638903553714577
  0.0934349483456608  0.8754203737748747  0.1638787802003438
  0.9065519545665508  0.3754259027865066  0.3361185303548621
  0.6046248652073981  0.3708050340434482  0.6249371935816089
  0.3953498162728217  0.8708416950646952  0.8750433761202295
  0.3953647070110938  0.6291913464802029  0.3750595363126450
  0.6046411602155635  0.1291594234689799  0.1249622425034938
  0.2867386038773946  0.8121580602342163  0.5270551602412328
  0.7133612609296451  0.3121139859471728  0.9729517665069676
  0.7132913396270959  0.1878454159950339  0.4729491340000448
  0.2866370231209305  0.6878802098662041  0.0270464147876528
  0.2643481044600590  0.4364481123750596  0.4790004612419728
  0.7356376977425141  0.9364476576563570  0.0210126725248093
  0.7356464686984538  0.5635496384740574  0.5209676682894584
  0.2643508595079742  0.0635497308593279  0.9789917057853567
 
  0.00000000E+00  0.00000000E+00  0.00000000E+00
  0.00000000E+00  0.00000000E+00  0.00000000E+00
  0.00000000E+00  0.00000000E+00  0.00000000E+00
  0.00000000E+00  0.00000000E+00  0.00000000E+00
  0.00000000E+00  0.00000000E+00  0.00000000E+00
  0.00000000E+00  0.00000000E+00  0.00000000E+00
  0.00000000E+00  0.00000000E+00  0.00000000E+00
  0.00000000E+00  0.00000000E+00  0.00000000E+00
  0.00000000E+00  0.00000000E+00  0.00000000E+00
  0.00000000E+00  0.00000000E+00  0.00000000E+00
  0.00000000E+00  0.00000000E+00  0.00000000E+00
  0.00000000E+00  0.00000000E+00  0.00000000E+00
  0.00000000E+00  0.00000000E+00  0.00000000E+00
  0.00000000E+00  0.00000000E+00  0.00000000E+00
  0.00000000E+00  0.00000000E+00  0.00000000E+00
  0.00000000E+00  0.00000000E+00  0.00000000E+00
  0.00000000E+00  0.00000000E+00  0.00000000E+00
  0.00000000E+00  0.00000000E+00  0.00000000E+00
  0.00000000E+00  0.00000000E+00  0.00000000E+00
  0.00000000E+00  0.00000000E+00  0.00000000E+00
