Na6 Sr6 Al6 P12                         
   1.00000000000000     
    -3.5878222515509242   -6.5243078702955133    0.0620308811811967
    -3.5878205399206413    6.5243068962853963    0.0620273492035469
    -0.0950791232751656    0.0000040525390936  -15.0159038353864656
   Al   Na   P    Sr
     6     6    12     6
Direct
  0.8200100757153331  0.4984271873614547  0.1848744860062398
  0.4984272414932052  0.8200101938542408  0.1848744988998500
  0.1799942601661209  0.5015761304681928  0.8151261552024341
  0.5015761493999773  0.1799941655596058  0.8151261641970116
  0.3879181882674226  0.3879181831144478  0.5828955928094569
  0.6120834482165980  0.6120833849232439  0.4171061971534598
  0.1880989709290783  0.5197004734348797  0.3227499223847831
  0.5197005390883438  0.1880989760895448  0.3227499344277170
  0.8118876188521126  0.4802823012618367  0.6772454826776941
  0.4802825943034597  0.8118877503852647  0.6772455242464046
  0.3752038581717892  0.3752057806454469  0.0720235166545658
  0.6247977933152660  0.6247966681552588  0.9279786719293197
  0.8725724153387893  0.5801988534660772  0.3453213186782282
  0.5801989112720345  0.8725723813434352  0.3453212942506157
  0.1274254686909954  0.4197993051779595  0.6546791777547022
  0.4197992408936204  0.1274253715530975  0.6546792022795872
  0.1405385473176153  0.5189890846323555  0.1415999372884416
  0.5189889761211368  0.1405388286669552  0.1415998290148603
  0.8594666464670768  0.4810187708088406  0.8583993645089546
  0.4810188324100740  0.8594664280990625  0.8583994293253928
  0.2727593830484465  0.2727593178959667  0.4321884421201975
  0.7272429117090683  0.7272428648445149  0.5678135644722212
  0.7590771627601934  0.7590771844591138  0.1093095287186713
  0.2409290547050017  0.2409289993194662  0.8906903865965174
  0.0145487891673839  0.0145487405150930  0.2615325352161442
  0.9854422926615310  0.9854421913263866  0.7384693645450587
  0.8319004675037535  0.1681024070092216  0.5000003670453481
  0.1681024308730957  0.8319003678966028  0.5000004014624737
  0.8337440222145588  0.1662635199936832 -0.0000001427525677
  0.1662637089269245  0.8337441877387582 -0.0000001471137914
 
  0.00000000E+00  0.00000000E+00  0.00000000E+00
  0.00000000E+00  0.00000000E+00  0.00000000E+00
  0.00000000E+00  0.00000000E+00  0.00000000E+00
  0.00000000E+00  0.00000000E+00  0.00000000E+00
  0.00000000E+00  0.00000000E+00  0.00000000E+00
  0.00000000E+00  0.00000000E+00  0.00000000E+00
  0.00000000E+00  0.00000000E+00  0.00000000E+00
  0.00000000E+00  0.00000000E+00  0.00000000E+00
  0.00000000E+00  0.00000000E+00  0.00000000E+00
  0.00000000E+00  0.00000000E+00  0.00000000E+00
  0.00000000E+00  0.00000000E+00  0.00000000E+00
  0.00000000E+00  0.00000000E+00  0.00000000E+00
  0.00000000E+00  0.00000000E+00  0.00000000E+00
  0.00000000E+00  0.00000000E+00  0.00000000E+00
  0.00000000E+00  0.00000000E+00  0.00000000E+00
  0.00000000E+00  0.00000000E+00  0.00000000E+00
  0.00000000E+00  0.00000000E+00  0.00000000E+00
  0.00000000E+00  0.00000000E+00  0.00000000E+00
  0.00000000E+00  0.00000000E+00  0.00000000E+00
  0.00000000E+00  0.00000000E+00  0.00000000E+00
  0.00000000E+00  0.00000000E+00  0.00000000E+00
  0.00000000E+00  0.00000000E+00  0.00000000E+00
  0.00000000E+00  0.00000000E+00  0.00000000E+00
  0.00000000E+00  0.00000000E+00  0.00000000E+00
  0.00000000E+00  0.00000000E+00  0.00000000E+00
  0.00000000E+00  0.00000000E+00  0.00000000E+00
  0.00000000E+00  0.00000000E+00  0.00000000E+00
  0.00000000E+00  0.00000000E+00  0.00000000E+00
  0.00000000E+00  0.00000000E+00  0.00000000E+00
  0.00000000E+00  0.00000000E+00  0.00000000E+00
