K6 Sr6 Al6 P12                          
   1.00000000000000     
    -3.5516149274154136   -7.1448793559575767    0.1285793190435434
    -3.5520846534456143    7.1451230677221718    0.1292031890412543
     0.2051380265860446   -0.0006914064325567  -15.6801633986924820
   Al   K    P    Sr
     6     6    12     6
Direct
  0.8405845031206023  0.5209893649944756  0.1801460479375738
  0.5209933562336887  0.8405877670629037  0.1801436990571046
  0.1594139119594375  0.4790067020465097  0.8198521847838320
  0.4790089494493516  0.1594032320572339  0.8198519442812718
  0.3907166888461393  0.3907096876145817  0.5864409181495603
  0.6093030506175604  0.6093161411546494  0.4135591809215355
  0.1432550250487465  0.4739739128878254  0.3172115238238687
  0.4740095168235854  0.1432732492504484  0.3172373293430501
  0.8567816542568187  0.5260861290004081  0.6828005125674842
  0.5259896127702158  0.8567436765254995  0.6827521617930129
  0.3526096949742198  0.3525909422774045  0.0828535867493865
  0.6473251599405938  0.6473252378434596  0.9171505672760751
  0.8638897774587471  0.5904843364047372  0.3439614129132360
  0.5904507148202032  0.8638879425560768  0.3439803032130446
  0.1361148731912797  0.4095237962590569  0.6560414462819428
  0.4095762813433425  0.1361484548894541  0.6560218842466961
  0.1524640769476489  0.5641510961976939  0.1335132540820986
  0.5641425047535298  0.1524450021031366  0.1335259717170798
  0.8475343149384602  0.4358350874041075  0.8664920681958208
  0.4358721658585166  0.8475484344430344  0.8664685535810988
  0.2719180812104406  0.2719385731636281  0.4406191637596979
  0.7280902499570451  0.7280764947213413  0.5593812014667456
  0.7852181673517609  0.7852148026182121  0.1151154258891800
  0.2147545619301831  0.2147476639650231  0.8848853261155808
  0.9831310943996177  0.9831335741666245  0.2780753283899273
  0.0168616437023932  0.0168697769388021  0.7219253136234823
  0.8497100410007086  0.1502785976789703  0.5000157713693668
  0.1502973250447315  0.8497521101676752  0.4999851940492011
  0.8357912720738414  0.1641859202638426  0.9999928229935782
  0.1641917299765970  0.8357722933431774  0.9999999014284733
 
  0.00000000E+00  0.00000000E+00  0.00000000E+00
  0.00000000E+00  0.00000000E+00  0.00000000E+00
  0.00000000E+00  0.00000000E+00  0.00000000E+00
  0.00000000E+00  0.00000000E+00  0.00000000E+00
  0.00000000E+00  0.00000000E+00  0.00000000E+00
  0.00000000E+00  0.00000000E+00  0.00000000E+00
  0.00000000E+00  0.00000000E+00  0.00000000E+00
  0.00000000E+00  0.00000000E+00  0.00000000E+00
  0.00000000E+00  0.00000000E+00  0.00000000E+00
  0.00000000E+00  0.00000000E+00  0.00000000E+00
  0.00000000E+00  0.00000000E+00  0.00000000E+00
  0.00000000E+00  0.00000000E+00  0.00000000E+00
  0.00000000E+00  0.00000000E+00  0.00000000E+00
  0.00000000E+00  0.00000000E+00  0.00000000E+00
  0.00000000E+00  0.00000000E+00  0.00000000E+00
  0.00000000E+00  0.00000000E+00  0.00000000E+00
  0.00000000E+00  0.00000000E+00  0.00000000E+00
  0.00000000E+00  0.00000000E+00  0.00000000E+00
  0.00000000E+00  0.00000000E+00  0.00000000E+00
  0.00000000E+00  0.00000000E+00  0.00000000E+00
  0.00000000E+00  0.00000000E+00  0.00000000E+00
  0.00000000E+00  0.00000000E+00  0.00000000E+00
  0.00000000E+00  0.00000000E+00  0.00000000E+00
  0.00000000E+00  0.00000000E+00  0.00000000E+00
  0.00000000E+00  0.00000000E+00  0.00000000E+00
  0.00000000E+00  0.00000000E+00  0.00000000E+00
  0.00000000E+00  0.00000000E+00  0.00000000E+00
  0.00000000E+00  0.00000000E+00  0.00000000E+00
  0.00000000E+00  0.00000000E+00  0.00000000E+00
  0.00000000E+00  0.00000000E+00  0.00000000E+00
