Na8 P4 Zn2                              
   1.00000000000000     
     5.2081842083187340   -0.3118264508161953   -0.6733070435453661
    -0.3182862783081513    5.2470168762119132   -0.4959580497666083
    -4.1182139542247338   -3.6183551816971211   15.9346284087788099
   Na   P    Zn
     8     4     2
Direct
  0.3626268475446681  0.6123930506170254  0.8379944369336708
  0.5497419486930560  0.4870365313040563  0.3858865200590185
  0.6217333163434329  0.2562411496988545  0.1867662170269207
  0.5177284894558216  0.6395376067271608  0.6499308600124938
  0.0499099747570942  0.1876434158435341  0.9473621136619605
  0.1683813437728299 -0.0230521564057912  0.4156936694723276
 -0.0723554420350822  0.7563931005430317  0.0577324042417975
  0.8440100109045001  0.1091753598586650  0.5594773193885296
  0.6222803107290703 -0.0151913200604431  0.3650427065817450
  0.9138459078936526  0.6114913379982989  0.8782704004102057
  0.3912257296848737  0.0729003125586939  0.6066046666035703
  0.0452577139759371  0.3256659074540146  0.1237538600163198
  0.3007506449292509  0.6928655692829063  0.2379998263932454
  0.6848632033508939  0.2869001345799919  0.7474849991981939
 
  0.00000000E+00  0.00000000E+00  0.00000000E+00
  0.00000000E+00  0.00000000E+00  0.00000000E+00
  0.00000000E+00  0.00000000E+00  0.00000000E+00
  0.00000000E+00  0.00000000E+00  0.00000000E+00
  0.00000000E+00  0.00000000E+00  0.00000000E+00
  0.00000000E+00  0.00000000E+00  0.00000000E+00
  0.00000000E+00  0.00000000E+00  0.00000000E+00
  0.00000000E+00  0.00000000E+00  0.00000000E+00
  0.00000000E+00  0.00000000E+00  0.00000000E+00
  0.00000000E+00  0.00000000E+00  0.00000000E+00
  0.00000000E+00  0.00000000E+00  0.00000000E+00
  0.00000000E+00  0.00000000E+00  0.00000000E+00
  0.00000000E+00  0.00000000E+00  0.00000000E+00
  0.00000000E+00  0.00000000E+00  0.00000000E+00
