Na8 N4 Mg2                              
   1.00000000000000     
     4.6316855269517081   -0.0612285730334406   -0.7304328009028735
    -0.0606748889900455    4.6362665281367974   -0.7331269306322035
    -4.5998194921935429   -4.5944434419712046   15.7848892417025173
   Na   N    Mg
     8     4     2
Direct
  0.3505598548446971  0.6021039775470981  0.8951379212561289
  0.5880116143600367  0.3508213491618721  0.3949896667228605
  0.6613101593128722  0.3974080382974860  0.1052701443401154
  0.3880793935468804  0.6511907240274245  0.6057036279196515
  0.9050419361562618  0.1511622783748013  0.9329417133396973
  0.1465812067992057  0.9040261102979806  0.4330130024557347
  0.1046980221181520  0.8466772360784651  0.0663019521924104
  0.8433850248266381  0.0968380470908656  0.5667020749932304
  0.5832128310221322  0.8446632562705899  0.3902495190724025
  0.8442546500690270  0.5872643649803627  0.8903407840801388
  0.4074477962818919  0.1566715521177153  0.6098669146509088
  0.1673041732786982  0.4116938774206430  0.1095255826509060
  0.3752000684595753  0.6354567836491467  0.2498233010875886
  0.6349132689239315  0.3640224046855559  0.7501337952382191
 
  0.00000000E+00  0.00000000E+00  0.00000000E+00
  0.00000000E+00  0.00000000E+00  0.00000000E+00
  0.00000000E+00  0.00000000E+00  0.00000000E+00
  0.00000000E+00  0.00000000E+00  0.00000000E+00
  0.00000000E+00  0.00000000E+00  0.00000000E+00
  0.00000000E+00  0.00000000E+00  0.00000000E+00
  0.00000000E+00  0.00000000E+00  0.00000000E+00
  0.00000000E+00  0.00000000E+00  0.00000000E+00
  0.00000000E+00  0.00000000E+00  0.00000000E+00
  0.00000000E+00  0.00000000E+00  0.00000000E+00
  0.00000000E+00  0.00000000E+00  0.00000000E+00
  0.00000000E+00  0.00000000E+00  0.00000000E+00
  0.00000000E+00  0.00000000E+00  0.00000000E+00
  0.00000000E+00  0.00000000E+00  0.00000000E+00
