K4 Mg4 Ga4 P8                           
   1.00000000000000     
     6.9089549321982879    0.0008584784221494    0.0833138450765506
     0.0015165130325143    7.9568285794648563    0.0002007238403902
     0.1244775167356981    0.0006583841817633    8.0162038897214902
   K    Mg   Ga   P 
     4     4     4     8
Direct
  0.3859893813690666  0.5030489997672718  0.8437414192239631
  0.6148765209751182  0.0027047307288314  0.6560518612311921
  0.6138303358180179  0.4969611395823886  0.1562706052761748
  0.3855025057521324  0.9978487453354485  0.3439197164704241
  0.1321255200606384  0.1592840595373313  0.7300319833306151
  0.8680766553615198  0.6591830833305132  0.7699977682984370
  0.8669857831114819  0.8395155689803081  0.2698465609933379
  0.1319558401449851  0.3408375443066062  0.2300444254498412
  0.6756406691082107  0.3622079722376683  0.5206297792749689
  0.3242137207982640  0.8625508832860831  0.9793650630192267
  0.3245287371548555  0.6379513146716895  0.4793236511450315
  0.6758676314507709  0.1375639527890321  0.0206717426546749
  0.1776872093440856  0.8251910607178238  0.7022919945722083
  0.8224329016435269  0.3249036654034592  0.7976732417123411
  0.8224355269744147  0.1747349417504143  0.2977582739968156
  0.1778253467486454  0.6752673861759741  0.2023026451849411
  0.3215478916484837  0.3387469050059685  0.5076020865151279
  0.6782492963429015  0.8382719304513977 -0.0076615752304531
  0.6784553354902670  0.6613947003532150  0.4925737047402194
  0.3217731907026345  0.1618314155885741  0.0075650521409128
 
  0.00000000E+00  0.00000000E+00  0.00000000E+00
  0.00000000E+00  0.00000000E+00  0.00000000E+00
  0.00000000E+00  0.00000000E+00  0.00000000E+00
  0.00000000E+00  0.00000000E+00  0.00000000E+00
  0.00000000E+00  0.00000000E+00  0.00000000E+00
  0.00000000E+00  0.00000000E+00  0.00000000E+00
  0.00000000E+00  0.00000000E+00  0.00000000E+00
  0.00000000E+00  0.00000000E+00  0.00000000E+00
  0.00000000E+00  0.00000000E+00  0.00000000E+00
  0.00000000E+00  0.00000000E+00  0.00000000E+00
  0.00000000E+00  0.00000000E+00  0.00000000E+00
  0.00000000E+00  0.00000000E+00  0.00000000E+00
  0.00000000E+00  0.00000000E+00  0.00000000E+00
  0.00000000E+00  0.00000000E+00  0.00000000E+00
  0.00000000E+00  0.00000000E+00  0.00000000E+00
  0.00000000E+00  0.00000000E+00  0.00000000E+00
  0.00000000E+00  0.00000000E+00  0.00000000E+00
  0.00000000E+00  0.00000000E+00  0.00000000E+00
  0.00000000E+00  0.00000000E+00  0.00000000E+00
  0.00000000E+00  0.00000000E+00  0.00000000E+00
