Na6 Mg6 In6 N12                         
   1.00000000000000     
    -2.8642136878385269   -6.3546645760766545    0.2725616267683307
    -2.8706817927669572    6.3579857912694822    0.2815161584129463
     0.7860902994849209   -0.0093040364389452  -12.3319401192791407
   In   Na   N    Mg
     6     6    12     6
Direct
  0.8301909077403222  0.5325921094599135  0.1656134283167165
  0.5327870362191783  0.8313937491495702  0.1657315278924036
  0.1701289112004747  0.4675749711879794  0.8343184509216339
  0.4675116757653764  0.1686975988860809  0.8344951194370642
  0.4194674806339151  0.4178647264466680  0.6025609385269695
  0.5805395415739076  0.5821912573553690  0.3969517898463952
  0.1323963793725949  0.5053273425221858  0.3224103280135316
  0.5060004494498969  0.1343280743493799  0.3231216193369059
  0.8659423139092385  0.4932641744591607  0.6784408571347657
  0.4913545007574693  0.8632340602878770  0.6765797605786290
  0.2407745014722897  0.2406662448678259  0.0729572022677045
  0.7593275805876368  0.7592741596517568  0.9270297746159747
  0.9054122554297591  0.6386060735585586  0.3494077955845665
  0.6390533449411785  0.9074755466800102  0.3497544486312423
  0.0949008643541613  0.3619911677099495  0.6504789731722619
  0.3612746629287480  0.0929833294311204  0.6502268559574129
  0.1243584490726580  0.5209094337962947  0.1141262138907455
  0.5205624140463434  0.1241699806857975  0.1137602994330429
  0.8763058455531862  0.4794688780435977  0.8862119663480906
  0.4801290114417468  0.8761611117784754  0.8861825460457327
  0.2276926292027864  0.2271550196538949  0.4266404731162278
  0.7721268222496405  0.7732342653924763  0.5731900247264700
  0.8406556935024110  0.8408686625235020  0.1284229202600640
  0.1594095595271549  0.1592387416421843  0.8713833101118574
  0.9678524781589479  0.9678945577751151  0.2937561575273369
  0.0327064608453449  0.0326971001530774  0.7059231773655793
  0.8853633451418571  0.1140994296538081  0.5006371935603245
  0.1136455966412352  0.8856784761687106  0.4995525886456076
  0.7905608089726619  0.2125331721241230  0.0000936065397909
  0.2115684793078731  0.7884265846055597  0.0000406521949511
 
  0.00000000E+00  0.00000000E+00  0.00000000E+00
  0.00000000E+00  0.00000000E+00  0.00000000E+00
  0.00000000E+00  0.00000000E+00  0.00000000E+00
  0.00000000E+00  0.00000000E+00  0.00000000E+00
  0.00000000E+00  0.00000000E+00  0.00000000E+00
  0.00000000E+00  0.00000000E+00  0.00000000E+00
  0.00000000E+00  0.00000000E+00  0.00000000E+00
  0.00000000E+00  0.00000000E+00  0.00000000E+00
  0.00000000E+00  0.00000000E+00  0.00000000E+00
  0.00000000E+00  0.00000000E+00  0.00000000E+00
  0.00000000E+00  0.00000000E+00  0.00000000E+00
  0.00000000E+00  0.00000000E+00  0.00000000E+00
  0.00000000E+00  0.00000000E+00  0.00000000E+00
  0.00000000E+00  0.00000000E+00  0.00000000E+00
  0.00000000E+00  0.00000000E+00  0.00000000E+00
  0.00000000E+00  0.00000000E+00  0.00000000E+00
  0.00000000E+00  0.00000000E+00  0.00000000E+00
  0.00000000E+00  0.00000000E+00  0.00000000E+00
  0.00000000E+00  0.00000000E+00  0.00000000E+00
  0.00000000E+00  0.00000000E+00  0.00000000E+00
  0.00000000E+00  0.00000000E+00  0.00000000E+00
  0.00000000E+00  0.00000000E+00  0.00000000E+00
  0.00000000E+00  0.00000000E+00  0.00000000E+00
  0.00000000E+00  0.00000000E+00  0.00000000E+00
  0.00000000E+00  0.00000000E+00  0.00000000E+00
  0.00000000E+00  0.00000000E+00  0.00000000E+00
  0.00000000E+00  0.00000000E+00  0.00000000E+00
  0.00000000E+00  0.00000000E+00  0.00000000E+00
  0.00000000E+00  0.00000000E+00  0.00000000E+00
  0.00000000E+00  0.00000000E+00  0.00000000E+00
