Na6 Zn6 Ga6 P12                         
   1.00000000000000     
    -3.2780377518209400   -6.9098141294937587    0.3698973755024009
    -3.2734427866733795    6.9074845542461203    0.3675337529939397
     1.1758558440465028    0.0028291345835161  -13.9660855031502305
   Ga   Na   P    Zn
     6     6    12     6
Direct
  0.8579071880101147  0.5554924955280652  0.1827321771363001
  0.5554844279212001  0.8576645007264231  0.1825508032270194
  0.1411467792598516  0.4435931010866399  0.8175641452984045
  0.4435632274348496  0.1417439900955875  0.8172150940319456
  0.4066574564525729  0.4070383131350180  0.5913211496508556
  0.5959243416463103  0.5951879721184156  0.4107975911229010
  0.1203026195546690  0.4504055776175077  0.3162185160397769
  0.4523297905351737  0.1201056432270704  0.3161883886130746
  0.8803449028154642  0.5485834001509633  0.6830275679983163
  0.5475564158862245  0.8799924496222686  0.6837132355794929
  0.2471410014253226  0.2471068930712260  0.0796085911542466
  0.7524148294243833  0.7524172944897372  0.9204744029061319
  0.8843546216656163  0.5958034844606682  0.3619129911810706
  0.5965472467548056  0.8838534563581030  0.3617977978901320
  0.1159007485852093  0.4037619592648342  0.6385314036353040
  0.4035004870234545  0.1159459395676888  0.6384504746167301
  0.1509231977225372  0.5548135700524948  0.1240553150411389
  0.5550002220800621  0.1510620879138911  0.1240078213560875
  0.8482155456954485  0.4447126560931758  0.8756605633021196
  0.4444565851988762  0.8484784319821195  0.8757804039050913
  0.2414685085731580  0.2406881943317097  0.4213626847998682
  0.7586017260264896  0.7594744164033463  0.5796950513118069
  0.8364734948375424  0.8364470517387891  0.1331010280022101
  0.1626654444179131  0.1627613428444875  0.8668598539326106
  0.9247163481475780  0.9247003880480654  0.3040856837918270
  0.0751728068879345  0.0751200657604888  0.6957877931525811
  0.8785922297070474  0.1249314903794553  0.4996617444016770
  0.1256476142949250  0.8809838576032947  0.4989175988136054
  0.7666823719531646  0.2303121216788164  0.9994429452762462
  0.2303078200621012  0.7668178546496475  0.9994771828314281
 
  0.00000000E+00  0.00000000E+00  0.00000000E+00
  0.00000000E+00  0.00000000E+00  0.00000000E+00
  0.00000000E+00  0.00000000E+00  0.00000000E+00
  0.00000000E+00  0.00000000E+00  0.00000000E+00
  0.00000000E+00  0.00000000E+00  0.00000000E+00
  0.00000000E+00  0.00000000E+00  0.00000000E+00
  0.00000000E+00  0.00000000E+00  0.00000000E+00
  0.00000000E+00  0.00000000E+00  0.00000000E+00
  0.00000000E+00  0.00000000E+00  0.00000000E+00
  0.00000000E+00  0.00000000E+00  0.00000000E+00
  0.00000000E+00  0.00000000E+00  0.00000000E+00
  0.00000000E+00  0.00000000E+00  0.00000000E+00
  0.00000000E+00  0.00000000E+00  0.00000000E+00
  0.00000000E+00  0.00000000E+00  0.00000000E+00
  0.00000000E+00  0.00000000E+00  0.00000000E+00
  0.00000000E+00  0.00000000E+00  0.00000000E+00
  0.00000000E+00  0.00000000E+00  0.00000000E+00
  0.00000000E+00  0.00000000E+00  0.00000000E+00
  0.00000000E+00  0.00000000E+00  0.00000000E+00
  0.00000000E+00  0.00000000E+00  0.00000000E+00
  0.00000000E+00  0.00000000E+00  0.00000000E+00
  0.00000000E+00  0.00000000E+00  0.00000000E+00
  0.00000000E+00  0.00000000E+00  0.00000000E+00
  0.00000000E+00  0.00000000E+00  0.00000000E+00
  0.00000000E+00  0.00000000E+00  0.00000000E+00
  0.00000000E+00  0.00000000E+00  0.00000000E+00
  0.00000000E+00  0.00000000E+00  0.00000000E+00
  0.00000000E+00  0.00000000E+00  0.00000000E+00
  0.00000000E+00  0.00000000E+00  0.00000000E+00
  0.00000000E+00  0.00000000E+00  0.00000000E+00
