Na12 Ca3 P6                             
   1.00000000000000     
     4.9995988981452184   -0.0016025393580604   -0.0045242780699802
    -2.5011840235004534    4.3282375355663074    0.0070777944694684
    -0.0279401282816721    0.0332182860462410   27.7028782954565820
   Na   Ca   P 
    12     3     6
Direct
  0.0004089013086251  0.0003813374590677  0.7981353576893156
 -0.0001340901599673  0.9993770443990669  0.2018758794725789
  0.6646327504111603  0.3329601479454098  0.1312416136559998
  0.6634358832278799  0.3323950023209720  0.5356636493722517
  0.3306135691762306  0.6667474593421316  0.4645186381750714
  0.3359158445426069  0.6675472020944839  0.8687659551947253
  0.9956341957436737  0.9978086097224169  0.5737999526010568
  0.9978075124980461  0.0020765322970897  0.4261613400728267
  0.6703228546918896  0.3350633106642379  0.9071377038976673
  0.6676965525701931  0.3325329713629202  0.7594663209948418
  0.3327140319750304  0.6646533991416366  0.2405253275121249
  0.3321196956436843  0.6676518821909789  0.0924873480916887
  0.0002225754505606  0.0001023923694523 -0.0000099237172419
  0.6773583043793746  0.3385925689019480  0.3333556980997470
  0.3387108389188985  0.6616784681608998  0.6667036935521709
  0.0037542481102834  0.0012976028974504  0.9025132149918750
 -0.0010392141704263  0.0008447513058372  0.0974876410095854
  0.6651514614816185  0.3308034326405138  0.2358346909693985
  0.6625402255710262  0.3347084353727596  0.4309031742356725
  0.3282659930355010  0.6651465498995515  0.5691971879656371
  0.3338678655941242  0.6676308995111817  0.7642355361630194
 
  0.00000000E+00  0.00000000E+00  0.00000000E+00
  0.00000000E+00  0.00000000E+00  0.00000000E+00
  0.00000000E+00  0.00000000E+00  0.00000000E+00
  0.00000000E+00  0.00000000E+00  0.00000000E+00
  0.00000000E+00  0.00000000E+00  0.00000000E+00
  0.00000000E+00  0.00000000E+00  0.00000000E+00
  0.00000000E+00  0.00000000E+00  0.00000000E+00
  0.00000000E+00  0.00000000E+00  0.00000000E+00
  0.00000000E+00  0.00000000E+00  0.00000000E+00
  0.00000000E+00  0.00000000E+00  0.00000000E+00
  0.00000000E+00  0.00000000E+00  0.00000000E+00
  0.00000000E+00  0.00000000E+00  0.00000000E+00
  0.00000000E+00  0.00000000E+00  0.00000000E+00
  0.00000000E+00  0.00000000E+00  0.00000000E+00
  0.00000000E+00  0.00000000E+00  0.00000000E+00
  0.00000000E+00  0.00000000E+00  0.00000000E+00
  0.00000000E+00  0.00000000E+00  0.00000000E+00
  0.00000000E+00  0.00000000E+00  0.00000000E+00
  0.00000000E+00  0.00000000E+00  0.00000000E+00
  0.00000000E+00  0.00000000E+00  0.00000000E+00
  0.00000000E+00  0.00000000E+00  0.00000000E+00
