Li12 Ca3 P6                             
   1.00000000000000     
     4.3794833629170187   -0.0000200670917492   -0.0006144386776517
    -2.1897590628366048    3.7927314358103770    0.0006317840082608
    -0.0037362554546214    0.0022795164782214   26.2075650117729495
   Li   Ca   P 
    12     3     6
Direct
  0.9999974150734374  0.0000036549845674  0.8000951887339625
  0.9999887677892971  0.0000116497095917  0.1998999016186787
  0.6666583474648888  0.3333415120477241  0.1331710658065361
  0.6666603788917485  0.3333398022064245  0.5333402475197673
  0.3333262417879226  0.6666733308476509  0.4666609015700303
  0.3333249622351317  0.6666759474612647  0.8668286860332941
  0.0000073105013954  0.9999913875313737  0.5668568185010940
  0.9999790709153231  0.0000219336616993  0.4331497436224012
  0.6666803923815934  0.3333189364952105  0.8999937312086956
  0.6666435733310792  0.3333579297805684  0.7667596251770803
  0.3333388093743892  0.6666603281724051  0.2332459843717700
  0.3333099528685040  0.6666913062267810  0.1000025047916395
  0.9999998296220625  0.0000000534440900  0.9999906692406313
  0.6666946588880478  0.3333022149463005  0.3331365116791076
  0.3334710270730525  0.6665271156127943  0.6668690908299624
  0.0000257384550153  0.9999727140623378  0.8975117308465457
  0.9999581324966584  0.0000440639503481  0.1024798161987164
  0.6666780195104067  0.3333206044828998  0.2307034817605427
  0.6666302037557585  0.3333722222756279  0.4356634091717240
  0.3333376153861991  0.6666603656784460  0.5643426030735128
  0.3332895521981030  0.6667129264219085  0.7692982882443076
 
  0.00000000E+00  0.00000000E+00  0.00000000E+00
  0.00000000E+00  0.00000000E+00  0.00000000E+00
  0.00000000E+00  0.00000000E+00  0.00000000E+00
  0.00000000E+00  0.00000000E+00  0.00000000E+00
  0.00000000E+00  0.00000000E+00  0.00000000E+00
  0.00000000E+00  0.00000000E+00  0.00000000E+00
  0.00000000E+00  0.00000000E+00  0.00000000E+00
  0.00000000E+00  0.00000000E+00  0.00000000E+00
  0.00000000E+00  0.00000000E+00  0.00000000E+00
  0.00000000E+00  0.00000000E+00  0.00000000E+00
  0.00000000E+00  0.00000000E+00  0.00000000E+00
  0.00000000E+00  0.00000000E+00  0.00000000E+00
  0.00000000E+00  0.00000000E+00  0.00000000E+00
  0.00000000E+00  0.00000000E+00  0.00000000E+00
  0.00000000E+00  0.00000000E+00  0.00000000E+00
  0.00000000E+00  0.00000000E+00  0.00000000E+00
  0.00000000E+00  0.00000000E+00  0.00000000E+00
  0.00000000E+00  0.00000000E+00  0.00000000E+00
  0.00000000E+00  0.00000000E+00  0.00000000E+00
  0.00000000E+00  0.00000000E+00  0.00000000E+00
  0.00000000E+00  0.00000000E+00  0.00000000E+00
