Li12 Ca3 P6
1.0
   5.6639999999999997    0.0000000000000000    0.0000000000000003
  -2.8319999999999981    4.9051678870350610    0.0000000000000003
   0.0000000000000000    0.0000000000000000   26.1009999999999991
Li Ca P
12 3 6
direct
   0.0000000000000000    0.0000000000000000    0.7914000000000000 Li+
   0.0000000000000000    0.0000000000000000    0.2086000000000000 Li+
   0.6666666666666666    0.3333333333333333    0.1247333333333333 Li+
   0.6666666666666666    0.3333333333333333    0.5419333333333334 Li+
   0.3333333333333333    0.6666666666666666    0.4580666666666666 Li+
   0.3333333333333333    0.6666666666666666    0.8752666666666666 Li+
   0.0000000000000000    0.0000000000000000    0.6106000000000000 Li+
   0.0000000000000000    0.0000000000000000    0.3894000000000000 Li+
   0.6666666666666666    0.3333333333333333    0.9439333333333333 Li+
   0.6666666666666666    0.3333333333333333    0.7227333333333333 Li+
   0.3333333333333333    0.6666666666666666    0.2772666666666666 Li+
   0.3333333333333333    0.6666666666666666    0.0560666666666667 Li+
   0.0000000000000000    0.0000000000000000    0.0000000000000000 Ca2+
   0.6666666666666666    0.3333333333333333    0.3333333333333333 Ca2+
   0.3333333333333333    0.6666666666666666    0.6666666666666666 Ca2+
   0.0000000000000000    0.0000000000000000    0.9155000000000000 P3-
   0.0000000000000000    0.0000000000000000    0.0845000000000000 P3-
   0.6666666666666666    0.3333333333333333    0.2488333333333333 P3-
   0.6666666666666666    0.3333333333333333    0.4178333333333333 P3-
   0.3333333333333333    0.6666666666666666    0.5821666666666666 P3-
   0.3333333333333333    0.6666666666666666    0.7511666666666666 P3-
