Li6 Zn6 In6 N12                         
   1.00000000000000     
    -2.8699003874954570   -5.7187893044329634    0.4422025870097336
    -2.8698977116587305    5.7187870655728821    0.4421961237027314
     1.5382126336883186    0.0000047817639833  -11.6668552877778122
   In   Li   N    Zn
     6     6    12     6
Direct
  0.7950899528535237  0.4699175378397029  0.1942330010849568
  0.4699297554626674  0.7951022639510751  0.1942464660523364
  0.2048195714207750  0.5299801930126815  0.8057436669807273
  0.5299887461156766  0.2048317605086211  0.8057483816715272
  0.3206276488125570  0.3206293177535227  0.5656444515279284
  0.6795307229478074  0.6795271265797732  0.4343384557103823
  0.1559703804106995  0.4759730412111419  0.3369639874680372
  0.4759624870544000  0.1559643968528500  0.3369673568189313
  0.8440257875118021  0.5240240451509557  0.6630119544180049
  0.5240202761409345  0.8440191838318171  0.6630120951865185
  0.3494594338851231  0.3494756533671536  0.0543774557345638
  0.6505725082519557  0.6505731532812932  0.9456113475478015
  0.8758899610947384  0.5142486970660743  0.3828744478632610
  0.5142550435677742  0.8758951581960537  0.3828823485444346
  0.1241983132226595  0.4858011722195301  0.6171459103166836
  0.4858055092978233  0.1241937497217986  0.6171481395220292
  0.0741118352582142  0.3907923630320541  0.1446913023947618
  0.3907810451806566  0.0741097289103916  0.1446939446591475
  0.9258043222271477  0.6090907488153072  0.8553265960647399
  0.6090985710997938  0.9258041725776555  0.8553306678409013
  0.2697625869805214  0.2697663787866154  0.3792256912185536
  0.7303285366135955  0.7303243248700173  0.6207624346407090
  0.7294184656192324  0.7294213799489159  0.1227397312335823
  0.2704985589335131  0.2704932080193644  0.8772807208925459
  0.0740569329360096  0.0740578429152067  0.2169425960519522
  0.9259164494479223  0.9259146277875473  0.7830412893080551
  0.7890159963910154  0.2111070809280248  0.5000148035408142
  0.2111009468598958  0.7890064431901102  0.5000144383164122
  0.8409951606660413  0.1589623792498223 -0.0000065231965252
  0.1589644937355321  0.8409928704249374 -0.0000071594137788
 
  0.00000000E+00  0.00000000E+00  0.00000000E+00
  0.00000000E+00  0.00000000E+00  0.00000000E+00
  0.00000000E+00  0.00000000E+00  0.00000000E+00
  0.00000000E+00  0.00000000E+00  0.00000000E+00
  0.00000000E+00  0.00000000E+00  0.00000000E+00
  0.00000000E+00  0.00000000E+00  0.00000000E+00
  0.00000000E+00  0.00000000E+00  0.00000000E+00
  0.00000000E+00  0.00000000E+00  0.00000000E+00
  0.00000000E+00  0.00000000E+00  0.00000000E+00
  0.00000000E+00  0.00000000E+00  0.00000000E+00
  0.00000000E+00  0.00000000E+00  0.00000000E+00
  0.00000000E+00  0.00000000E+00  0.00000000E+00
  0.00000000E+00  0.00000000E+00  0.00000000E+00
  0.00000000E+00  0.00000000E+00  0.00000000E+00
  0.00000000E+00  0.00000000E+00  0.00000000E+00
  0.00000000E+00  0.00000000E+00  0.00000000E+00
  0.00000000E+00  0.00000000E+00  0.00000000E+00
  0.00000000E+00  0.00000000E+00  0.00000000E+00
  0.00000000E+00  0.00000000E+00  0.00000000E+00
  0.00000000E+00  0.00000000E+00  0.00000000E+00
  0.00000000E+00  0.00000000E+00  0.00000000E+00
  0.00000000E+00  0.00000000E+00  0.00000000E+00
  0.00000000E+00  0.00000000E+00  0.00000000E+00
  0.00000000E+00  0.00000000E+00  0.00000000E+00
  0.00000000E+00  0.00000000E+00  0.00000000E+00
  0.00000000E+00  0.00000000E+00  0.00000000E+00
  0.00000000E+00  0.00000000E+00  0.00000000E+00
  0.00000000E+00  0.00000000E+00  0.00000000E+00
  0.00000000E+00  0.00000000E+00  0.00000000E+00
  0.00000000E+00  0.00000000E+00  0.00000000E+00
