K4 Sr4 In4 N8                           
   1.00000000000000     
     6.5972760495163545   -0.0000668814124709   -0.6398419247372000
    -0.0000922069346967    9.4627484368665229    0.0000347361136762
    -0.6460914035896453    0.0000299272811168    6.3901072734129043
   K    Sr   In   N 
     4     4     4     8
Direct
  0.3174335090435073  0.3766184860270220  0.0055812477585028
  0.6826175856549159  0.8766061931580098  0.4944547549528257
  0.6825885111830633  0.6233888526221946 -0.0055595053131095
  0.3174138747455805  0.1233704288189817  0.5055836803962729
  0.9197644911213608  0.1205055338254865  0.8021502187863605
  0.0802270636808467  0.6204886468783918  0.6978458099268610
  0.0802282050675231  0.8795053001426055  0.1978437349171499
  0.9197623711594556  0.3795051058991253  0.3021423592020680
  0.6080939137967303  0.3747002170498908  0.6145620668708710
  0.3919043295636853  0.8746917034129539  0.8854301750175068
  0.3919081691533330  0.6253072905245955  0.3854295418264608
  0.6080862407431435  0.1253036035282796  0.1145681140490246
  0.2735022057450875  0.8151294177527847  0.5567210986667777
  0.7264927250315493  0.3151312880429561  0.9432750163781528
  0.7264907765361862  0.1848732901898253  0.4432679307106591
  0.2734983798292736  0.6848716070147762  0.0567227023790834
  0.2798291755082974  0.4308098219885183  0.5261124225973443
  0.7201672220476464  0.9308130446304015  0.9738802708166540
  0.7201651170055833  0.5691914865585351  0.4738764524794467
  0.2798261333832384  0.0691886819346662  0.0261119075810882
 
  0.00000000E+00  0.00000000E+00  0.00000000E+00
  0.00000000E+00  0.00000000E+00  0.00000000E+00
  0.00000000E+00  0.00000000E+00  0.00000000E+00
  0.00000000E+00  0.00000000E+00  0.00000000E+00
  0.00000000E+00  0.00000000E+00  0.00000000E+00
  0.00000000E+00  0.00000000E+00  0.00000000E+00
  0.00000000E+00  0.00000000E+00  0.00000000E+00
  0.00000000E+00  0.00000000E+00  0.00000000E+00
  0.00000000E+00  0.00000000E+00  0.00000000E+00
  0.00000000E+00  0.00000000E+00  0.00000000E+00
  0.00000000E+00  0.00000000E+00  0.00000000E+00
  0.00000000E+00  0.00000000E+00  0.00000000E+00
  0.00000000E+00  0.00000000E+00  0.00000000E+00
  0.00000000E+00  0.00000000E+00  0.00000000E+00
  0.00000000E+00  0.00000000E+00  0.00000000E+00
  0.00000000E+00  0.00000000E+00  0.00000000E+00
  0.00000000E+00  0.00000000E+00  0.00000000E+00
  0.00000000E+00  0.00000000E+00  0.00000000E+00
  0.00000000E+00  0.00000000E+00  0.00000000E+00
  0.00000000E+00  0.00000000E+00  0.00000000E+00
