Na6 Mg6 Ga6 N12                         
   1.00000000000000     
    -2.7501946804179029   -5.8680469001840683    0.2477328936038979
    -2.7502000421080521    5.8680500858535520    0.2477441723573255
     0.7102344524374761   -0.0000124022482537  -11.8511394030912403
   Ga   Na   N    Mg
     6     6    12     6
Direct
  0.8282637655693306  0.5201405744911399  0.1722305115809401
  0.5201404781821263  0.8282603713419506  0.1722298423937199
  0.1717278383440063  0.4798698960596437  0.8277628894317988
  0.4798699123807637  0.1717316304734051  0.8277638630259798
  0.4021143978053249  0.4021131585937650  0.5920384176262642
  0.5978807570596154  0.5978808710078658  0.4079665973952181
  0.1429152412494915  0.5015314296662494  0.3222499630186639
  0.5015298363759000  0.1429128759241949  0.3222509938363688
  0.8570788139980969  0.4984566271414864  0.6777389049237126
  0.4984586432425419  0.8570808898857012  0.6777381187954058
  0.2902389135148471  0.2902385689632292  0.0762193128401567
  0.7097708360074754  0.7097760328761316  0.9237693646023299
  0.8846374256009236  0.6182954142748508  0.3490605830601794
  0.6182964525774265  0.8846353854436082  0.3490589733901784
  0.1152864195665544  0.3816323923761185  0.6509336681355904
  0.3816319333086133  0.1152869840412573  0.6509353833885995
  0.1313563887268602  0.5387884578882340  0.1234414081012796
  0.5387899582013658  0.1313549978646543  0.1234420770625200
  0.8686571022550370  0.4612420761539580  0.8765597400653182
  0.4612397119427745  0.8686581296602245  0.8765587551449376
  0.2489366452035483  0.2489362881784585  0.4248278168894336
  0.7510078059971759  0.7510065131005459  0.5751802077186260
  0.7897744798560588  0.7897718286506872  0.1258081456676663
  0.2103675542787158  0.2103704051836577  0.8741988818521291
  0.9621143802473472  0.9621135105879189  0.2898831150589415
  0.0379010595882396  0.0379016435684024  0.7101487697383043
  0.8755959000070137  0.1244336321429965  0.4999975270436293
  0.1244179001324023  0.8755799150293122  0.5000070561407743
  0.7971130446782763  0.2028865342328347 -0.0000004241558919
  0.2028864041021393  0.7971129651975239 -0.0000004637727745
 
  0.00000000E+00  0.00000000E+00  0.00000000E+00
  0.00000000E+00  0.00000000E+00  0.00000000E+00
  0.00000000E+00  0.00000000E+00  0.00000000E+00
  0.00000000E+00  0.00000000E+00  0.00000000E+00
  0.00000000E+00  0.00000000E+00  0.00000000E+00
  0.00000000E+00  0.00000000E+00  0.00000000E+00
  0.00000000E+00  0.00000000E+00  0.00000000E+00
  0.00000000E+00  0.00000000E+00  0.00000000E+00
  0.00000000E+00  0.00000000E+00  0.00000000E+00
  0.00000000E+00  0.00000000E+00  0.00000000E+00
  0.00000000E+00  0.00000000E+00  0.00000000E+00
  0.00000000E+00  0.00000000E+00  0.00000000E+00
  0.00000000E+00  0.00000000E+00  0.00000000E+00
  0.00000000E+00  0.00000000E+00  0.00000000E+00
  0.00000000E+00  0.00000000E+00  0.00000000E+00
  0.00000000E+00  0.00000000E+00  0.00000000E+00
  0.00000000E+00  0.00000000E+00  0.00000000E+00
  0.00000000E+00  0.00000000E+00  0.00000000E+00
  0.00000000E+00  0.00000000E+00  0.00000000E+00
  0.00000000E+00  0.00000000E+00  0.00000000E+00
  0.00000000E+00  0.00000000E+00  0.00000000E+00
  0.00000000E+00  0.00000000E+00  0.00000000E+00
  0.00000000E+00  0.00000000E+00  0.00000000E+00
  0.00000000E+00  0.00000000E+00  0.00000000E+00
  0.00000000E+00  0.00000000E+00  0.00000000E+00
  0.00000000E+00  0.00000000E+00  0.00000000E+00
  0.00000000E+00  0.00000000E+00  0.00000000E+00
  0.00000000E+00  0.00000000E+00  0.00000000E+00
  0.00000000E+00  0.00000000E+00  0.00000000E+00
  0.00000000E+00  0.00000000E+00  0.00000000E+00
