Na12 Mg3 N6                             
   1.00000000000000     
     4.3467940346652982   -0.0017775072738370   -0.0007438002257901
    -2.1749363936041548    3.7635285045660432    0.0007499083030041
    -0.0033681726098722    0.0019795239384178   21.4934557069860759
   Na   Mg   N 
    12     3     6
Direct
 -0.0000344730388466  0.0000301907361580  0.7954515116187111
  0.0000394873592076 -0.0000410022586197  0.2045602984186945
  0.6664888679965997  0.3335834943673832  0.1286526412142343
  0.6666863194669445  0.3333106122575653  0.5385211158268769
  0.3333435782130253  0.6666532414697371  0.4614891521990057
  0.3334057791422382  0.6665790577910201  0.8713320891876241
  0.0000981745530492 -0.0001036392902050  0.5855702889543802
 -0.0000712880768960  0.0000667759889244  0.4144323201926952
  0.6664766273357331  0.3335162924419801  0.9182990786115929
  0.6666749345020170  0.3333228803033886  0.7479442917799255
  0.3333327554397765  0.6666655620902711  0.2520581526649731
  0.3335123446123917  0.6664903435055961  0.0817013342716873
 -0.0000029127176017  0.0000000800621594 -0.0000052973475073
  0.6666390127025728  0.3333603570369760  0.3330470136780913
  0.3333618545220108  0.6666368300697247  0.6669567942101617
 -0.0000608544414332  0.0000556131161612  0.9085152200710411
  0.0000741602664851 -0.0000738466057106  0.0914651520202389
  0.6666480715255264  0.3333495990949752  0.2416356488487409
  0.6666342743144245  0.3333606428840984  0.4245542328046513
  0.3333877659292983  0.6666072715923095  0.5754507676946470
  0.3333655203934918  0.6666296433461069  0.7583681930795488
 
  0.00000000E+00  0.00000000E+00  0.00000000E+00
  0.00000000E+00  0.00000000E+00  0.00000000E+00
  0.00000000E+00  0.00000000E+00  0.00000000E+00
  0.00000000E+00  0.00000000E+00  0.00000000E+00
  0.00000000E+00  0.00000000E+00  0.00000000E+00
  0.00000000E+00  0.00000000E+00  0.00000000E+00
  0.00000000E+00  0.00000000E+00  0.00000000E+00
  0.00000000E+00  0.00000000E+00  0.00000000E+00
  0.00000000E+00  0.00000000E+00  0.00000000E+00
  0.00000000E+00  0.00000000E+00  0.00000000E+00
  0.00000000E+00  0.00000000E+00  0.00000000E+00
  0.00000000E+00  0.00000000E+00  0.00000000E+00
  0.00000000E+00  0.00000000E+00  0.00000000E+00
  0.00000000E+00  0.00000000E+00  0.00000000E+00
  0.00000000E+00  0.00000000E+00  0.00000000E+00
  0.00000000E+00  0.00000000E+00  0.00000000E+00
  0.00000000E+00  0.00000000E+00  0.00000000E+00
  0.00000000E+00  0.00000000E+00  0.00000000E+00
  0.00000000E+00  0.00000000E+00  0.00000000E+00
  0.00000000E+00  0.00000000E+00  0.00000000E+00
  0.00000000E+00  0.00000000E+00  0.00000000E+00
