Na6 Ca6 Ga6 P12                         
   1.00000000000000     
    -3.4532504258213024   -6.6293678956365545    0.0612233043772676
    -3.4850748179779250    6.6463350744284506    0.1018444371948379
    -0.0055283695101416   -0.0444646974678101  -14.5690362874452397
   Ga   Na   P    Ca
     6     6    12     6
Direct
  0.8274753619358945  0.5081166672095365  0.1805432074982770
  0.5074835332344833  0.8281901097180651  0.1810291962988758
  0.1724800907485492  0.4918791999463520  0.8194333120730841
  0.4925448572368776  0.1718005882789131  0.8189845156299980
  0.3887073231063325  0.3869304559612093  0.5852101216258584
  0.6112394777415567  0.6129973375186284  0.4147998737214637
  0.1825242720130123  0.5123312699386566  0.3202252449254886
  0.5157255677485194  0.1837598252423899  0.3214325307577574
  0.8174796145783737  0.4877054268023964  0.6797549734972343
  0.4842653333367520  0.8162231905925021  0.6785670364332353
  0.3709273108230073  0.3703486984025026  0.0776005536947568
  0.6290666120122701  0.6296395650028388  0.9224018578152159
  0.8820306961542841  0.5906516861780923  0.3474074562861434
  0.5877177361668983  0.8818898852406369  0.3487851788840757
  0.1179629561222243  0.4093826841946394  0.6525720368080410
  0.4123694297217287  0.1181532607831069  0.6512274481825008
  0.1416123950694369  0.5263706759833007  0.1324351211808128
  0.5235853486662343  0.1404730077875265  0.1340765501447507
  0.8583796762142123  0.4736244313948085  0.8675764818466856
  0.4763776006392346  0.8594852901562647  0.8659217460495970
  0.2589828960693680  0.2600084820604385  0.4276789414388991
  0.7410130918479733  0.7400275327436712  0.5723097718360359
  0.7772551196676243  0.7774801595021620  0.1064866052326703
  0.2227497718963565  0.2225324391771786  0.8935314120863699
  0.9888951549734671  0.9876619264511900  0.2692948105347043
  0.0111096426670583  0.0123680041406492  0.7307024943031417
  0.8430092125317069  0.1524412816193856  0.5015503852363260
  0.1570307254196598  0.8475604797778187  0.4984539611175109
  0.8348034826735792  0.1644226171022880  0.0000748807030303
  0.1651957089833166  0.8355438210928430 -0.0000677058425474
 
  0.00000000E+00  0.00000000E+00  0.00000000E+00
  0.00000000E+00  0.00000000E+00  0.00000000E+00
  0.00000000E+00  0.00000000E+00  0.00000000E+00
  0.00000000E+00  0.00000000E+00  0.00000000E+00
  0.00000000E+00  0.00000000E+00  0.00000000E+00
  0.00000000E+00  0.00000000E+00  0.00000000E+00
  0.00000000E+00  0.00000000E+00  0.00000000E+00
  0.00000000E+00  0.00000000E+00  0.00000000E+00
  0.00000000E+00  0.00000000E+00  0.00000000E+00
  0.00000000E+00  0.00000000E+00  0.00000000E+00
  0.00000000E+00  0.00000000E+00  0.00000000E+00
  0.00000000E+00  0.00000000E+00  0.00000000E+00
  0.00000000E+00  0.00000000E+00  0.00000000E+00
  0.00000000E+00  0.00000000E+00  0.00000000E+00
  0.00000000E+00  0.00000000E+00  0.00000000E+00
  0.00000000E+00  0.00000000E+00  0.00000000E+00
  0.00000000E+00  0.00000000E+00  0.00000000E+00
  0.00000000E+00  0.00000000E+00  0.00000000E+00
  0.00000000E+00  0.00000000E+00  0.00000000E+00
  0.00000000E+00  0.00000000E+00  0.00000000E+00
  0.00000000E+00  0.00000000E+00  0.00000000E+00
  0.00000000E+00  0.00000000E+00  0.00000000E+00
  0.00000000E+00  0.00000000E+00  0.00000000E+00
  0.00000000E+00  0.00000000E+00  0.00000000E+00
  0.00000000E+00  0.00000000E+00  0.00000000E+00
  0.00000000E+00  0.00000000E+00  0.00000000E+00
  0.00000000E+00  0.00000000E+00  0.00000000E+00
  0.00000000E+00  0.00000000E+00  0.00000000E+00
  0.00000000E+00  0.00000000E+00  0.00000000E+00
  0.00000000E+00  0.00000000E+00  0.00000000E+00
