K6 Ca6 Ga6 N12                          
   1.00000000000000     
    -2.9209826872332871   -6.2420070373413195    0.2085774318399305
    -2.9209629668349302    6.2419949618357453    0.2085068109208948
     0.5561622314769348    0.0000758294222362  -13.0958018466840223
   Ga   K    N    Ca
     6     6    12     6
Direct
  0.8366104385534165  0.5173975685441475  0.1716148509811497
  0.5174000790095724  0.8366093452365214  0.1716155016996656
  0.1633867099399064  0.4825951436363467  0.8283909532379898
  0.4825996371400550  0.1633878157581051  0.8283880143376988
  0.4016465511170451  0.4016470229720303  0.5886682396000141
  0.5983448711000129  0.5983436099994294  0.4113291647393010
  0.1139155115891841  0.4597788258523361  0.3172043135920591
  0.4597841941622483  0.1139207507874231  0.3172023510710410
  0.8860780117713883  0.5402138232724661  0.6828002105909011
  0.5402137393307900  0.8860742590339279  0.6828017302173330
  0.3180439346630440  0.3180435682468933  0.0876993285049082
  0.6820123903672834  0.6820106410642309  0.9122827150096608
  0.8604408373973601  0.6057425098728787  0.3428374239555502
  0.6057488095314484  0.8604423487660104  0.3428346207634676
  0.1395470369345064  0.3942448353836374  0.6571559973595686
  0.3942460130006001  0.1395474945530240  0.6571608402995576
  0.1482847066447210  0.5776115516501183  0.1283554743768516
  0.5776102716643275  0.1482877920789930  0.1283530884970375
  0.8517041153073780  0.4223811371734384  0.8716490423249043
  0.4223794979153225  0.8517034925491992  0.8716483237716596
  0.2639709993087112  0.2639669833263580  0.4411594245254963
  0.7360322531730181  0.7360334254782595  0.5588399643117506
  0.7841773570680328  0.7841926045247107  0.1184105434644655
  0.2158246693290499  0.2158356348713245  0.8815867914701671
  0.9580528035304127  0.9580498213097850  0.2823977794819676
  0.0419500249236905  0.0419491455561546  0.7175985478304998
  0.8685381945515496  0.1314503499156268  0.4999985360212008
  0.1314498311212531  0.8685374967109318  0.5000020069567374
  0.8225622515336192  0.1774369839502699  0.0000083049910161
  0.1774442583210516  0.8225640179254222  0.0000059160163791
 
  0.00000000E+00  0.00000000E+00  0.00000000E+00
  0.00000000E+00  0.00000000E+00  0.00000000E+00
  0.00000000E+00  0.00000000E+00  0.00000000E+00
  0.00000000E+00  0.00000000E+00  0.00000000E+00
  0.00000000E+00  0.00000000E+00  0.00000000E+00
  0.00000000E+00  0.00000000E+00  0.00000000E+00
  0.00000000E+00  0.00000000E+00  0.00000000E+00
  0.00000000E+00  0.00000000E+00  0.00000000E+00
  0.00000000E+00  0.00000000E+00  0.00000000E+00
  0.00000000E+00  0.00000000E+00  0.00000000E+00
  0.00000000E+00  0.00000000E+00  0.00000000E+00
  0.00000000E+00  0.00000000E+00  0.00000000E+00
  0.00000000E+00  0.00000000E+00  0.00000000E+00
  0.00000000E+00  0.00000000E+00  0.00000000E+00
  0.00000000E+00  0.00000000E+00  0.00000000E+00
  0.00000000E+00  0.00000000E+00  0.00000000E+00
  0.00000000E+00  0.00000000E+00  0.00000000E+00
  0.00000000E+00  0.00000000E+00  0.00000000E+00
  0.00000000E+00  0.00000000E+00  0.00000000E+00
  0.00000000E+00  0.00000000E+00  0.00000000E+00
  0.00000000E+00  0.00000000E+00  0.00000000E+00
  0.00000000E+00  0.00000000E+00  0.00000000E+00
  0.00000000E+00  0.00000000E+00  0.00000000E+00
  0.00000000E+00  0.00000000E+00  0.00000000E+00
  0.00000000E+00  0.00000000E+00  0.00000000E+00
  0.00000000E+00  0.00000000E+00  0.00000000E+00
  0.00000000E+00  0.00000000E+00  0.00000000E+00
  0.00000000E+00  0.00000000E+00  0.00000000E+00
  0.00000000E+00  0.00000000E+00  0.00000000E+00
  0.00000000E+00  0.00000000E+00  0.00000000E+00
