K4 Ca4 In4 P8                           
   1.00000000000000     
     7.4474787720673223   -0.0003675555368782   -0.7934704473875466
    -0.0005266374094123   10.8987347104862327    0.0001537902526997
    -0.8309616748311495    0.0001518615645692    7.2744444546177469
   K    Ca   In   P 
     4     4     4     8
Direct
  0.3030936329285457  0.3761378975126420  0.0303594296869282
  0.6969102747939987  0.8761987258063950  0.4695337379912137
  0.6969760436454199  0.6238065239506182  0.9696501515852187
  0.3028983395823989  0.1238931574237114  0.5302767338425610
  0.8966979530937317  0.1248800062842044  0.8271856846096021
  0.1032934898502090  0.6249135528779848  0.6728693445435301
  0.1033311855644097  0.8750495238912750  0.1728226080788692
  0.8967192385256751  0.3751086668302907  0.3271751130221224
  0.6056474448990489  0.3709379195710149  0.6109495024949672
  0.3943555324093485  0.8709716932911572  0.8890437999275189
  0.3943411072994313  0.6290590069289339  0.3890590401646407
  0.6056556274443753  0.1290458040696642  0.1109577715041443
  0.2741009472836732  0.8247853902664743  0.5394756423498636
  0.7259284826451634  0.3247502406114867  0.9604922508669425
  0.7259039586454211  0.1752359486360084  0.4605115136749456
  0.2741194873233011  0.6752381238230416  0.0394927313856396
  0.2643091466515251  0.4275982752305157  0.5038788547779266
  0.7357112562223241  0.9275808657514801  0.9962428627409814
  0.7356863672816130  0.5724064448365802  0.4961795794021448
  0.2643204839103793  0.0724022324065353  0.0038436473502325
 
  0.00000000E+00  0.00000000E+00  0.00000000E+00
  0.00000000E+00  0.00000000E+00  0.00000000E+00
  0.00000000E+00  0.00000000E+00  0.00000000E+00
  0.00000000E+00  0.00000000E+00  0.00000000E+00
  0.00000000E+00  0.00000000E+00  0.00000000E+00
  0.00000000E+00  0.00000000E+00  0.00000000E+00
  0.00000000E+00  0.00000000E+00  0.00000000E+00
  0.00000000E+00  0.00000000E+00  0.00000000E+00
  0.00000000E+00  0.00000000E+00  0.00000000E+00
  0.00000000E+00  0.00000000E+00  0.00000000E+00
  0.00000000E+00  0.00000000E+00  0.00000000E+00
  0.00000000E+00  0.00000000E+00  0.00000000E+00
  0.00000000E+00  0.00000000E+00  0.00000000E+00
  0.00000000E+00  0.00000000E+00  0.00000000E+00
  0.00000000E+00  0.00000000E+00  0.00000000E+00
  0.00000000E+00  0.00000000E+00  0.00000000E+00
  0.00000000E+00  0.00000000E+00  0.00000000E+00
  0.00000000E+00  0.00000000E+00  0.00000000E+00
  0.00000000E+00  0.00000000E+00  0.00000000E+00
  0.00000000E+00  0.00000000E+00  0.00000000E+00
