K4 Ca4 Al4 P8                           
   1.00000000000000     
     7.3607202870857584    0.0006083688317586   -0.9548143184262827
     0.0007326473951751   10.5301812143750624   -0.0009537779588597
    -0.9493176748879061   -0.0006934352923065    6.9837104912497319
   K    Ca   Al   P 
     4     4     4     8
Direct
  0.3193514119485954  0.3758734981597627  0.0530648293244056
  0.6805311154069358  0.8759205127002332  0.4468711361050524
  0.6806156840386066  0.6240971954994379  0.9469201393405200
  0.3195487959385162  0.1240832134253438  0.5532125743809502
  0.8961974600729903  0.1212219914100743  0.8137816650992349
  0.1037994799300748  0.6212822648679435  0.6862306823597208
  0.1038109233146685  0.8787765188935737  0.1862198494878413
  0.8962082415224231  0.3787164746606209  0.3137571052676336
  0.6020149915289608  0.3718864542282247  0.5907960635160165
  0.3979472487658029  0.8719140233173803  0.9092022249369549
  0.3979771935665397  0.6281219930793824  0.4091780369999256
  0.6020421678903602  0.1280898603762211  0.0907925598688308
  0.2977862312951132  0.8149868271224747  0.5668266057202871
  0.7020847974566706  0.3149496530168818  0.9331463184357887
  0.7022140155748886  0.1850230135362096  0.4331651410713420
  0.2978895579971734  0.6850519525448249  0.0668323945025975
  0.2776138461986264  0.4328083409583172  0.5029574386862450
  0.7223438962600497  0.9327938390368473  0.9968285023548944
  0.7223806117916993  0.5671961698224024  0.4970365821270377
  0.2776423295013188  0.0672062033438579  0.0031801504147353
 
  0.00000000E+00  0.00000000E+00  0.00000000E+00
  0.00000000E+00  0.00000000E+00  0.00000000E+00
  0.00000000E+00  0.00000000E+00  0.00000000E+00
  0.00000000E+00  0.00000000E+00  0.00000000E+00
  0.00000000E+00  0.00000000E+00  0.00000000E+00
  0.00000000E+00  0.00000000E+00  0.00000000E+00
  0.00000000E+00  0.00000000E+00  0.00000000E+00
  0.00000000E+00  0.00000000E+00  0.00000000E+00
  0.00000000E+00  0.00000000E+00  0.00000000E+00
  0.00000000E+00  0.00000000E+00  0.00000000E+00
  0.00000000E+00  0.00000000E+00  0.00000000E+00
  0.00000000E+00  0.00000000E+00  0.00000000E+00
  0.00000000E+00  0.00000000E+00  0.00000000E+00
  0.00000000E+00  0.00000000E+00  0.00000000E+00
  0.00000000E+00  0.00000000E+00  0.00000000E+00
  0.00000000E+00  0.00000000E+00  0.00000000E+00
  0.00000000E+00  0.00000000E+00  0.00000000E+00
  0.00000000E+00  0.00000000E+00  0.00000000E+00
  0.00000000E+00  0.00000000E+00  0.00000000E+00
  0.00000000E+00  0.00000000E+00  0.00000000E+00
