 vasp.6.1.2 22Jul20 (build Apr 14 2021 21:39:43) complex                        
  
 executed on             LinuxIFC date 2024.07.10  21:21:49
 running on   64 total cores
 distrk:  each k-point on   64 cores,    1 groups
 distr:  one band on NCORE=  16 cores,    4 groups


--------------------------------------------------------------------------------------------------------


 INCAR:
 POTCAR:    PAW_PBE K_sv 06Sep2000                
 POTCAR:    PAW_PBE Ca_sv 06Sep2000               
 POTCAR:    PAW_PBE Al 04Jan2001                  
 POTCAR:    PAW_PBE P 06Sep2000                   
 POTCAR:    PAW_PBE K_sv 06Sep2000                
   SHA256 =  bf8373ef592e31d27efa2dcc68371be6d6a25ce4db6c2ffaf9e92c44050ba21a K_sv/POTCAR           
   COPYR  = (c) Copyright 06Sep2000 Georg Kresse                                                    
   COPYR  = This file is part of the software VASP. Any use, copying, and all other rights are regul
   COPYR  = If you do not have a valid VASP license, you may not use, copy or distribute this file. 
   VRHFIN =K:  3s3p4s                                                                               
   LEXCH  = PE                                                                                      
   EATOM  =   775.0067 eV,   56.9614 Ry                                                             
                                                                                                    
   TITEL  = PAW_PBE K_sv 06Sep2000                                                                  
   LULTRA =        F    use ultrasoft PP ?                                                          
   IUNSCR =        1    unscreen: 0-lin 1-nonlin 2-no                                               
   RPACOR =    2.200    partial core radius                                                         
   POMASS =   39.098; ZVAL   =    9.000    mass and valenz                                          
   RCORE  =    2.300    outmost cutoff radius                                                       
   RWIGS  =    3.000; RWIGS  =    1.588    wigner-seitz radius (au A)                               
   ENMAX  =  259.264; ENMIN  =  194.448 eV                                                          
   RCLOC  =    2.005    cutoff for local pot                                                        
   LCOR   =        T    correct aug charges                                                         
   LPAW   =        T    paw PP                                                                      
   EAUG   =  427.853                                                                                
   DEXC   =    0.000                                                                                
   RMAX   =    2.358    core radius for proj-oper                                                   
   RAUG   =    1.300    factor for augmentation sphere                                              
   RDEP   =    2.372    radius for radial grids                                                     
   RDEPT  =    2.002    core radius for aug-charge                                                  
                                                                                                    
   Atomic configuration                                                                             
    7 entries                                                                                       
     n  l   j            E        occ.                                                              
     1  0  0.50     -3522.0595   2.0000                                                             
     2  0  0.50      -353.3851   2.0000                                                             
     2  1  1.50      -280.0935   6.0000                                                             
     3  0  0.50       -35.3419   2.0000                                                             
     4  0  0.50        -2.3190   1.0000                                                             
     3  1  1.50       -18.8125   6.0000                                                             
     3  2  1.50        -1.3606   0.0000                                                             
   Description                                                                                      
     l       E           TYP  RCUT    TYP  RCUT                                                     
     0    -35.3418873     23  2.300                                                                 
     0     -2.3190215     23  2.300                                                                 
     1    -18.8124623     23  2.300                                                                 
     1    -20.4087390     23  2.300                                                                 
     2     -1.3605826     23  2.300                                                                 
  local pseudopotential read in
  partial core-charges read in
  partial kinetic energy density read in
  atomic valenz-charges read in
  non local Contribution for L=           0  read in
    real space projection operators read in
  non local Contribution for L=           0  read in
    real space projection operators read in
  non local Contribution for L=           1  read in
    real space projection operators read in
  non local Contribution for L=           1  read in
    real space projection operators read in
  non local Contribution for L=           2  read in
    real space projection operators read in
    PAW grid and wavefunctions read in
 
   number of l-projection  operators is LMAX  =           5
   number of lm-projection operators is LMMAX =          13
 
 POTCAR:    PAW_PBE Ca_sv 06Sep2000               
   SHA256 =  a47365830e737f14e0e6c5cf1ed81b94e081eecf0a33df105380881bc9da05d5 Ca_sv/POTCAR          
   COPYR  = (c) Copyright 06Sep2000 Georg Kresse                                                    
   COPYR  = This file is part of the software VASP. Any use, copying, and all other rights are regul
   COPYR  = If you do not have a valid VASP license, you may not use, copy or distribute this file. 
   VRHFIN =Ca: 3s3p4s                                                                               
   LEXCH  = PE                                                                                      
   EATOM  =  1006.0909 eV,   73.9456 Ry                                                             
                                                                                                    
   TITEL  = PAW_PBE Ca_sv 06Sep2000                                                                 
   LULTRA =        F    use ultrasoft PP ?                                                          
   IUNSCR =        1    unscreen: 0-lin 1-nonlin 2-no                                               
   RPACOR =    2.000    partial core radius                                                         
   POMASS =   40.078; ZVAL   =   10.000    mass and valenz                                          
   RCORE  =    2.300    outmost cutoff radius                                                       
   RWIGS  =    2.500; RWIGS  =    1.323    wigner-seitz radius (au A)                               
   ENMAX  =  266.622; ENMIN  =  199.967 eV                                                          
   RCLOC  =    1.808    cutoff for local pot                                                        
   LCOR   =        T    correct aug charges                                                         
   LPAW   =        T    paw PP                                                                      
   EAUG   =  420.852                                                                                
   RMAX   =    2.359    core radius for proj-oper                                                   
   RAUG   =    1.300    factor for augmentation sphere                                              
   RDEP   =    2.392    radius for radial grids                                                     
   RDEPT  =    1.987    core radius for aug-charge                                                  
                                                                                                    
   Atomic configuration                                                                             
    7 entries                                                                                       
     n  l   j            E        occ.                                                              
     1  0  0.50     -3949.1705   2.0000                                                             
     2  0  0.50      -414.3434   2.0000                                                             
     2  1  1.50      -334.7047   6.0000                                                             
     3  0  0.50       -47.0896   2.0000                                                             
     4  0  0.50        -3.7663   2.0000                                                             
     3  1  1.50       -28.0061   6.0000                                                             
     3  2  1.50        -4.0817   0.0000                                                             
   Description                                                                                      
     l       E           TYP  RCUT    TYP  RCUT                                                     
     0    -47.0896403     23  2.300                                                                 
     0     -3.7663320     23  2.300                                                                 
     1    -28.0060855     23  2.300                                                                 
     1      6.8029130     23  2.300                                                                 
     2     -4.0817478     23  2.300                                                                 
     2      0.4464412     23  2.300                                                                 
  local pseudopotential read in
  partial core-charges read in
  partial kinetic energy density read in
  atomic valenz-charges read in
  non local Contribution for L=           0  read in
    real space projection operators read in
  non local Contribution for L=           0  read in
    real space projection operators read in
  non local Contribution for L=           1  read in
    real space projection operators read in
  non local Contribution for L=           1  read in
    real space projection operators read in
  non local Contribution for L=           2  read in
    real space projection operators read in
  non local Contribution for L=           2  read in
    real space projection operators read in
    PAW grid and wavefunctions read in
 
   number of l-projection  operators is LMAX  =           6
   number of lm-projection operators is LMMAX =          18
 
 POTCAR:    PAW_PBE Al 04Jan2001                  
   SHA256 =  17880443556af62b473fe41b62a467bd001ad55d2cabe504a3f22e34d4e9db96 Al/POTCAR             
   COPYR  = (c) Copyright 04Jan2001 Georg Kresse                                                    
   COPYR  = This file is part of the software VASP. Any use, copying, and all other rights are regul
   COPYR  = If you do not have a valid VASP license, you may not use, copy or distribute this file. 
   VRHFIN =Al: s2p1                                                                                 
   LEXCH  = PE                                                                                      
   EATOM  =    53.5387 eV,    3.9350 Ry                                                             
                                                                                                    
   TITEL  = PAW_PBE Al 04Jan2001                                                                    
   LULTRA =        F    use ultrasoft PP ?                                                          
   IUNSCR =        1    unscreen: 0-lin 1-nonlin 2-no                                               
   RPACOR =    1.500    partial core radius                                                         
   POMASS =   26.981; ZVAL   =    3.000    mass and valenz                                          
   RCORE  =    1.900    outmost cutoff radius                                                       
   RWIGS  =    2.650; RWIGS  =    1.402    wigner-seitz radius (au A)                               
   ENMAX  =  240.300; ENMIN  =  180.225 eV                                                          
   ICORE  =        2    local potential                                                             
   LCOR   =        T    correct aug charges                                                         
   LPAW   =        T    paw PP                                                                      
   EAUG   =  291.052                                                                                
   DEXC   =    0.000                                                                                
   RMAX   =    1.939    core radius for proj-oper                                                   
   RAUG   =    1.300    factor for augmentation sphere                                              
   RDEP   =    1.966    radius for radial grids                                                     
   RDEPT  =    1.856    core radius for aug-charge                                                  
                                                                                                    
   Atomic configuration                                                                             
    6 entries                                                                                       
     n  l   j            E        occ.                                                              
     1  0  0.50     -1511.1048   2.0000                                                             
     2  0  0.50      -108.1629   2.0000                                                             
     2  1  1.50       -69.6402   6.0000                                                             
     3  0  0.50        -7.7528   2.0000                                                             
     3  1  1.50        -2.7121   1.0000                                                             
     3  2  2.50        -2.7212   0.0000                                                             
   Description                                                                                      
     l       E           TYP  RCUT    TYP  RCUT                                                     
     0     -7.7528455     23  1.900                                                                 
     0     -3.3096929     23  1.900                                                                 
     1     -2.7120682     23  1.900                                                                 
     1     13.6058260     23  1.900                                                                 
     2     -2.7211652      7  1.900                                                                 
  local pseudopotential read in
  partial core-charges read in
  partial kinetic energy density read in
  atomic valenz-charges read in
  non local Contribution for L=           0  read in
    real space projection operators read in
  non local Contribution for L=           0  read in
    real space projection operators read in
  non local Contribution for L=           1  read in
    real space projection operators read in
  non local Contribution for L=           1  read in
    real space projection operators read in
    PAW grid and wavefunctions read in
 
   number of l-projection  operators is LMAX  =           4
   number of lm-projection operators is LMMAX =           8
 
 POTCAR:    PAW_PBE P 06Sep2000                   
   SHA256 =  df60c54a93efe35c9e85ae94c010c75e9f6960a95d5595d7cdba4096d109af88 P/POTCAR              
   COPYR  = (c) Copyright 06Sep2000 Georg Kresse                                                    
   COPYR  = This file is part of the software VASP. Any use, copying, and all other rights are regul
   COPYR  = If you do not have a valid VASP license, you may not use, copy or distribute this file. 
   VRHFIN =P : s2p3                                                                                 
   LEXCH  = PE                                                                                      
   EATOM  =   176.0430 eV,   12.9388 Ry                                                             
                                                                                                    
   TITEL  = PAW_PBE P 06Sep2000                                                                     
   LULTRA =        F    use ultrasoft PP ?                                                          
   IUNSCR =        1    unscreen: 0-lin 1-nonlin 2-no                                               
   RPACOR =    1.500    partial core radius                                                         
   POMASS =   30.974; ZVAL   =    5.000    mass and valenz                                          
   RCORE  =    1.900    outmost cutoff radius                                                       
   RWIGS  =    2.330; RWIGS  =    1.233    wigner-seitz radius (au A)                               
   ENMAX  =  255.040; ENMIN  =  191.280 eV                                                          
   ICORE  =        2    local potential                                                             
   LCOR   =        T    correct aug charges                                                         
   LPAW   =        T    paw PP                                                                      
   EAUG   =  342.924                                                                                
   DEXC   =    0.000                                                                                
   RMAX   =    1.935    core radius for proj-oper                                                   
   RAUG   =    1.300    factor for augmentation sphere                                              
   RDEP   =    1.931    radius for radial grids                                                     
   RDEPT  =    1.794    core radius for aug-charge                                                  
                                                                                                    
   Atomic configuration                                                                             
    6 entries                                                                                       
     n  l   j            E        occ.                                                              
     1  0  0.50     -2084.0982   2.0000                                                             
     2  0  0.50      -173.9859   2.0000                                                             
     2  1  1.50      -124.4865   6.0000                                                             
     3  0  0.50       -13.9692   2.0000                                                             
     3  1  0.50        -5.5067   3.0000                                                             
     3  2  1.50        -5.4423   0.0000                                                             
   Description                                                                                      
     l       E           TYP  RCUT    TYP  RCUT                                                     
     0    -13.9691527     23  1.900                                                                 
     0    -11.7794650     23  1.900                                                                 
     1     -5.5066937     23  1.900                                                                 
     1     -0.2556953     23  1.900                                                                 
     2     -5.4423304     23  1.900                                                                 
  local pseudopotential read in
  partial core-charges read in
  partial kinetic energy density read in
  atomic valenz-charges read in
  non local Contribution for L=           0  read in
    real space projection operators read in
  non local Contribution for L=           0  read in
    real space projection operators read in
  non local Contribution for L=           1  read in
    real space projection operators read in
  non local Contribution for L=           1  read in
    real space projection operators read in
    PAW grid and wavefunctions read in
 
   number of l-projection  operators is LMAX  =           4
   number of lm-projection operators is LMMAX =           8
 
 Optimization of the real space projectors (new method)

 maximal supplied QI-value         = 16.25
 optimisation between [QCUT,QGAM] = [ 11.54, 23.24] = [ 37.28,151.24] Ry 
 Optimized for a Real-space Cutoff    1.32 Angstroem

   l    n(q)    QCUT    max X(q) W(low)/X(q) W(high)/X(q)  e(spline) 
   0      9    11.539    11.234    0.52E-04    0.40E-04    0.14E-07
   0      9    11.539    12.505    0.97E-04    0.77E-04    0.27E-07
   1      9    11.539   167.359    0.18E-03    0.11E-02    0.48E-06
   1      9    11.539   168.875    0.18E-03    0.11E-02    0.48E-06
   2      8    11.539     3.435    0.16E-03    0.11E-03    0.38E-07
 Optimization of the real space projectors (new method)

 maximal supplied QI-value         = 16.25
 optimisation between [QCUT,QGAM] = [ 11.54, 23.24] = [ 37.28,151.24] Ry 
 Optimized for a Real-space Cutoff    1.58 Angstroem

   l    n(q)    QCUT    max X(q) W(low)/X(q) W(high)/X(q)  e(spline) 
   0     11    11.539    11.817    0.25E-04    0.22E-05    0.26E-07
   0     11    11.539     8.461    0.39E-04    0.49E-05    0.55E-07
   1     11    11.539     3.957    0.21E-05    0.44E-05    0.32E-07
   1     11    11.539     4.314    0.56E-04    0.44E-04    0.19E-06
   2     10    11.539    14.565    0.25E-03    0.21E-04    0.75E-06
   2     10    11.539    14.552    0.23E-03    0.22E-04    0.72E-06
 Optimization of the real space projectors (new method)

 maximal supplied QI-value         = 19.84
 optimisation between [QCUT,QGAM] = [ 11.51, 23.22] = [ 37.09,150.92] Ry 
 Optimized for a Real-space Cutoff    1.18 Angstroem

   l    n(q)    QCUT    max X(q) W(low)/X(q) W(high)/X(q)  e(spline) 
   0      8    11.508   176.870    0.11E-03    0.16E-03    0.40E-07
   0      8    11.508   105.762    0.11E-03    0.16E-03    0.39E-07
   1      8    11.508    55.370    0.23E-03    0.10E-03    0.75E-07
   1      8    11.508    20.208    0.21E-03    0.91E-04    0.68E-07
 Optimization of the real space projectors (new method)

 maximal supplied QI-value         = 19.84
 optimisation between [QCUT,QGAM] = [ 11.51, 23.22] = [ 37.09,150.92] Ry 
 Optimized for a Real-space Cutoff    1.21 Angstroem

   l    n(q)    QCUT    max X(q) W(low)/X(q) W(high)/X(q)  e(spline) 
   0      8    11.508   160.924    0.96E-04    0.17E-03    0.52E-07
   0      8    11.508   130.086    0.95E-04    0.17E-03    0.51E-07
   1      8    11.508    74.434    0.16E-03    0.74E-04    0.91E-07
   1      8    11.508    49.120    0.16E-03    0.71E-04    0.89E-07
  PAW_PBE K_sv 06Sep2000                :
 energy of atom  1       EATOM= -775.0067
 kinetic energy error for atom=    0.0014 (will be added to EATOM!!)
  PAW_PBE Ca_sv 06Sep2000               :
 energy of atom  2       EATOM=-1006.0909
 kinetic energy error for atom=    0.0022 (will be added to EATOM!!)
  PAW_PBE Al 04Jan2001                  :
 energy of atom  3       EATOM=  -53.5387
 kinetic energy error for atom=    0.0002 (will be added to EATOM!!)
  PAW_PBE P 06Sep2000                   :
 energy of atom  4       EATOM= -176.0430
 kinetic energy error for atom=    0.0011 (will be added to EATOM!!)
 
 
 POSCAR: K4 Ca4 Al4 P8
  positions in direct lattice
  velocities in cartesian coordinates

 METAGGA = SCAN     LMAXTAU =  6    LMIXTAU =  F

 exchange correlation table for  LEXCH =        8
   RHO(1)=    0.500       N(1)  =     2000
   RHO(2)=  100.500       N(2)  =     4000
 


--------------------------------------------------------------------------------------------------------


 ion  position               nearest neighbor table
   1  0.319  0.376  0.053-  14 3.23  16 3.26  20 3.28  12 3.31  17 3.32
   2  0.681  0.876  0.447-  13 3.23  15 3.26  19 3.28  11 3.31  18 3.32
   3  0.681  0.624  0.947-  16 3.23  14 3.26  18 3.28  10 3.32  19 3.32
   4  0.320  0.124  0.553-  15 3.23  13 3.26  17 3.28   9 3.31  20 3.32
   5  0.896  0.121  0.814-  14 2.75  15 2.78  18 2.85  20 2.85
   6  0.104  0.621  0.686-  13 2.75  16 2.78  17 2.85  19 2.85
   7  0.104  0.879  0.186-  16 2.75  13 2.78  20 2.85  18 2.85
   8  0.896  0.379  0.314-  15 2.75  14 2.78  19 2.85  17 2.85
   9  0.602  0.372  0.591-  19 2.40  14 2.41  17 2.41  15 2.47  11 3.19   4 3.31
  10  0.398  0.872  0.909-  20 2.40  13 2.41  18 2.41  16 2.47  12 3.19   3 3.32
  11  0.398  0.628  0.409-  17 2.40  16 2.41  19 2.41  13 2.47   9 3.19   2 3.31
  12  0.602  0.128  0.091-  18 2.40  15 2.41  20 2.41  14 2.47  10 3.19   1 3.31
  13  0.298  0.815  0.567-  10 2.41  11 2.47   6 2.75   7 2.78   2 3.23   4 3.26
  14  0.702  0.315  0.933-   9 2.41  12 2.47   5 2.75   8 2.78   1 3.23   3 3.26
  15  0.702  0.185  0.433-  12 2.41   9 2.47   8 2.75   5 2.78   4 3.23   2 3.26
  16  0.298  0.685  0.067-  11 2.41  10 2.47   7 2.75   6 2.78   3 3.23   1 3.26
  17  0.278  0.433  0.503-  11 2.40   9 2.41   6 2.85   8 2.85   4 3.28   1 3.32
  18  0.722  0.933  0.997-  12 2.40  10 2.41   5 2.85   7 2.85   3 3.28   2 3.32
  19  0.722  0.567  0.497-   9 2.40  11 2.41   8 2.85   6 2.85   2 3.28   3 3.32
  20  0.278  0.067  0.003-  10 2.40  12 2.41   7 2.85   5 2.85   1 3.28   4 3.32
 

IMPORTANT INFORMATION: All symmetrisations will be switched off!
NOSYMM: (Re-)initialisation of all symmetry stuff for point group C_1.


----------------------------------------------------------------------------------------

                                     Primitive cell                                     

  volume of cell :     531.7606

  direct lattice vectors                    reciprocal lattice vectors
     7.360720287  0.000608369 -0.954814318     0.138294810 -0.000007919  0.018798847
     0.000732647 10.530181214 -0.000953778    -0.000006745  0.094965129  0.000008513
    -0.949317675 -0.000693435  6.983710491     0.018907694  0.000011887  0.145760541

  length of vectors
     7.422390039 10.530181283  7.047937057     0.139566655  0.094965129  0.146981755

  position of ions in fractional coordinates (direct lattice)
     0.319351412  0.375873498  0.053064829
     0.680531115  0.875920513  0.446871136
     0.680615684  0.624097195  0.946920139
     0.319548796  0.124083213  0.553212574
     0.896197460  0.121221991  0.813781665
     0.103799480  0.621282265  0.686230682
     0.103810923  0.878776519  0.186219849
     0.896208242  0.378716475  0.313757105
     0.602014992  0.371886454  0.590796064
     0.397947249  0.871914023  0.909202225
     0.397977194  0.628121993  0.409178037
     0.602042168  0.128089860  0.090792560
     0.297786231  0.814986827  0.566826606
     0.702084797  0.314949653  0.933146318
     0.702214016  0.185023014  0.433165141
     0.297889558  0.685051953  0.066832395
     0.277613846  0.432808341  0.502957439
     0.722343896  0.932793839  0.996828502
     0.722380612  0.567196170  0.497036582
     0.277642330  0.067206203  0.003180150

  ion indices of the primitive-cell ions
   primitive index   ion index
                 1           1
                 2           2
                 3           3
                 4           4
                 5           5
                 6           6
                 7           7
                 8           8
                 9           9
                10          10
                11          11
                12          12
                13          13
                14          14
                15          15
                16          16
                17          17
                18          18
                19          19
                20          20

----------------------------------------------------------------------------------------

 
 
 KPOINTS: Regular k-point mesh                    

Automatic generation of k-mesh.
Space group operators:
 irot       det(A)        alpha          n_x          n_y          n_z        tau_x        tau_y        tau_z
    1     1.000000     0.000000     1.000000     0.000000     0.000000     0.000000     0.000000     0.000000
 
 Subroutine IBZKPT returns following result:
 ===========================================
 
 Found     92 irreducible k-points:
 
 Following reciprocal coordinates:
            Coordinates               Weight
  0.000000  0.000000  0.000000      1.000000
  0.166667 -0.000000 -0.000000      2.000000
  0.333333  0.000000 -0.000000      2.000000
  0.500000 -0.000000 -0.000000      1.000000
 -0.000000  0.200000 -0.000000      2.000000
  0.166667  0.200000  0.000000      2.000000
  0.333333  0.200000  0.000000      2.000000
  0.500000  0.200000  0.000000      2.000000
 -0.333333  0.200000  0.000000      2.000000
 -0.166667  0.200000  0.000000      2.000000
 -0.000000  0.400000 -0.000000      2.000000
  0.166667  0.400000 -0.000000      2.000000
  0.333333  0.400000  0.000000      2.000000
  0.500000  0.400000  0.000000      2.000000
 -0.333333  0.400000  0.000000      2.000000
 -0.166667  0.400000  0.000000      2.000000
 -0.000000 -0.000000  0.166667      2.000000
  0.166667  0.000000  0.166667      2.000000
  0.333333  0.000000  0.166667      2.000000
  0.500000 -0.000000  0.166667      2.000000
 -0.333333 -0.000000  0.166667      2.000000
 -0.166667 -0.000000  0.166667      2.000000
  0.000000  0.200000  0.166667      2.000000
  0.166667  0.200000  0.166667      2.000000
  0.333333  0.200000  0.166667      2.000000
  0.500000  0.200000  0.166667      2.000000
 -0.333333  0.200000  0.166667      2.000000
 -0.166667  0.200000  0.166667      2.000000
  0.000000  0.400000  0.166667      2.000000
  0.166667  0.400000  0.166667      2.000000
  0.333333  0.400000  0.166667      2.000000
  0.500000  0.400000  0.166667      2.000000
 -0.333333  0.400000  0.166667      2.000000
 -0.166667  0.400000  0.166667      2.000000
 -0.000000 -0.400000  0.166667      2.000000
  0.166667 -0.400000  0.166667      2.000000
  0.333333 -0.400000  0.166667      2.000000
  0.500000 -0.400000  0.166667      2.000000
 -0.333333 -0.400000  0.166667      2.000000
 -0.166667 -0.400000  0.166667      2.000000
 -0.000000 -0.200000  0.166667      2.000000
  0.166667 -0.200000  0.166667      2.000000
  0.333333 -0.200000  0.166667      2.000000
  0.500000 -0.200000  0.166667      2.000000
 -0.333333 -0.200000  0.166667      2.000000
 -0.166667 -0.200000  0.166667      2.000000
 -0.000000 -0.000000  0.333333      2.000000
  0.166667  0.000000  0.333333      2.000000
  0.333333 -0.000000  0.333333      2.000000
  0.500000  0.000000  0.333333      2.000000
 -0.333333  0.000000  0.333333      2.000000
 -0.166667  0.000000  0.333333      2.000000
 -0.000000  0.200000  0.333333      2.000000
  0.166667  0.200000  0.333333      2.000000
  0.333333  0.200000  0.333333      2.000000
  0.500000  0.200000  0.333333      2.000000
 -0.333333  0.200000  0.333333      2.000000
 -0.166667  0.200000  0.333333      2.000000
 -0.000000  0.400000  0.333333      2.000000
  0.166667  0.400000  0.333333      2.000000
  0.333333  0.400000  0.333333      2.000000
  0.500000  0.400000  0.333333      2.000000
 -0.333333  0.400000  0.333333      2.000000
 -0.166667  0.400000  0.333333      2.000000
 -0.000000 -0.400000  0.333333      2.000000
  0.166667 -0.400000  0.333333      2.000000
  0.333333 -0.400000  0.333333      2.000000
  0.500000 -0.400000  0.333333      2.000000
 -0.333333 -0.400000  0.333333      2.000000
 -0.166667 -0.400000  0.333333      2.000000
 -0.000000 -0.200000  0.333333      2.000000
  0.166667 -0.200000  0.333333      2.000000
  0.333333 -0.200000  0.333333      2.000000
  0.500000 -0.200000  0.333333      2.000000
 -0.333333 -0.200000  0.333333      2.000000
 -0.166667 -0.200000  0.333333      2.000000
 -0.000000 -0.000000  0.500000      1.000000
  0.166667  0.000000  0.500000      2.000000
  0.333333 -0.000000  0.500000      2.000000
  0.500000  0.000000  0.500000      1.000000
 -0.000000  0.200000  0.500000      2.000000
  0.166667  0.200000  0.500000      2.000000
  0.333333  0.200000  0.500000      2.000000
  0.500000  0.200000  0.500000      2.000000
 -0.333333  0.200000  0.500000      2.000000
 -0.166667  0.200000  0.500000      2.000000
 -0.000000  0.400000  0.500000      2.000000
  0.166667  0.400000  0.500000      2.000000
  0.333333  0.400000  0.500000      2.000000
  0.500000  0.400000  0.500000      2.000000
 -0.333333  0.400000  0.500000      2.000000
 -0.166667  0.400000  0.500000      2.000000
 
 Following cartesian coordinates:
            Coordinates               Weight
  0.000000  0.000000  0.000000      1.000000
  0.023049 -0.000001  0.003133      2.000000
  0.046098 -0.000003  0.006266      2.000000
  0.069147 -0.000004  0.009399      1.000000
 -0.000001  0.018993  0.000002      2.000000
  0.023048  0.018992  0.003135      2.000000
  0.046097  0.018990  0.006268      2.000000
  0.069146  0.018989  0.009401      2.000000
 -0.046100  0.018996 -0.006265      2.000000
 -0.023050  0.018994 -0.003131      2.000000
 -0.000003  0.037986  0.000003      2.000000
  0.023046  0.037985  0.003137      2.000000
  0.046096  0.037983  0.006270      2.000000
  0.069145  0.037982  0.009403      2.000000
 -0.046101  0.037989 -0.006263      2.000000
 -0.023052  0.037987 -0.003130      2.000000
  0.003151  0.000002  0.024293      2.000000
  0.026200  0.000001  0.027427      2.000000
  0.049250 -0.000001  0.030560      2.000000
  0.072299 -0.000002  0.033693      2.000000
 -0.042947  0.000005  0.018027      2.000000
 -0.019898  0.000003  0.021160      2.000000
  0.003150  0.018995  0.024295      2.000000
  0.026199  0.018994  0.027428      2.000000
  0.049248  0.018992  0.030561      2.000000
  0.072297  0.018991  0.033695      2.000000
 -0.042948  0.018998  0.018029      2.000000
 -0.019899  0.018996  0.021162      2.000000
  0.003149  0.037988  0.024297      2.000000
  0.026198  0.037987  0.027430      2.000000
  0.049247  0.037985  0.030563      2.000000
  0.072296  0.037984  0.033696      2.000000
 -0.042950  0.037991  0.018031      2.000000
 -0.019901  0.037989  0.021164      2.000000
  0.003154 -0.037984  0.024290      2.000000
  0.026203 -0.037985  0.027423      2.000000
  0.049252 -0.037987  0.030556      2.000000
  0.072301 -0.037988  0.033689      2.000000
 -0.042944 -0.037981  0.018024      2.000000
 -0.019895 -0.037983  0.021157      2.000000
  0.003153 -0.018991  0.024292      2.000000
  0.026202 -0.018992  0.027425      2.000000
  0.049251 -0.018994  0.030558      2.000000
  0.072300 -0.018995  0.033691      2.000000
 -0.042946 -0.018988  0.018025      2.000000
 -0.019897 -0.018990  0.021159      2.000000
  0.006303  0.000004  0.048587      2.000000
  0.029352  0.000003  0.051720      2.000000
  0.052401  0.000001  0.054853      2.000000
  0.075450  0.000000  0.057986      2.000000
 -0.039796  0.000007  0.042321      2.000000
 -0.016747  0.000005  0.045454      2.000000
  0.006301  0.018997  0.048589      2.000000
  0.029350  0.018996  0.051722      2.000000
  0.052399  0.018994  0.054855      2.000000
  0.075449  0.018993  0.057988      2.000000
 -0.039797  0.019000  0.042322      2.000000
 -0.016748  0.018998  0.045455      2.000000
  0.006300  0.037990  0.048590      2.000000
  0.029349  0.037989  0.051723      2.000000
  0.052398  0.037987  0.054857      2.000000
  0.075447  0.037986  0.057990      2.000000
 -0.039798  0.037993  0.042324      2.000000
 -0.016749  0.037991  0.045457      2.000000
  0.006305 -0.037982  0.048583      2.000000
  0.029354 -0.037983  0.051717      2.000000
  0.052404 -0.037985  0.054850      2.000000
  0.075453 -0.037986  0.057983      2.000000
 -0.039793 -0.037979  0.042317      2.000000
 -0.016744 -0.037981  0.045450      2.000000
  0.006304 -0.018989  0.048585      2.000000
  0.029353 -0.018990  0.051718      2.000000
  0.052402 -0.018992  0.054851      2.000000
  0.075451 -0.018993  0.057985      2.000000
 -0.039794 -0.018986  0.042319      2.000000
 -0.016745 -0.018988  0.045452      2.000000
  0.009454  0.000006  0.072880      1.000000
  0.032503  0.000005  0.076013      2.000000
  0.055552  0.000003  0.079147      2.000000
  0.078601  0.000002  0.082280      1.000000
  0.009452  0.018999  0.072882      2.000000
  0.032502  0.018998  0.076015      2.000000
  0.055551  0.018996  0.079148      2.000000
  0.078600  0.018995  0.082281      2.000000
 -0.036646  0.019002  0.066616      2.000000
 -0.013597  0.019000  0.069749      2.000000
  0.009451  0.037992  0.072884      2.000000
  0.032500  0.037991  0.076017      2.000000
  0.055549  0.037989  0.079150      2.000000
  0.078599  0.037988  0.082283      2.000000
 -0.036647  0.037995  0.066617      2.000000
 -0.013598  0.037993  0.069751      2.000000
 


--------------------------------------------------------------------------------------------------------




 Dimension of arrays:
   k-points           NKPTS =     92   k-points in BZ     NKDIM =     92   number of bands    NBANDS=     80
   number of dos      NEDOS =    301   number of ions     NIONS =     20
   non local maximal  LDIM  =      6   non local SUM 2l+1 LMDIM =     18
   total plane-waves  NPLWV = 241920
   max r-space proj   IRMAX =   7564   max aug-charges    IRDMAX=  21903
   dimension x,y,z NGX =    56 NGY =   80 NGZ =   54
   dimension x,y,z NGXF=   112 NGYF=  160 NGZF=  108
   support grid    NGXF=   112 NGYF=  160 NGZF=  108
   ions per type =               4   4   4   8
   NGX,Y,Z   is equivalent  to a cutoff of  12.54, 12.63, 12.74 a.u.
   NGXF,Y,Z  is equivalent  to a cutoff of  25.09, 25.26, 25.47 a.u.

 SYSTEM =  unknown system                          
 POSCAR =  K4 Ca4 Al4 P8                           

 Startparameter for this run:
   NWRITE =      2    write-flag & timer
   PREC   = accura    normal or accurate (medium, high low for compatibility)
   ISTART =      0    job   : 0-new  1-cont  2-samecut
   ICHARG =      1    charge: 1-file 2-atom 10-const
   ISPIN  =      2    spin polarized calculation?
   LNONCOLLINEAR =      F non collinear calculations
   LSORBIT =      F    spin-orbit coupling
   INIWAV =      1    electr: 0-lowe 1-rand  2-diag
   LASPH  =      T    aspherical Exc in radial PAW
   METAGGA=      F    non-selfconsistent MetaGGA calc.

 Electronic Relaxation 1
   ENCUT  =  520.0 eV  38.22 Ry    6.18 a.u.  13.80 19.58 13.10*2*pi/ulx,y,z
   ENINI  =  520.0     initial cutoff
   ENAUG  =  427.9 eV  augmentation charge cutoff
   NELM   =    100;   NELMIN=  6; NELMDL= -5     # of ELM steps 
   EDIFF  = 0.1E-04   stopping-criterion for ELM
   LREAL  =      T    real-space projection
   NLSPLINE    = F    spline interpolate recip. space projectors
   LCOMPAT=      F    compatible to vasp.4.4
   GGA_COMPAT  = T    GGA compatible to vasp.4.4-vasp.4.6
   LMAXPAW     = -100 max onsite density
   LMAXMIX     =    2 max onsite mixed and CHGCAR
   VOSKOWN=      0    Vosko Wilk Nusair interpolation
   ROPT   =   -0.00025  -0.00025  -0.00025  -0.00025
 Ionic relaxation
   EDIFFG = -.1E-01   stopping-criterion for IOM
   NSW    =     99    number of steps for IOM
   NBLOCK =      1;   KBLOCK =     99    inner block; outer block 
   IBRION =      2    ionic relax: 0-MD 1-quasi-New 2-CG
   NFREE  =      1    steps in history (QN), initial steepest desc. (CG)
   ISIF   =      3    stress and relaxation
   IWAVPR =     11    prediction:  0-non 1-charg 2-wave 3-comb
   ISYM   =      0    0-nonsym 1-usesym 2-fastsym
   LCORR  =      T    Harris-Foulkes like correction to forces

   POTIM  = 0.5000    time-step for ionic-motion
   TEIN   =    0.0    initial temperature
   TEBEG  =    0.0;   TEEND  =   0.0 temperature during run
   SMASS  =  -3.00    Nose mass-parameter (am)
   estimated Nose-frequenzy (Omega)   =  0.10E-29 period in steps = 0.13E+47 mass=  -0.126E-26a.u.
   SCALEE = 1.0000    scale energy and forces
   NPACO  =    256;   APACO  = 16.0  distance and # of slots for P.C.
   PSTRESS=    0.0 pullay stress

  Mass of Ions in am
   POMASS =  39.10 40.08 26.98 30.97
  Ionic Valenz
   ZVAL   =   9.00 10.00  3.00  5.00
  Atomic Wigner-Seitz radii
   RWIGS  =  -1.00 -1.00 -1.00 -1.00
  virtual crystal weights 
   VCA    =   1.00  1.00  1.00  1.00
   NELECT =     128.0000    total number of electrons
   NUPDOWN=      -1.0000    fix difference up-down

 DOS related values:
   EMIN   =  10.00;   EMAX   =-10.00  energy-range for DOS
   EFERMI =   0.00
   ISMEAR =     0;   SIGMA  =   0.05  broadening in eV -4-tet -1-fermi 0-gaus

 Electronic relaxation 2 (details)
   IALGO  =     38    algorithm
   LDIAG  =      T    sub-space diagonalisation (order eigenvalues)
   LSUBROT=      F    optimize rotation matrix (better conditioning)
   TURBO    =      0    0=normal 1=particle mesh
   IRESTART =      0    0=no restart 2=restart with 2 vectors
   NREBOOT  =      0    no. of reboots
   NMIN     =      0    reboot dimension
   EREF     =   0.00    reference energy to select bands
   IMIX   =      4    mixing-type and parameters
     AMIX     =   0.40;   BMIX     =  1.00
     AMIX_MAG =   1.60;   BMIX_MAG =  1.00
     AMIN     =   0.10
     WC   =   100.;   INIMIX=   1;  MIXPRE=   1;  MAXMIX= -45

 Intra band minimization:
   WEIMIN = 0.0010     energy-eigenvalue tresh-hold
   EBREAK =  0.31E-07  absolut break condition
   DEPER  =   0.30     relativ break condition  

   TIME   =   0.40     timestep for ELM

  volume/ion in A,a.u.               =      26.59       179.42
  Fermi-wavevector in a.u.,A,eV,Ry     =   1.018371  1.924442 14.110328  1.037080
  Thomas-Fermi vector in A             =   2.151825
 
 Write flags
   LWAVE        =      F    write WAVECAR
   LDOWNSAMPLE  =      F    k-point downsampling of WAVECAR
   LCHARG       =      T    write CHGCAR
   LVTOT        =      F    write LOCPOT, total local potential
   LVHAR        =      F    write LOCPOT, Hartree potential only
   LELF         =      F    write electronic localiz. function (ELF)
   LORBIT       =     11    0 simple, 1 ext, 2 COOP (PROOUT), +10 PAW based schemes


 Dipole corrections
   LMONO  =      F    monopole corrections only (constant potential shift)
   LDIPOL =      F    correct potential (dipole corrections)
   IDIPOL =      0    1-x, 2-y, 3-z, 4-all directions 
   EPSILON=  1.0000000 bulk dielectric constant

 Exchange correlation treatment:
   GGA     =    --    GGA type
   LEXCH   =     8    internal setting for exchange type
   VOSKOWN=      0    Vosko Wilk Nusair interpolation
   LHFCALC =     F    Hartree Fock is set to
   LHFONE  =     F    Hartree Fock one center treatment
   AEXX    =    0.0000 exact exchange contribution

 Linear response parameters
   LEPSILON=     F    determine dielectric tensor
   LRPA    =     F    only Hartree local field effects (RPA)
   LNABLA  =     F    use nabla operator in PAW spheres
   LVEL    =     F    velocity operator in full k-point grid
   LINTERFAST=   F  fast interpolation
   KINTER  =     0    interpolate to denser k-point grid
   CSHIFT  =0.1000    complex shift for real part using Kramers Kronig
   OMEGAMAX=  -1.0    maximum frequency
   DEG_THRESHOLD= 0.2000000E-02 threshold for treating states as degnerate
   RTIME   =   -0.100 relaxation time in fs
  (WPLASMAI=    0.000 imaginary part of plasma frequency in eV, 0.658/RTIME)
   DFIELD  = 0.0000000 0.0000000 0.0000000 field for delta impulse in time
 
 Orbital magnetization related:
   ORBITALMAG=     F  switch on orbital magnetization
   LCHIMAG   =     F  perturbation theory with respect to B field
   DQ        =  0.001000  dq finite difference perturbation B field
   LLRAUG    =     F  two centre corrections for induced B field



--------------------------------------------------------------------------------------------------------


 conjugate gradient relaxation of ions
 charge density and potential will be updated during run
 spin polarized calculation
 Variant of blocked Davidson
 Davidson routine will perform the subspace rotation
 perform sub-space diagonalisation
    after iterative eigenvector-optimisation
 modified Broyden-mixing scheme, WC =      100.0
 initial mixing is a Kerker type mixing with AMIX =  0.4000 and BMIX =      1.0000
 Hartree-type preconditioning will be used
 using additional bands           16
 real space projection scheme for non local part
 use partial core corrections
 calculate Harris-corrections to forces 
   (improved forces if not selfconsistent)
 use gradient corrections 
 use of overlap-Matrix (Vanderbilt PP)
 Gauss-broadening in eV      SIGMA  =   0.05


--------------------------------------------------------------------------------------------------------


  energy-cutoff  :      520.00
  volume of cell :      531.76
      direct lattice vectors                 reciprocal lattice vectors
     7.360720287  0.000608369 -0.954814318     0.138294810 -0.000007919  0.018798847
     0.000732647 10.530181214 -0.000953778    -0.000006745  0.094965129  0.000008513
    -0.949317675 -0.000693435  6.983710491     0.018907694  0.000011887  0.145760541

  length of vectors
     7.422390039 10.530181283  7.047937057     0.139566655  0.094965129  0.146981755


 
 k-points in units of 2pi/SCALE and weight: Regular k-point mesh                    
   0.00000000  0.00000000  0.00000000       0.006
   0.02304913 -0.00000132  0.00313314       0.011
   0.04609827 -0.00000264  0.00626628       0.011
   0.06914740 -0.00000396  0.00939942       0.006
  -0.00000135  0.01899303  0.00000170       0.011
   0.02304779  0.01899171  0.00313484       0.011
   0.04609692  0.01899039  0.00626798       0.011
   0.06914606  0.01898907  0.00940113       0.011
  -0.04609962  0.01899567 -0.00626458       0.011
  -0.02305048  0.01899435 -0.00313144       0.011
  -0.00000270  0.03798605  0.00000341       0.011
   0.02304644  0.03798473  0.00313655       0.011
   0.04609557  0.03798341  0.00626969       0.011
   0.06914471  0.03798209  0.00940283       0.011
  -0.04610097  0.03798869 -0.00626288       0.011
  -0.02305183  0.03798737 -0.00312974       0.011
   0.00315128  0.00000198  0.02429342       0.011
   0.02620042  0.00000066  0.02742656       0.011
   0.04924955 -0.00000066  0.03055971       0.011
   0.07229869 -0.00000198  0.03369285       0.011
  -0.04294699  0.00000462  0.01802714       0.011
  -0.01989785  0.00000330  0.02116028       0.011
   0.00314993  0.01899501  0.02429513       0.011
   0.02619907  0.01899369  0.02742827       0.011
   0.04924820  0.01899237  0.03056141       0.011
   0.07229734  0.01899105  0.03369455       0.011
  -0.04294834  0.01899765  0.01802884       0.011
  -0.01989920  0.01899633  0.02116198       0.011
   0.00314858  0.03798803  0.02429683       0.011
   0.02619772  0.03798671  0.02742997       0.011
   0.04924685  0.03798539  0.03056311       0.011
   0.07229599  0.03798407  0.03369625       0.011
  -0.04294969  0.03799067  0.01803055       0.011
  -0.01990055  0.03798935  0.02116369       0.011
   0.00315398 -0.03798407  0.02429002       0.011
   0.02620312 -0.03798539  0.02742316       0.011
   0.04925225 -0.03798671  0.03055630       0.011
   0.07230139 -0.03798803  0.03368944       0.011
  -0.04294429 -0.03798143  0.01802374       0.011
  -0.01989515 -0.03798275  0.02115688       0.011
   0.00315263 -0.01899104  0.02429172       0.011
   0.02620177 -0.01899236  0.02742486       0.011
   0.04925090 -0.01899368  0.03055800       0.011
   0.07230004 -0.01899500  0.03369114       0.011
  -0.04294564 -0.01898840  0.01802544       0.011
  -0.01989650 -0.01898972  0.02115858       0.011
   0.00630256  0.00000396  0.04858685       0.011
   0.02935170  0.00000264  0.05171999       0.011
   0.05240083  0.00000132  0.05485313       0.011
   0.07544997  0.00000000  0.05798627       0.011
  -0.03979571  0.00000660  0.04232056       0.011
  -0.01674657  0.00000528  0.04545371       0.011
   0.00630122  0.01899699  0.04858855       0.011
   0.02935035  0.01899567  0.05172169       0.011
   0.05239949  0.01899435  0.05485483       0.011
   0.07544862  0.01899303  0.05798797       0.011
  -0.03979705  0.01899963  0.04232227       0.011
  -0.01674792  0.01899831  0.04545541       0.011
   0.00629987  0.03799001  0.04859025       0.011
   0.02934900  0.03798869  0.05172339       0.011
   0.05239814  0.03798737  0.05485653       0.011
   0.07544727  0.03798605  0.05798968       0.011
  -0.03979840  0.03799265  0.04232397       0.011
  -0.01674927  0.03799133  0.04545711       0.011
   0.00630526 -0.03798209  0.04858344       0.011
   0.02935440 -0.03798341  0.05171658       0.011
   0.05240353 -0.03798473  0.05484972       0.011
   0.07545267 -0.03798605  0.05798287       0.011
  -0.03979301 -0.03797945  0.04231716       0.011
  -0.01674387 -0.03798077  0.04545030       0.011
   0.00630391 -0.01898906  0.04858514       0.011
   0.02935305 -0.01899038  0.05171829       0.011
   0.05240218 -0.01899170  0.05485143       0.011
   0.07545132 -0.01899302  0.05798457       0.011
  -0.03979436 -0.01898642  0.04231886       0.011
  -0.01674522 -0.01898774  0.04545200       0.011
   0.00945385  0.00000594  0.07288027       0.006
   0.03250298  0.00000462  0.07601341       0.011
   0.05555212  0.00000330  0.07914655       0.011
   0.07860125  0.00000198  0.08227969       0.006
   0.00945250  0.01899897  0.07288197       0.011
   0.03250163  0.01899765  0.07601511       0.011
   0.05555077  0.01899633  0.07914825       0.011
   0.07859990  0.01899501  0.08228140       0.011
  -0.03664577  0.01900161  0.06661569       0.011
  -0.01359664  0.01900029  0.06974883       0.011
   0.00945115  0.03799199  0.07288368       0.011
   0.03250028  0.03799067  0.07601682       0.011
   0.05554942  0.03798936  0.07914996       0.011
   0.07859855  0.03798804  0.08228310       0.011
  -0.03664712  0.03799463  0.06661739       0.011
  -0.01359799  0.03799331  0.06975053       0.011
 
 k-points in reciprocal lattice and weights: Regular k-point mesh                    
   0.00000000  0.00000000  0.00000000       0.006
   0.16666667 -0.00000000 -0.00000000       0.011
   0.33333333  0.00000000 -0.00000000       0.011
   0.50000000 -0.00000000 -0.00000000       0.006
  -0.00000000  0.20000000 -0.00000000       0.011
   0.16666667  0.20000000  0.00000000       0.011
   0.33333333  0.20000000  0.00000000       0.011
   0.50000000  0.20000000  0.00000000       0.011
  -0.33333333  0.20000000  0.00000000       0.011
  -0.16666667  0.20000000  0.00000000       0.011
  -0.00000000  0.40000000 -0.00000000       0.011
   0.16666667  0.40000000 -0.00000000       0.011
   0.33333333  0.40000000  0.00000000       0.011
   0.50000000  0.40000000  0.00000000       0.011
  -0.33333333  0.40000000  0.00000000       0.011
  -0.16666667  0.40000000  0.00000000       0.011
  -0.00000000 -0.00000000  0.16666667       0.011
   0.16666667  0.00000000  0.16666667       0.011
   0.33333333  0.00000000  0.16666667       0.011
   0.50000000 -0.00000000  0.16666667       0.011
  -0.33333333 -0.00000000  0.16666667       0.011
  -0.16666667 -0.00000000  0.16666667       0.011
   0.00000000  0.20000000  0.16666667       0.011
   0.16666667  0.20000000  0.16666667       0.011
   0.33333333  0.20000000  0.16666667       0.011
   0.50000000  0.20000000  0.16666667       0.011
  -0.33333333  0.20000000  0.16666667       0.011
  -0.16666667  0.20000000  0.16666667       0.011
   0.00000000  0.40000000  0.16666667       0.011
   0.16666667  0.40000000  0.16666667       0.011
   0.33333333  0.40000000  0.16666667       0.011
   0.50000000  0.40000000  0.16666667       0.011
  -0.33333333  0.40000000  0.16666667       0.011
  -0.16666667  0.40000000  0.16666667       0.011
  -0.00000000 -0.40000000  0.16666667       0.011
   0.16666667 -0.40000000  0.16666667       0.011
   0.33333333 -0.40000000  0.16666667       0.011
   0.50000000 -0.40000000  0.16666667       0.011
  -0.33333333 -0.40000000  0.16666667       0.011
  -0.16666667 -0.40000000  0.16666667       0.011
  -0.00000000 -0.20000000  0.16666667       0.011
   0.16666667 -0.20000000  0.16666667       0.011
   0.33333333 -0.20000000  0.16666667       0.011
   0.50000000 -0.20000000  0.16666667       0.011
  -0.33333333 -0.20000000  0.16666667       0.011
  -0.16666667 -0.20000000  0.16666667       0.011
  -0.00000000 -0.00000000  0.33333333       0.011
   0.16666667  0.00000000  0.33333333       0.011
   0.33333333 -0.00000000  0.33333333       0.011
   0.50000000  0.00000000  0.33333333       0.011
  -0.33333333  0.00000000  0.33333333       0.011
  -0.16666667  0.00000000  0.33333333       0.011
  -0.00000000  0.20000000  0.33333333       0.011
   0.16666667  0.20000000  0.33333333       0.011
   0.33333333  0.20000000  0.33333333       0.011
   0.50000000  0.20000000  0.33333333       0.011
  -0.33333333  0.20000000  0.33333333       0.011
  -0.16666667  0.20000000  0.33333333       0.011
  -0.00000000  0.40000000  0.33333333       0.011
   0.16666667  0.40000000  0.33333333       0.011
   0.33333333  0.40000000  0.33333333       0.011
   0.50000000  0.40000000  0.33333333       0.011
  -0.33333333  0.40000000  0.33333333       0.011
  -0.16666667  0.40000000  0.33333333       0.011
  -0.00000000 -0.40000000  0.33333333       0.011
   0.16666667 -0.40000000  0.33333333       0.011
   0.33333333 -0.40000000  0.33333333       0.011
   0.50000000 -0.40000000  0.33333333       0.011
  -0.33333333 -0.40000000  0.33333333       0.011
  -0.16666667 -0.40000000  0.33333333       0.011
  -0.00000000 -0.20000000  0.33333333       0.011
   0.16666667 -0.20000000  0.33333333       0.011
   0.33333333 -0.20000000  0.33333333       0.011
   0.50000000 -0.20000000  0.33333333       0.011
  -0.33333333 -0.20000000  0.33333333       0.011
  -0.16666667 -0.20000000  0.33333333       0.011
  -0.00000000 -0.00000000  0.50000000       0.006
   0.16666667  0.00000000  0.50000000       0.011
   0.33333333 -0.00000000  0.50000000       0.011
   0.50000000  0.00000000  0.50000000       0.006
  -0.00000000  0.20000000  0.50000000       0.011
   0.16666667  0.20000000  0.50000000       0.011
   0.33333333  0.20000000  0.50000000       0.011
   0.50000000  0.20000000  0.50000000       0.011
  -0.33333333  0.20000000  0.50000000       0.011
  -0.16666667  0.20000000  0.50000000       0.011
  -0.00000000  0.40000000  0.50000000       0.011
   0.16666667  0.40000000  0.50000000       0.011
   0.33333333  0.40000000  0.50000000       0.011
   0.50000000  0.40000000  0.50000000       0.011
  -0.33333333  0.40000000  0.50000000       0.011
  -0.16666667  0.40000000  0.50000000       0.011
 
 position of ions in fractional coordinates (direct lattice) 
   0.31935141  0.37587350  0.05306483
   0.68053112  0.87592051  0.44687114
   0.68061568  0.62409720  0.94692014
   0.31954880  0.12408321  0.55321257
   0.89619746  0.12122199  0.81378167
   0.10379948  0.62128226  0.68623068
   0.10381092  0.87877652  0.18621985
   0.89620824  0.37871647  0.31375711
   0.60201499  0.37188645  0.59079606
   0.39794725  0.87191402  0.90920222
   0.39797719  0.62812199  0.40917804
   0.60204217  0.12808986  0.09079256
   0.29778623  0.81498683  0.56682661
   0.70208480  0.31494965  0.93314632
   0.70221402  0.18502301  0.43316514
   0.29788956  0.68505195  0.06683239
   0.27761385  0.43280834  0.50295744
   0.72234390  0.93279384  0.99682850
   0.72238061  0.56719617  0.49703658
   0.27764233  0.06720620  0.00318015
 
 position of ions in cartesian coordinates  (Angst):
   2.30055642  3.95817354  0.06530960
   4.58561826  9.22370587  2.47020235
   4.11135089  6.57161400  5.96255926
   1.82702574  1.30642951  3.55824835
   5.82421032  1.27647045  4.82739777
   0.11304320  6.54180213  4.69273462
   0.58798521  9.25361001  1.20054720
   6.29916048  3.98828076  1.33511512
   3.87068328  3.91598832  3.55078144
   2.06669545  9.18102429  5.96880777
   2.54141905  6.61419679  2.47698754
   4.34536686  1.34911275  0.05910830
   1.65441974  8.58174708  3.67344504
   4.28222827  3.31625697  5.84616272
   4.75772518  1.94845269  2.35443947
   2.12973844  7.21385608  0.18165549
   1.56628858  4.55737038  3.24702666
   4.37134786  9.82223638  6.27096770
   4.84581157  5.97277326  2.78087926
   2.04067779  0.70786020 -0.24295172
 


--------------------------------------------------------------------------------------------------------


 k-point   1 :   0.0000 0.0000 0.0000  plane waves:   14297
 k-point   2 :   0.1667-0.0000-0.0000  plane waves:   14341
 k-point   3 :   0.3333 0.0000-0.0000  plane waves:   14318
 k-point   4 :   0.5000-0.0000-0.0000  plane waves:   14310
 k-point   5 :  -0.0000 0.2000-0.0000  plane waves:   14323
 k-point   6 :   0.1667 0.2000 0.0000  plane waves:   14309
 k-point   7 :   0.3333 0.2000 0.0000  plane waves:   14314
 k-point   8 :   0.5000 0.2000 0.0000  plane waves:   14308
 k-point   9 :  -0.3333 0.2000 0.0000  plane waves:   14313
 k-point  10 :  -0.1667 0.2000 0.0000  plane waves:   14309
 k-point  11 :  -0.0000 0.4000-0.0000  plane waves:   14335
 k-point  12 :   0.1667 0.4000-0.0000  plane waves:   14296
 k-point  13 :   0.3333 0.4000 0.0000  plane waves:   14290
 k-point  14 :   0.5000 0.4000 0.0000  plane waves:   14308
 k-point  15 :  -0.3333 0.4000 0.0000  plane waves:   14289
 k-point  16 :  -0.1667 0.4000 0.0000  plane waves:   14295
 k-point  17 :  -0.0000-0.0000 0.1667  plane waves:   14343
 k-point  18 :   0.1667 0.0000 0.1667  plane waves:   14290
 k-point  19 :   0.3333 0.0000 0.1667  plane waves:   14312
 k-point  20 :   0.5000-0.0000 0.1667  plane waves:   14309
 k-point  21 :  -0.3333-0.0000 0.1667  plane waves:   14316
 k-point  22 :  -0.1667-0.0000 0.1667  plane waves:   14329
 k-point  23 :   0.0000 0.2000 0.1667  plane waves:   14322
 k-point  24 :   0.1667 0.2000 0.1667  plane waves:   14303
 k-point  25 :   0.3333 0.2000 0.1667  plane waves:   14317
 k-point  26 :   0.5000 0.2000 0.1667  plane waves:   14315
 k-point  27 :  -0.3333 0.2000 0.1667  plane waves:   14321
 k-point  28 :  -0.1667 0.2000 0.1667  plane waves:   14312
 k-point  29 :   0.0000 0.4000 0.1667  plane waves:   14307
 k-point  30 :   0.1667 0.4000 0.1667  plane waves:   14327
 k-point  31 :   0.3333 0.4000 0.1667  plane waves:   14298
 k-point  32 :   0.5000 0.4000 0.1667  plane waves:   14297
 k-point  33 :  -0.3333 0.4000 0.1667  plane waves:   14297
 k-point  34 :  -0.1667 0.4000 0.1667  plane waves:   14295
 k-point  35 :  -0.0000-0.4000 0.1667  plane waves:   14309
 k-point  36 :   0.1667-0.4000 0.1667  plane waves:   14329
 k-point  37 :   0.3333-0.4000 0.1667  plane waves:   14299
 k-point  38 :   0.5000-0.4000 0.1667  plane waves:   14297
 k-point  39 :  -0.3333-0.4000 0.1667  plane waves:   14297
 k-point  40 :  -0.1667-0.4000 0.1667  plane waves:   14294
 k-point  41 :  -0.0000-0.2000 0.1667  plane waves:   14326
 k-point  42 :   0.1667-0.2000 0.1667  plane waves:   14305
 k-point  43 :   0.3333-0.2000 0.1667  plane waves:   14319
 k-point  44 :   0.5000-0.2000 0.1667  plane waves:   14318
 k-point  45 :  -0.3333-0.2000 0.1667  plane waves:   14320
 k-point  46 :  -0.1667-0.2000 0.1667  plane waves:   14313
 k-point  47 :  -0.0000-0.0000 0.3333  plane waves:   14289
 k-point  48 :   0.1667 0.0000 0.3333  plane waves:   14314
 k-point  49 :   0.3333-0.0000 0.3333  plane waves:   14331
 k-point  50 :   0.5000 0.0000 0.3333  plane waves:   14353
 k-point  51 :  -0.3333 0.0000 0.3333  plane waves:   14329
 k-point  52 :  -0.1667 0.0000 0.3333  plane waves:   14330
 k-point  53 :  -0.0000 0.2000 0.3333  plane waves:   14308
 k-point  54 :   0.1667 0.2000 0.3333  plane waves:   14309
 k-point  55 :   0.3333 0.2000 0.3333  plane waves:   14320
 k-point  56 :   0.5000 0.2000 0.3333  plane waves:   14342
 k-point  57 :  -0.3333 0.2000 0.3333  plane waves:   14339
 k-point  58 :  -0.1667 0.2000 0.3333  plane waves:   14315
 k-point  59 :  -0.0000 0.4000 0.3333  plane waves:   14327
 k-point  60 :   0.1667 0.4000 0.3333  plane waves:   14326
 k-point  61 :   0.3333 0.4000 0.3333  plane waves:   14326
 k-point  62 :   0.5000 0.4000 0.3333  plane waves:   14326
 k-point  63 :  -0.3333 0.4000 0.3333  plane waves:   14338
 k-point  64 :  -0.1667 0.4000 0.3333  plane waves:   14315
 k-point  65 :  -0.0000-0.4000 0.3333  plane waves:   14329
 k-point  66 :   0.1667-0.4000 0.3333  plane waves:   14322
 k-point  67 :   0.3333-0.4000 0.3333  plane waves:   14323
 k-point  68 :   0.5000-0.4000 0.3333  plane waves:   14328
 k-point  69 :  -0.3333-0.4000 0.3333  plane waves:   14336
 k-point  70 :  -0.1667-0.4000 0.3333  plane waves:   14318
 k-point  71 :  -0.0000-0.2000 0.3333  plane waves:   14306
 k-point  72 :   0.1667-0.2000 0.3333  plane waves:   14308
 k-point  73 :   0.3333-0.2000 0.3333  plane waves:   14324
 k-point  74 :   0.5000-0.2000 0.3333  plane waves:   14342
 k-point  75 :  -0.3333-0.2000 0.3333  plane waves:   14339
 k-point  76 :  -0.1667-0.2000 0.3333  plane waves:   14315
 k-point  77 :  -0.0000-0.0000 0.5000  plane waves:   14290
 k-point  78 :   0.1667 0.0000 0.5000  plane waves:   14319
 k-point  79 :   0.3333-0.0000 0.5000  plane waves:   14325
 k-point  80 :   0.5000 0.0000 0.5000  plane waves:   14342
 k-point  81 :  -0.0000 0.2000 0.5000  plane waves:   14332
 k-point  82 :   0.1667 0.2000 0.5000  plane waves:   14322
 k-point  83 :   0.3333 0.2000 0.5000  plane waves:   14329
 k-point  84 :   0.5000 0.2000 0.5000  plane waves:   14339
 k-point  85 :  -0.3333 0.2000 0.5000  plane waves:   14329
 k-point  86 :  -0.1667 0.2000 0.5000  plane waves:   14322
 k-point  87 :  -0.0000 0.4000 0.5000  plane waves:   14335
 k-point  88 :   0.1667 0.4000 0.5000  plane waves:   14317
 k-point  89 :   0.3333 0.4000 0.5000  plane waves:   14334
 k-point  90 :   0.5000 0.4000 0.5000  plane waves:   14327
 k-point  91 :  -0.3333 0.4000 0.5000  plane waves:   14334
 k-point  92 :  -0.1667 0.4000 0.5000  plane waves:   14316

 maximum and minimum number of plane-waves per node :       932      856

 maximum number of plane-waves:     14353
 maximum index in each direction: 
   IXMAX=   14   IYMAX=   19   IZMAX=   13
   IXMIN=  -14   IYMIN=  -19   IZMIN=  -13


 real space projection operators:
  total allocation   :       8238.35 KBytes
  max/ min on nodes  :        625.51        414.09


 parallel 3D FFT for wavefunctions:
    minimum data exchange during FFTs selected (reduces bandwidth)
 parallel 3D FFT for charge:
    minimum data exchange during FFTs selected (reduces bandwidth)


 total amount of memory used by VASP MPI-rank0    97769. kBytes
=======================================================================

   base      :      30000. kBytes
   nonlr-proj:       3317. kBytes
   fftplans  :       1671. kBytes
   grid      :       6430. kBytes
   one-center:         62. kBytes
   wavefun   :      56289. kBytes
 
     INWAV:  cpu time    0.0000: real time    0.0000
 Broyden mixing: mesh for mixing (old mesh)
   NGX = 27   NGY = 39   NGZ = 27
  (NGX  =112   NGY  =160   NGZ  =108)
  gives a total of  28431 points

 initial charge density was supplied:
 number of electron     127.9999997 magnetization      -0.0000000
 keeping initial charge density in first step


--------------------------------------------------------------------------------------------------------


 Maximum index for non-local projection operator          779
 Maximum index for augmentation-charges          758 (set IRDMAX)


--------------------------------------------------------------------------------------------------------


 First call to EWALD:  gamma=   0.219
 Maximum number of real-space cells 3x 2x 3
 Maximum number of reciprocal cells 3x 3x 2

    FEWALD:  cpu time    0.0015: real time    0.0016


--------------------------------------- Iteration      1(   1)  ---------------------------------------


    POTLOK:  cpu time    0.0991: real time    0.1138
    SETDIJ:  cpu time    0.8846: real time    0.8849
     EDDAV:  cpu time   30.5465: real time   30.5496
       DOS:  cpu time    0.0126: real time    0.0126
    --------------------------------------------
      LOOP:  cpu time   31.5428: real time   31.5610

 eigenvalue-minimisations  : 29512
 total energy-change (2. order) : 0.8354697E+03  (-0.5759057E+04)
 number of electron     127.9999997 magnetization      -0.0000000
 augmentation part      127.9999997 magnetization      -0.0000000

 Free energy of the ion-electron system (eV)
  ---------------------------------------------------
  alpha Z        PSCENC =       292.52069741
  Ewald energy   TEWEN  =     -6036.37504402
  -Hartree energ DENC   =     -2225.43482888
  -exchange      EXHF   =         0.00000000
  -V(xc)+E(xc)   XCENC  =       335.15705086
  PAW double counting   =     11694.22467875   -11620.58872642
  entropy T*S    EENTRO =        -0.00678057
  eigenvalues    EBANDS =      -350.89268604
  atomic energy  EATOM  =      8746.86531855
  Solvation  Ediel_sol  =         0.00000000
  ---------------------------------------------------
  free energy    TOTEN  =       835.46967965 eV

  energy without entropy =      835.47646021  energy(sigma->0) =      835.47306993


--------------------------------------------------------------------------------------------------------




--------------------------------------- Iteration      1(   2)  ---------------------------------------


     EDDAV:  cpu time   33.0883: real time   33.1106
       DOS:  cpu time    0.0106: real time    0.0106
    --------------------------------------------
      LOOP:  cpu time   33.0989: real time   33.1212

 eigenvalue-minimisations  : 33616
 total energy-change (2. order) :-0.9668336E+03  (-0.9345870E+03)
 number of electron     127.9999997 magnetization      -0.0000000
 augmentation part      127.9999997 magnetization      -0.0000000

 Free energy of the ion-electron system (eV)
  ---------------------------------------------------
  alpha Z        PSCENC =       292.52069741
  Ewald energy   TEWEN  =     -6036.37504402
  -Hartree energ DENC   =     -2225.43482888
  -exchange      EXHF   =         0.00000000
  -V(xc)+E(xc)   XCENC  =       335.15705086
  PAW double counting   =     11694.22467875   -11620.58872642
  entropy T*S    EENTRO =        -0.00186189
  eigenvalues    EBANDS =     -1317.73124516
  atomic energy  EATOM  =      8746.86531855
  Solvation  Ediel_sol  =         0.00000000
  ---------------------------------------------------
  free energy    TOTEN  =      -131.36396079 eV

  energy without entropy =     -131.36209890  energy(sigma->0) =     -131.36302985


--------------------------------------------------------------------------------------------------------




--------------------------------------- Iteration      1(   3)  ---------------------------------------


     EDDAV:  cpu time   38.1881: real time   38.2101
       DOS:  cpu time    0.0066: real time    0.0065
    --------------------------------------------
      LOOP:  cpu time   38.1946: real time   38.2166

 eigenvalue-minimisations  : 41144
 total energy-change (2. order) :-0.9132387E+02  (-0.8982468E+02)
 number of electron     127.9999997 magnetization      -0.0000000
 augmentation part      127.9999997 magnetization      -0.0000000

 Free energy of the ion-electron system (eV)
  ---------------------------------------------------
  alpha Z        PSCENC =       292.52069741
  Ewald energy   TEWEN  =     -6036.37504402
  -Hartree energ DENC   =     -2225.43482888
  -exchange      EXHF   =         0.00000000
  -V(xc)+E(xc)   XCENC  =       335.15705086
  PAW double counting   =     11694.22467875   -11620.58872642
  entropy T*S    EENTRO =        -0.00000000
  eigenvalues    EBANDS =     -1409.05697298
  atomic energy  EATOM  =      8746.86531855
  Solvation  Ediel_sol  =         0.00000000
  ---------------------------------------------------
  free energy    TOTEN  =      -222.68782672 eV

  energy without entropy =     -222.68782672  energy(sigma->0) =     -222.68782672


--------------------------------------------------------------------------------------------------------




--------------------------------------- Iteration      1(   4)  ---------------------------------------


     EDDAV:  cpu time   45.6069: real time   45.6190
       DOS:  cpu time    0.0065: real time    0.0065
    --------------------------------------------
      LOOP:  cpu time   45.6134: real time   45.6255

 eigenvalue-minimisations  : 52944
 total energy-change (2. order) :-0.7332630E+01  (-0.7291690E+01)
 number of electron     127.9999997 magnetization      -0.0000000
 augmentation part      127.9999997 magnetization      -0.0000000

 Free energy of the ion-electron system (eV)
  ---------------------------------------------------
  alpha Z        PSCENC =       292.52069741
  Ewald energy   TEWEN  =     -6036.37504402
  -Hartree energ DENC   =     -2225.43482888
  -exchange      EXHF   =         0.00000000
  -V(xc)+E(xc)   XCENC  =       335.15705086
  PAW double counting   =     11694.22467875   -11620.58872642
  entropy T*S    EENTRO =        -0.00000000
  eigenvalues    EBANDS =     -1416.38960297
  atomic energy  EATOM  =      8746.86531855
  Solvation  Ediel_sol  =         0.00000000
  ---------------------------------------------------
  free energy    TOTEN  =      -230.02045671 eV

  energy without entropy =     -230.02045671  energy(sigma->0) =     -230.02045671


--------------------------------------------------------------------------------------------------------




--------------------------------------- Iteration      1(   5)  ---------------------------------------


     EDDAV:  cpu time   41.0400: real time   41.0587
       DOS:  cpu time    0.0042: real time    0.0042
    CHARGE:  cpu time    4.7190: real time    4.7192
    MIXING:  cpu time    0.0026: real time    0.0032
    --------------------------------------------
      LOOP:  cpu time   45.7658: real time   45.7853

 eigenvalue-minimisations  : 45920
 total energy-change (2. order) :-0.5265889E+00  (-0.5259876E+00)
 number of electron     127.9999997 magnetization      -0.0000000
 augmentation part       11.0490423 magnetization       0.0018782

 Broyden mixing:
  rms(total) = 0.27704E+00    rms(broyden)= 0.27704E+00
  rms(prec ) = 0.34416E+00
  weight for this iteration     100.00

 Free energy of the ion-electron system (eV)
  ---------------------------------------------------
  alpha Z        PSCENC =       292.52069741
  Ewald energy   TEWEN  =     -6036.37504402
  -Hartree energ DENC   =     -2225.43482888
  -exchange      EXHF   =         0.00000000
  -V(xc)+E(xc)   XCENC  =       335.15705086
  PAW double counting   =     11694.22467875   -11620.58872642
  entropy T*S    EENTRO =        -0.00000000
  eigenvalues    EBANDS =     -1416.91619190
  atomic energy  EATOM  =      8746.86531855
  Solvation  Ediel_sol  =         0.00000000
  ---------------------------------------------------
  free energy    TOTEN  =      -230.54704564 eV

  energy without entropy =     -230.54704564  energy(sigma->0) =     -230.54704564


--------------------------------------------------------------------------------------------------------




--------------------------------------- Iteration      1(   6)  ---------------------------------------


    POTLOK:  cpu time    0.0957: real time    0.1071
    SETDIJ:  cpu time    0.8948: real time    0.8948
     EDDAV:  cpu time   35.1001: real time   35.1024
       DOS:  cpu time    0.0042: real time    0.0042
    CHARGE:  cpu time    4.6402: real time    4.6402
    MIXING:  cpu time    0.0015: real time    0.0016
    --------------------------------------------
      LOOP:  cpu time   40.7364: real time   40.7503

 eigenvalue-minimisations  : 36432
 total energy-change (2. order) : 0.2653695E+02  (-0.1016818E+01)
 number of electron     127.9999997 magnetization      -0.0000000
 augmentation part       11.9317787 magnetization      -0.0003219

 Broyden mixing:
  rms(total) = 0.13933E+00    rms(broyden)= 0.13932E+00
  rms(prec ) = 0.17945E+00
  weight for this iteration     100.00

 eigenvalues of (default mixing * dielectric matrix)
  average eigenvalue GAMMA=   0.7051
  0.7051

 Free energy of the ion-electron system (eV)
  ---------------------------------------------------
  alpha Z        PSCENC =       292.52069741
  Ewald energy   TEWEN  =     -6036.37504402
  -Hartree energ DENC   =     -2223.09890023
  -exchange      EXHF   =         0.00000000
  -V(xc)+E(xc)   XCENC  =       340.00519347
  PAW double counting   =     11626.23224122   -11548.34815746
  entropy T*S    EENTRO =        -0.00000000
  eigenvalues    EBANDS =     -1401.81144262
  atomic energy  EATOM  =      8746.86531855
  Solvation  Ediel_sol  =         0.00000000
  ---------------------------------------------------
  free energy    TOTEN  =      -204.01009368 eV

  energy without entropy =     -204.01009368  energy(sigma->0) =     -204.01009368


--------------------------------------------------------------------------------------------------------




--------------------------------------- Iteration      1(   7)  ---------------------------------------


    POTLOK:  cpu time    0.1025: real time    0.1319
    SETDIJ:  cpu time    0.8955: real time    0.8955
     EDDAV:  cpu time   39.2174: real time   39.2179
       DOS:  cpu time    0.0041: real time    0.0041
    CHARGE:  cpu time    4.6472: real time    4.6473
    MIXING:  cpu time    0.0011: real time    0.0011
    --------------------------------------------
      LOOP:  cpu time   44.8678: real time   44.8979

 eigenvalue-minimisations  : 42752
 total energy-change (2. order) :-0.9729387E-01  (-0.1447291E+00)
 number of electron     127.9999997 magnetization      -0.0000000
 augmentation part       12.1714780 magnetization      -0.0001624

 Broyden mixing:
  rms(total) = 0.10471E+00    rms(broyden)= 0.10471E+00
  rms(prec ) = 0.12883E+00
  weight for this iteration     100.00

 eigenvalues of (default mixing * dielectric matrix)
  average eigenvalue GAMMA=   0.6099
  0.6099  0.6099

 Free energy of the ion-electron system (eV)
  ---------------------------------------------------
  alpha Z        PSCENC =       292.52069741
  Ewald energy   TEWEN  =     -6036.37504402
  -Hartree energ DENC   =     -2226.64603605
  -exchange      EXHF   =         0.00000000
  -V(xc)+E(xc)   XCENC  =       340.20781700
  PAW double counting   =     11687.65263971   -11609.75598571
  entropy T*S    EENTRO =        -0.00000000
  eigenvalues    EBANDS =     -1398.57679444
  atomic energy  EATOM  =      8746.86531855
  Solvation  Ediel_sol  =         0.00000000
  ---------------------------------------------------
  free energy    TOTEN  =      -204.10738755 eV

  energy without entropy =     -204.10738755  energy(sigma->0) =     -204.10738755


--------------------------------------------------------------------------------------------------------




--------------------------------------- Iteration      1(   8)  ---------------------------------------


    POTLOK:  cpu time    0.0998: real time    0.1155
    SETDIJ:  cpu time    0.8938: real time    0.8939
     EDDAV:  cpu time   39.5462: real time   39.5471
       DOS:  cpu time    0.0042: real time    0.0042
    CHARGE:  cpu time    4.7100: real time    4.7101
    MIXING:  cpu time    0.0013: real time    0.0013
    --------------------------------------------
      LOOP:  cpu time   45.2553: real time   45.2720

 eigenvalue-minimisations  : 43288
 total energy-change (2. order) : 0.7872202E-02  (-0.4630557E-02)
 number of electron     127.9999997 magnetization      -0.0000000
 augmentation part       12.1898858 magnetization      -0.0001111

 Broyden mixing:
  rms(total) = 0.78005E-01    rms(broyden)= 0.78005E-01
  rms(prec ) = 0.98535E-01
  weight for this iteration     100.00

 eigenvalues of (default mixing * dielectric matrix)
  average eigenvalue GAMMA=   0.6912
  0.7502  0.7502  0.5730

 Free energy of the ion-electron system (eV)
  ---------------------------------------------------
  alpha Z        PSCENC =       292.52069741
  Ewald energy   TEWEN  =     -6036.37504402
  -Hartree energ DENC   =     -2226.08513112
  -exchange      EXHF   =         0.00000000
  -V(xc)+E(xc)   XCENC  =       340.00411322
  PAW double counting   =     11666.24297930   -11589.31588981
  entropy T*S    EENTRO =        -0.00000000
  eigenvalues    EBANDS =     -1397.95655888
  atomic energy  EATOM  =      8746.86531855
  Solvation  Ediel_sol  =         0.00000000
  ---------------------------------------------------
  free energy    TOTEN  =      -204.09951535 eV

  energy without entropy =     -204.09951535  energy(sigma->0) =     -204.09951535


--------------------------------------------------------------------------------------------------------




--------------------------------------- Iteration      1(   9)  ---------------------------------------


    POTLOK:  cpu time    0.1014: real time    0.1275
    SETDIJ:  cpu time    0.8956: real time    0.8956
     EDDAV:  cpu time   36.5542: real time   36.5548
       DOS:  cpu time    0.0065: real time    0.0065
    CHARGE:  cpu time    4.6575: real time    4.6578
    MIXING:  cpu time    0.0010: real time    0.0010
    --------------------------------------------
      LOOP:  cpu time   42.2163: real time   42.2432

 eigenvalue-minimisations  : 38712
 total energy-change (2. order) : 0.5289635E-02  (-0.5203365E-03)
 number of electron     127.9999997 magnetization      -0.0000000
 augmentation part       12.2040921 magnetization      -0.0000207

 Broyden mixing:
  rms(total) = 0.60065E-01    rms(broyden)= 0.60065E-01
  rms(prec ) = 0.75092E-01
  weight for this iteration     100.00

 eigenvalues of (default mixing * dielectric matrix)
  average eigenvalue GAMMA=   0.8472
  1.0771  1.0771  0.6173  0.6173

 Free energy of the ion-electron system (eV)
  ---------------------------------------------------
  alpha Z        PSCENC =       292.52069741
  Ewald energy   TEWEN  =     -6036.37504402
  -Hartree energ DENC   =     -2225.64436817
  -exchange      EXHF   =         0.00000000
  -V(xc)+E(xc)   XCENC  =       340.02503029
  PAW double counting   =     11649.61718801   -11573.56118915
  entropy T*S    EENTRO =        -0.00000000
  eigenvalues    EBANDS =     -1397.54185863
  atomic energy  EATOM  =      8746.86531855
  Solvation  Ediel_sol  =         0.00000000
  ---------------------------------------------------
  free energy    TOTEN  =      -204.09422571 eV

  energy without entropy =     -204.09422571  energy(sigma->0) =     -204.09422571


--------------------------------------------------------------------------------------------------------




--------------------------------------- Iteration      1(  10)  ---------------------------------------


    POTLOK:  cpu time    0.0945: real time    0.1083
    SETDIJ:  cpu time    0.8900: real time    0.8931
     EDDAV:  cpu time   35.6414: real time   35.9099
       DOS:  cpu time    0.0068: real time    0.0069
    CHARGE:  cpu time    4.6511: real time    4.6583
    MIXING:  cpu time    0.0011: real time    0.0011
    --------------------------------------------
      LOOP:  cpu time   41.2849: real time   41.5776

 eigenvalue-minimisations  : 37592
 total energy-change (2. order) : 0.4217831E-02  (-0.3568470E-03)
 number of electron     127.9999997 magnetization      -0.0000000
 augmentation part       12.2161905 magnetization       0.0000225

 Broyden mixing:
  rms(total) = 0.41909E-01    rms(broyden)= 0.41909E-01
  rms(prec ) = 0.51758E-01
  weight for this iteration     100.00

 eigenvalues of (default mixing * dielectric matrix)
  average eigenvalue GAMMA=   0.8186
  1.1776  1.1776  0.6082  0.6082  0.5214

 Free energy of the ion-electron system (eV)
  ---------------------------------------------------
  alpha Z        PSCENC =       292.52069741
  Ewald energy   TEWEN  =     -6036.37504402
  -Hartree energ DENC   =     -2225.33133768
  -exchange      EXHF   =         0.00000000
  -V(xc)+E(xc)   XCENC  =       340.07120950
  PAW double counting   =     11644.85363581   -11569.71491066
  entropy T*S    EENTRO =        -0.00000000
  eigenvalues    EBANDS =     -1396.97957679
  atomic energy  EATOM  =      8746.86531855
  Solvation  Ediel_sol  =         0.00000000
  ---------------------------------------------------
  free energy    TOTEN  =      -204.09000788 eV

  energy without entropy =     -204.09000788  energy(sigma->0) =     -204.09000788


--------------------------------------------------------------------------------------------------------




--------------------------------------- Iteration      1(  11)  ---------------------------------------


    POTLOK:  cpu time    0.1023: real time    0.1315
    SETDIJ:  cpu time    0.8936: real time    0.8936
     EDDAV:  cpu time   38.3581: real time   38.6433
       DOS:  cpu time    0.0042: real time    0.0043
    CHARGE:  cpu time    4.6795: real time    4.6811
    MIXING:  cpu time    0.0011: real time    0.0011
    --------------------------------------------
      LOOP:  cpu time   44.0389: real time   44.3549

 eigenvalue-minimisations  : 41536
 total energy-change (2. order) : 0.8418908E-03  (-0.4574179E-04)
 number of electron     127.9999997 magnetization      -0.0000000
 augmentation part       12.2192119 magnetization       0.0000341

 Broyden mixing:
  rms(total) = 0.37243E-01    rms(broyden)= 0.37243E-01
  rms(prec ) = 0.45869E-01
  weight for this iteration     100.00

 eigenvalues of (default mixing * dielectric matrix)
  average eigenvalue GAMMA=   0.7451
  1.2108  1.2108  0.6069  0.6069  0.4752  0.3600

 Free energy of the ion-electron system (eV)
  ---------------------------------------------------
  alpha Z        PSCENC =       292.52069741
  Ewald energy   TEWEN  =     -6036.37504402
  -Hartree energ DENC   =     -2225.31221084
  -exchange      EXHF   =         0.00000000
  -V(xc)+E(xc)   XCENC  =       340.08331516
  PAW double counting   =     11647.53677169   -11572.63022819
  entropy T*S    EENTRO =        -0.00000000
  eigenvalues    EBANDS =     -1396.77778575
  atomic energy  EATOM  =      8746.86531855
  Solvation  Ediel_sol  =         0.00000000
  ---------------------------------------------------
  free energy    TOTEN  =      -204.08916599 eV

  energy without entropy =     -204.08916599  energy(sigma->0) =     -204.08916599


--------------------------------------------------------------------------------------------------------




--------------------------------------- Iteration      1(  12)  ---------------------------------------


    POTLOK:  cpu time    0.0969: real time    0.1126
    SETDIJ:  cpu time    0.8929: real time    0.8929
     EDDAV:  cpu time   30.9153: real time   30.9376
       DOS:  cpu time    0.0062: real time    0.0062
    CHARGE:  cpu time    4.6566: real time    4.6566
    MIXING:  cpu time    0.0013: real time    0.0013
    --------------------------------------------
      LOOP:  cpu time   36.5691: real time   36.6072

 eigenvalue-minimisations  : 29760
 total energy-change (2. order) : 0.2987980E-03  (-0.3493083E-05)
 number of electron     127.9999997 magnetization      -0.0000000
 augmentation part       12.2192925 magnetization       0.0000400

 Broyden mixing:
  rms(total) = 0.35024E-01    rms(broyden)= 0.35024E-01
  rms(prec ) = 0.43414E-01
  weight for this iteration     100.00

 eigenvalues of (default mixing * dielectric matrix)
  average eigenvalue GAMMA=   0.9264
  1.5728  1.5728  0.8222  0.8222  0.5858  0.5858  0.5230

 Free energy of the ion-electron system (eV)
  ---------------------------------------------------
  alpha Z        PSCENC =       292.52069741
  Ewald energy   TEWEN  =     -6036.37504402
  -Hartree energ DENC   =     -2225.33716739
  -exchange      EXHF   =         0.00000000
  -V(xc)+E(xc)   XCENC  =       340.09235672
  PAW double counting   =     11651.67146884   -11576.85164950
  entropy T*S    EENTRO =        -0.00000000
  eigenvalues    EBANDS =     -1396.67484782
  atomic energy  EATOM  =      8746.86531855
  Solvation  Ediel_sol  =         0.00000000
  ---------------------------------------------------
  free energy    TOTEN  =      -204.08886719 eV

  energy without entropy =     -204.08886719  energy(sigma->0) =     -204.08886719


--------------------------------------------------------------------------------------------------------




--------------------------------------- Iteration      1(  13)  ---------------------------------------


    POTLOK:  cpu time    0.0980: real time    0.1189
    SETDIJ:  cpu time    0.8946: real time    0.8946
     EDDAV:  cpu time   34.8129: real time   34.8148
       DOS:  cpu time    0.0064: real time    0.0064
    CHARGE:  cpu time    4.6603: real time    4.6604
    MIXING:  cpu time    0.0013: real time    0.0013
    --------------------------------------------
      LOOP:  cpu time   40.4735: real time   40.4963

 eigenvalue-minimisations  : 35808
 total energy-change (2. order) : 0.1649780E-02  (-0.6675848E-04)
 number of electron     127.9999997 magnetization      -0.0000000
 augmentation part       12.2244396 magnetization       0.0000350

 Broyden mixing:
  rms(total) = 0.25858E-01    rms(broyden)= 0.25858E-01
  rms(prec ) = 0.32123E-01
  weight for this iteration     100.00

 eigenvalues of (default mixing * dielectric matrix)
  average eigenvalue GAMMA=   0.9487
  1.7656  1.7656  0.8828  0.8828  0.6070  0.6070  0.5395  0.5395

 Free energy of the ion-electron system (eV)
  ---------------------------------------------------
  alpha Z        PSCENC =       292.52069741
  Ewald energy   TEWEN  =     -6036.37504402
  -Hartree energ DENC   =     -2225.34790782
  -exchange      EXHF   =         0.00000000
  -V(xc)+E(xc)   XCENC  =       340.13034911
  PAW double counting   =     11660.67205529   -11586.27353478
  entropy T*S    EENTRO =        -0.00000000
  eigenvalues    EBANDS =     -1396.27915115
  atomic energy  EATOM  =      8746.86531855
  Solvation  Ediel_sol  =         0.00000000
  ---------------------------------------------------
  free energy    TOTEN  =      -204.08721741 eV

  energy without entropy =     -204.08721741  energy(sigma->0) =     -204.08721741


--------------------------------------------------------------------------------------------------------




--------------------------------------- Iteration      1(  14)  ---------------------------------------


    POTLOK:  cpu time    0.1018: real time    0.1106
    SETDIJ:  cpu time    0.8933: real time    0.8933
     EDDAV:  cpu time   32.6865: real time   32.6906
       DOS:  cpu time    0.0069: real time    0.0069
    CHARGE:  cpu time    4.6764: real time    4.6765
    MIXING:  cpu time    0.0012: real time    0.0012
    --------------------------------------------
      LOOP:  cpu time   38.3662: real time   38.3792

 eigenvalue-minimisations  : 32368
 total energy-change (2. order) : 0.4162497E-03  (-0.1202262E-04)
 number of electron     127.9999997 magnetization      -0.0000000
 augmentation part       12.2254810 magnetization       0.0000348

 Broyden mixing:
  rms(total) = 0.23111E-01    rms(broyden)= 0.23111E-01
  rms(prec ) = 0.28624E-01
  weight for this iteration     100.00

 eigenvalues of (default mixing * dielectric matrix)
  average eigenvalue GAMMA=   0.9072
  1.8036  1.8036  0.9084  0.9084  0.6110  0.6110  0.5142  0.5142  0.4901

 Free energy of the ion-electron system (eV)
  ---------------------------------------------------
  alpha Z        PSCENC =       292.52069741
  Ewald energy   TEWEN  =     -6036.37504402
  -Hartree energ DENC   =     -2225.35670653
  -exchange      EXHF   =         0.00000000
  -V(xc)+E(xc)   XCENC  =       340.13885919
  PAW double counting   =     11664.60627546   -11590.32727147
  entropy T*S    EENTRO =        -0.00000000
  eigenvalues    EBANDS =     -1396.15892976
  atomic energy  EATOM  =      8746.86531855
  Solvation  Ediel_sol  =         0.00000000
  ---------------------------------------------------
  free energy    TOTEN  =      -204.08680116 eV

  energy without entropy =     -204.08680116  energy(sigma->0) =     -204.08680116


--------------------------------------------------------------------------------------------------------




--------------------------------------- Iteration      1(  15)  ---------------------------------------


    POTLOK:  cpu time    0.1031: real time    0.1285
    SETDIJ:  cpu time    0.8924: real time    0.8926
     EDDAV:  cpu time   24.3853: real time   24.3895
       DOS:  cpu time    0.0063: real time    0.0063
    CHARGE:  cpu time    4.6509: real time    4.6513
    MIXING:  cpu time    0.0016: real time    0.0016
    --------------------------------------------
      LOOP:  cpu time   30.0396: real time   30.0698

 eigenvalue-minimisations  : 19504
 total energy-change (2. order) :-0.4952985E-04  (-0.6557540E-06)
 number of electron     127.9999997 magnetization      -0.0000000
 augmentation part       12.2255693 magnetization       0.0000327

 Broyden mixing:
  rms(total) = 0.23291E-01    rms(broyden)= 0.23291E-01
  rms(prec ) = 0.28879E-01
  weight for this iteration     100.00

 eigenvalues of (default mixing * dielectric matrix)
  average eigenvalue GAMMA=   0.8809
  1.8902  1.8902  0.9250  0.9250  0.5849  0.5849  0.5339  0.5339  0.4706  0.4706

 Free energy of the ion-electron system (eV)
  ---------------------------------------------------
  alpha Z        PSCENC =       292.52069741
  Ewald energy   TEWEN  =     -6036.37504402
  -Hartree energ DENC   =     -2225.36588983
  -exchange      EXHF   =         0.00000000
  -V(xc)+E(xc)   XCENC  =       340.13882048
  PAW double counting   =     11665.32028183   -11591.03047617
  entropy T*S    EENTRO =        -0.00000000
  eigenvalues    EBANDS =     -1396.16055895
  atomic energy  EATOM  =      8746.86531855
  Solvation  Ediel_sol  =         0.00000000
  ---------------------------------------------------
  free energy    TOTEN  =      -204.08685069 eV

  energy without entropy =     -204.08685069  energy(sigma->0) =     -204.08685069


--------------------------------------------------------------------------------------------------------




--------------------------------------- Iteration      1(  16)  ---------------------------------------


    POTLOK:  cpu time    0.1087: real time    0.1200
    SETDIJ:  cpu time    0.8920: real time    0.8922
     EDDAV:  cpu time   32.8514: real time   32.8579
       DOS:  cpu time    0.0061: real time    0.0061
    CHARGE:  cpu time    4.6565: real time    4.6575
    MIXING:  cpu time    0.0020: real time    0.0020
    --------------------------------------------
      LOOP:  cpu time   38.5167: real time   38.5357

 eigenvalue-minimisations  : 32776
 total energy-change (2. order) : 0.8137265E-03  (-0.2200744E-04)
 number of electron     127.9999997 magnetization      -0.0000000
 augmentation part       12.2285771 magnetization       0.0000231

 Broyden mixing:
  rms(total) = 0.17954E-01    rms(broyden)= 0.17954E-01
  rms(prec ) = 0.22382E-01
  weight for this iteration     100.00

 eigenvalues of (default mixing * dielectric matrix)
  average eigenvalue GAMMA=   1.0415
  2.4424  2.4424  1.1606  1.1606  0.7277  0.7277  0.5915  0.5915  0.5455  0.5455
  0.5215

 Free energy of the ion-electron system (eV)
  ---------------------------------------------------
  alpha Z        PSCENC =       292.52069741
  Ewald energy   TEWEN  =     -6036.37504402
  -Hartree energ DENC   =     -2225.38325613
  -exchange      EXHF   =         0.00000000
  -V(xc)+E(xc)   XCENC  =       340.16220006
  PAW double counting   =     11671.92870019   -11597.87123986
  entropy T*S    EENTRO =        -0.00000000
  eigenvalues    EBANDS =     -1395.93341317
  atomic energy  EATOM  =      8746.86531855
  Solvation  Ediel_sol  =         0.00000000
  ---------------------------------------------------
  free energy    TOTEN  =      -204.08603696 eV

  energy without entropy =     -204.08603696  energy(sigma->0) =     -204.08603696


--------------------------------------------------------------------------------------------------------




--------------------------------------- Iteration      1(  17)  ---------------------------------------


    POTLOK:  cpu time    0.1012: real time    0.1298
    SETDIJ:  cpu time    0.8919: real time    0.8919
     EDDAV:  cpu time   34.8317: real time   34.8383
       DOS:  cpu time    0.0067: real time    0.0068
    CHARGE:  cpu time    4.6651: real time    4.6676
    MIXING:  cpu time    0.0013: real time    0.0013
    --------------------------------------------
      LOOP:  cpu time   40.4980: real time   40.5357

 eigenvalue-minimisations  : 36072
 total energy-change (2. order) : 0.1388750E-02  (-0.8723700E-04)
 number of electron     127.9999997 magnetization      -0.0000000
 augmentation part       12.2339377 magnetization       0.0000127

 Broyden mixing:
  rms(total) = 0.77550E-02    rms(broyden)= 0.77550E-02
  rms(prec ) = 0.97535E-02
  weight for this iteration     100.00

 eigenvalues of (default mixing * dielectric matrix)
  average eigenvalue GAMMA=   1.0909
  2.8529  2.8529  1.2617  1.2617  0.7665  0.7665  0.5891  0.5891  0.5672  0.5672
  0.5081  0.5081

 Free energy of the ion-electron system (eV)
  ---------------------------------------------------
  alpha Z        PSCENC =       292.52069741
  Ewald energy   TEWEN  =     -6036.37504402
  -Hartree energ DENC   =     -2225.40390429
  -exchange      EXHF   =         0.00000000
  -V(xc)+E(xc)   XCENC  =       340.20495642
  PAW double counting   =     11685.23068828   -11611.62076919
  entropy T*S    EENTRO =        -0.00000000
  eigenvalues    EBANDS =     -1395.50659139
  atomic energy  EATOM  =      8746.86531855
  Solvation  Ediel_sol  =         0.00000000
  ---------------------------------------------------
  free energy    TOTEN  =      -204.08464821 eV

  energy without entropy =     -204.08464821  energy(sigma->0) =     -204.08464821


--------------------------------------------------------------------------------------------------------




--------------------------------------- Iteration      1(  18)  ---------------------------------------


    POTLOK:  cpu time    0.0956: real time    0.1093
    SETDIJ:  cpu time    0.8875: real time    0.8906
     EDDAV:  cpu time   32.6228: real time   32.8649
       DOS:  cpu time    0.0065: real time    0.0065
    CHARGE:  cpu time    4.6545: real time    4.6584
    MIXING:  cpu time    0.0015: real time    0.0015
    --------------------------------------------
      LOOP:  cpu time   38.2684: real time   38.5312

 eigenvalue-minimisations  : 32616
 total energy-change (2. order) : 0.4775396E-03  (-0.2053069E-04)
 number of electron     127.9999997 magnetization      -0.0000000
 augmentation part       12.2355148 magnetization      -0.0000080

 Broyden mixing:
  rms(total) = 0.36485E-02    rms(broyden)= 0.36485E-02
  rms(prec ) = 0.45930E-02
  weight for this iteration     100.00

 eigenvalues of (default mixing * dielectric matrix)
  average eigenvalue GAMMA=   1.0816
  3.0113  3.0113  1.3028  1.3028  0.7848  0.7848  0.5588  0.5588  0.5936  0.5936
  0.5410  0.5410  0.4758

 Free energy of the ion-electron system (eV)
  ---------------------------------------------------
  alpha Z        PSCENC =       292.52069741
  Ewald energy   TEWEN  =     -6036.37504402
  -Hartree energ DENC   =     -2225.41208259
  -exchange      EXHF   =         0.00000000
  -V(xc)+E(xc)   XCENC  =       340.21910444
  PAW double counting   =     11690.19593748   -11616.76347677
  entropy T*S    EENTRO =        -0.00000000
  eigenvalues    EBANDS =     -1395.33462518
  atomic energy  EATOM  =      8746.86531855
  Solvation  Ediel_sol  =         0.00000000
  ---------------------------------------------------
  free energy    TOTEN  =      -204.08417067 eV

  energy without entropy =     -204.08417067  energy(sigma->0) =     -204.08417067


--------------------------------------------------------------------------------------------------------




--------------------------------------- Iteration      1(  19)  ---------------------------------------


    POTLOK:  cpu time    0.1007: real time    0.1266
    SETDIJ:  cpu time    0.8887: real time    0.8918
     EDDAV:  cpu time   25.3416: real time   25.5125
       DOS:  cpu time    0.0059: real time    0.0059
    CHARGE:  cpu time    4.6932: real time    4.6994
    MIXING:  cpu time    0.0016: real time    0.0016
    --------------------------------------------
      LOOP:  cpu time   31.0317: real time   31.2378

 eigenvalue-minimisations  : 20984
 total energy-change (2. order) : 0.1476867E-03  (-0.1877361E-05)
 number of electron     127.9999997 magnetization      -0.0000000
 augmentation part       12.2361023 magnetization      -0.0000049

 Broyden mixing:
  rms(total) = 0.24057E-02    rms(broyden)= 0.24057E-02
  rms(prec ) = 0.30905E-02
  weight for this iteration     100.00

 eigenvalues of (default mixing * dielectric matrix)
  average eigenvalue GAMMA=   1.0087
  3.0234  3.0234  1.3049  1.3049  0.7838  0.7838  0.5545  0.5545  0.5918  0.5918
  0.5398  0.5398  0.4741  0.0509

 Free energy of the ion-electron system (eV)
  ---------------------------------------------------
  alpha Z        PSCENC =       292.52069741
  Ewald energy   TEWEN  =     -6036.37504402
  -Hartree energ DENC   =     -2225.41784057
  -exchange      EXHF   =         0.00000000
  -V(xc)+E(xc)   XCENC  =       340.22459972
  PAW double counting   =     11691.55619955   -11618.18037046
  entropy T*S    EENTRO =        -0.00000000
  eigenvalues    EBANDS =     -1395.27758316
  atomic energy  EATOM  =      8746.86531855
  Solvation  Ediel_sol  =         0.00000000
  ---------------------------------------------------
  free energy    TOTEN  =      -204.08402299 eV

  energy without entropy =     -204.08402299  energy(sigma->0) =     -204.08402299


--------------------------------------------------------------------------------------------------------




--------------------------------------- Iteration      1(  20)  ---------------------------------------


    POTLOK:  cpu time    0.1010: real time    0.1245
    SETDIJ:  cpu time    0.8939: real time    0.8939
     EDDAV:  cpu time   24.1943: real time   24.1967
       DOS:  cpu time    0.0069: real time    0.0069
    CHARGE:  cpu time    4.6682: real time    4.6683
    MIXING:  cpu time    0.0016: real time    0.0015
    --------------------------------------------
      LOOP:  cpu time   29.8657: real time   29.8918

 eigenvalue-minimisations  : 19136
 total energy-change (2. order) : 0.1108553E-04  (-0.6351303E-06)
 number of electron     127.9999997 magnetization      -0.0000000
 augmentation part       12.2362961 magnetization      -0.0000050

 Broyden mixing:
  rms(total) = 0.22873E-02    rms(broyden)= 0.22873E-02
  rms(prec ) = 0.29354E-02
  weight for this iteration     100.00

 eigenvalues of (default mixing * dielectric matrix)
  average eigenvalue GAMMA=   1.0305
  3.1838  3.1838  1.3675  1.3675  0.8154  0.8154  0.6574  0.6574  0.6279  0.6279
  0.5422  0.5422  0.4920  0.4553  0.1213

 Free energy of the ion-electron system (eV)
  ---------------------------------------------------
  alpha Z        PSCENC =       292.52069741
  Ewald energy   TEWEN  =     -6036.37504402
  -Hartree energ DENC   =     -2225.41780062
  -exchange      EXHF   =         0.00000000
  -V(xc)+E(xc)   XCENC  =       340.22481874
  PAW double counting   =     11691.66134040   -11618.28974659
  entropy T*S    EENTRO =        -0.00000000
  eigenvalues    EBANDS =     -1395.27359579
  atomic energy  EATOM  =      8746.86531855
  Solvation  Ediel_sol  =         0.00000000
  ---------------------------------------------------
  free energy    TOTEN  =      -204.08401190 eV

  energy without entropy =     -204.08401190  energy(sigma->0) =     -204.08401190


--------------------------------------------------------------------------------------------------------




--------------------------------------- Iteration      1(  21)  ---------------------------------------


    POTLOK:  cpu time    0.0937: real time    0.1028
    SETDIJ:  cpu time    0.8931: real time    0.8932
     EDDAV:  cpu time   24.3347: real time   24.3375
       DOS:  cpu time    0.0070: real time    0.0070
    CHARGE:  cpu time    4.6825: real time    4.6826
    MIXING:  cpu time    0.0020: real time    0.0020
    --------------------------------------------
      LOOP:  cpu time   30.0130: real time   30.0251

 eigenvalue-minimisations  : 19248
 total energy-change (2. order) : 0.6939099E-04  (-0.8108928E-06)
 number of electron     127.9999997 magnetization      -0.0000000
 augmentation part       12.2366793 magnetization      -0.0000024

 Broyden mixing:
  rms(total) = 0.17144E-02    rms(broyden)= 0.17144E-02
  rms(prec ) = 0.21904E-02
  weight for this iteration     100.00

 eigenvalues of (default mixing * dielectric matrix)
  average eigenvalue GAMMA=   1.0106
  3.2453  3.2453  1.3798  1.3798  0.8601  0.8601  0.6690  0.6690  0.6177  0.6177
  0.5352  0.5352  0.5134  0.5134  0.4418  0.0872

 Free energy of the ion-electron system (eV)
  ---------------------------------------------------
  alpha Z        PSCENC =       292.52069741
  Ewald energy   TEWEN  =     -6036.37504402
  -Hartree energ DENC   =     -2225.42030990
  -exchange      EXHF   =         0.00000000
  -V(xc)+E(xc)   XCENC  =       340.22783234
  PAW double counting   =     11692.10324637   -11618.75853759
  entropy T*S    EENTRO =        -0.00000000
  eigenvalues    EBANDS =     -1395.24714569
  atomic energy  EATOM  =      8746.86531855
  Solvation  Ediel_sol  =         0.00000000
  ---------------------------------------------------
  free energy    TOTEN  =      -204.08394251 eV

  energy without entropy =     -204.08394251  energy(sigma->0) =     -204.08394251


--------------------------------------------------------------------------------------------------------




--------------------------------------- Iteration      1(  22)  ---------------------------------------


    POTLOK:  cpu time    0.0965: real time    0.1133
    SETDIJ:  cpu time    0.8963: real time    0.8963
     EDDAV:  cpu time   24.2121: real time   24.2144
       DOS:  cpu time    0.0068: real time    0.0068
    --------------------------------------------
      LOOP:  cpu time   25.2117: real time   25.2307

 eigenvalue-minimisations  : 19136
 total energy-change (2. order) : 0.9848223E-05  (-0.3632235E-06)
 number of electron     127.9999997 magnetization      -0.0000000
 augmentation part       12.2366793 magnetization      -0.0000024

 Free energy of the ion-electron system (eV)
  ---------------------------------------------------
  alpha Z        PSCENC =       292.52069741
  Ewald energy   TEWEN  =     -6036.37504402
  -Hartree energ DENC   =     -2225.42173809
  -exchange      EXHF   =         0.00000000
  -V(xc)+E(xc)   XCENC  =       340.22812724
  PAW double counting   =     11692.19633346   -11618.85532599
  entropy T*S    EENTRO =        -0.00000000
  eigenvalues    EBANDS =     -1395.24230123
  atomic energy  EATOM  =      8746.86531855
  Solvation  Ediel_sol  =         0.00000000
  ---------------------------------------------------
  free energy    TOTEN  =      -204.08393266 eV

  energy without entropy =     -204.08393266  energy(sigma->0) =     -204.08393266


--------------------------------------------------------------------------------------------------------




 average (electrostatic) potential at core
  the test charge radii are     1.1045  1.1137  1.0406  0.9587
  (the norm of the test charge is              1.0000)
       1 -38.4885       2 -38.4893       3 -38.4884       4 -38.4890       5 -50.5601
       6 -50.5594       7 -50.5595       8 -50.5598       9 -80.3618      10 -80.3620
      11 -80.3620      12 -80.3620      13 -87.2603      14 -87.2603      15 -87.2602
      16 -87.2603      17 -87.3038      18 -87.3044      19 -87.3038      20 -87.3044
 
 
 
 E-fermi :   2.4511     XC(G=0):  -8.8008     alpha+bet : -9.3100


 spin component 1

 k-point     1 :       0.0000    0.0000    0.0000
  band No.  band energies     occupation 
      1     -39.5390      1.00000
      2     -39.5379      1.00000
      3     -39.5337      1.00000
      4     -39.5327      1.00000
      5     -29.0007      1.00000
      6     -28.9973      1.00000
      7     -28.9943      1.00000
      8     -28.9910      1.00000
      9     -19.7200      1.00000
     10     -19.7155      1.00000
     11     -19.7128      1.00000
     12     -19.7119      1.00000
     13     -19.7083      1.00000
     14     -19.6894      1.00000
     15     -19.6846      1.00000
     16     -19.6759      1.00000
     17     -19.6522      1.00000
     18     -19.6466      1.00000
     19     -19.6187      1.00000
     20     -19.6106      1.00000
     21     -11.8041      1.00000
     22     -11.8019      1.00000
     23     -11.7874      1.00000
     24     -11.7857      1.00000
     25     -11.7621      1.00000
     26     -11.7570      1.00000
     27     -11.7203      1.00000
     28     -11.7074      1.00000
     29     -11.7059      1.00000
     30     -11.6610      1.00000
     31     -11.6584      1.00000
     32     -11.6516      1.00000
     33      -8.3527      1.00000
     34      -7.7833      1.00000
     35      -7.5691      1.00000
     36      -6.8902      1.00000
     37      -6.7200      1.00000
     38      -6.7156      1.00000
     39      -6.6397      1.00000
     40      -6.5728      1.00000
     41      -3.0515      1.00000
     42      -2.4361      1.00000
     43      -1.6044      1.00000
     44      -1.1450      1.00000
     45      -0.6718      1.00000
     46      -0.3619      1.00000
     47      -0.2630      1.00000
     48      -0.2407      1.00000
     49      -0.2176      1.00000
     50       0.2717      1.00000
     51       0.6405      1.00000
     52       0.8747      1.00000
     53       1.1098      1.00000
     54       1.2374      1.00000
     55       1.2939      1.00000
     56       1.3812      1.00000
     57       1.5840      1.00000
     58       1.6112      1.00000
     59       1.7789      1.00000
     60       1.8095      1.00000
     61       1.9561      1.00000
     62       2.0217      1.00000
     63       2.0449      1.00000
     64       2.0537      1.00000
     65       4.4278      0.00000
     66       4.6206      0.00000
     67       4.9858      0.00000
     68       5.0190      0.00000
     69       5.2527      0.00000
     70       5.3941      0.00000
     71       5.4751      0.00000
     72       5.7072      0.00000
     73       5.9524      0.00000
     74       6.0771      0.00000
     75       6.1989      0.00000
     76       6.2535      0.00000
     77       6.3073      0.00000
     78       6.3567      0.00000
     79       6.4346      0.00000
     80       6.4745      0.00000

 k-point     2 :       0.1667   -0.0000   -0.0000
  band No.  band energies     occupation 
      1     -39.5390      1.00000
      2     -39.5379      1.00000
      3     -39.5337      1.00000
      4     -39.5327      1.00000
      5     -29.0007      1.00000
      6     -28.9972      1.00000
      7     -28.9943      1.00000
      8     -28.9910      1.00000
      9     -19.7200      1.00000
     10     -19.7155      1.00000
     11     -19.7128      1.00000
     12     -19.7119      1.00000
     13     -19.7083      1.00000
     14     -19.6894      1.00000
     15     -19.6847      1.00000
     16     -19.6759      1.00000
     17     -19.6522      1.00000
     18     -19.6466      1.00000
     19     -19.6188      1.00000
     20     -19.6106      1.00000
     21     -11.8073      1.00000
     22     -11.8007      1.00000
     23     -11.7880      1.00000
     24     -11.7858      1.00000
     25     -11.7621      1.00000
     26     -11.7566      1.00000
     27     -11.7207      1.00000
     28     -11.7070      1.00000
     29     -11.7054      1.00000
     30     -11.6610      1.00000
     31     -11.6582      1.00000
     32     -11.6518      1.00000
     33      -8.3241      1.00000
     34      -7.7692      1.00000
     35      -7.5713      1.00000
     36      -6.9118      1.00000
     37      -6.7398      1.00000
     38      -6.7373      1.00000
     39      -6.6373      1.00000
     40      -6.5813      1.00000
     41      -3.0494      1.00000
     42      -2.3970      1.00000
     43      -1.4913      1.00000
     44      -1.1568      1.00000
     45      -0.7184      1.00000
     46      -0.3749      1.00000
     47      -0.2814      1.00000
     48      -0.2304      1.00000
     49      -0.1331      1.00000
     50       0.2785      1.00000
     51       0.7292      1.00000
     52       0.8695      1.00000
     53       1.0279      1.00000
     54       1.2344      1.00000
     55       1.3118      1.00000
     56       1.3553      1.00000
     57       1.5312      1.00000
     58       1.5741      1.00000
     59       1.6607      1.00000
     60       1.7623      1.00000
     61       1.8824      1.00000
     62       1.9812      1.00000
     63       2.0075      1.00000
     64       2.1124      1.00000
     65       4.5656      0.00000
     66       4.6887      0.00000
     67       4.8222      0.00000
     68       5.0311      0.00000
     69       5.2721      0.00000
     70       5.4314      0.00000
     71       5.5534      0.00000
     72       5.7099      0.00000
     73       5.8971      0.00000
     74       6.1102      0.00000
     75       6.1684      0.00000
     76       6.1937      0.00000
     77       6.3910      0.00000
     78       6.4218      0.00000
     79       6.4960      0.00000
     80       6.6835      0.00000

 k-point     3 :       0.3333    0.0000   -0.0000
  band No.  band energies     occupation 
      1     -39.5390      1.00000
      2     -39.5379      1.00000
      3     -39.5337      1.00000
      4     -39.5327      1.00000
      5     -29.0006      1.00000
      6     -28.9972      1.00000
      7     -28.9944      1.00000
      8     -28.9910      1.00000
      9     -19.7200      1.00000
     10     -19.7155      1.00000
     11     -19.7127      1.00000
     12     -19.7119      1.00000
     13     -19.7083      1.00000
     14     -19.6894      1.00000
     15     -19.6847      1.00000
     16     -19.6760      1.00000
     17     -19.6522      1.00000
     18     -19.6466      1.00000
     19     -19.6187      1.00000
     20     -19.6106      1.00000
     21     -11.8108      1.00000
     22     -11.8011      1.00000
     23     -11.7894      1.00000
     24     -11.7860      1.00000
     25     -11.7618      1.00000
     26     -11.7559      1.00000
     27     -11.7214      1.00000
     28     -11.7061      1.00000
     29     -11.7044      1.00000
     30     -11.6610      1.00000
     31     -11.6580      1.00000
     32     -11.6521      1.00000
     33      -8.2601      1.00000
     34      -7.7392      1.00000
     35      -7.5843      1.00000
     36      -6.9532      1.00000
     37      -6.7866      1.00000
     38      -6.7788      1.00000
     39      -6.6327      1.00000
     40      -6.5931      1.00000
     41      -3.0448      1.00000
     42      -2.3186      1.00000
     43      -1.2357      1.00000
     44      -1.1789      1.00000
     45      -0.7702      1.00000
     46      -0.4280      1.00000
     47      -0.2512      1.00000
     48      -0.2466      1.00000
     49       0.0345      1.00000
     50       0.2939      1.00000
     51       0.8194      1.00000
     52       0.8363      1.00000
     53       0.9752      1.00000
     54       1.0890      1.00000
     55       1.2218      1.00000
     56       1.2935      1.00000
     57       1.3590      1.00000
     58       1.5537      1.00000
     59       1.6591      1.00000
     60       1.7368      1.00000
     61       1.7772      1.00000
     62       1.9091      1.00000
     63       1.9130      1.00000
     64       2.1652      1.00000
     65       4.4851      0.00000
     66       4.6601      0.00000
     67       4.9547      0.00000
     68       5.0370      0.00000
     69       5.4944      0.00000
     70       5.6166      0.00000
     71       5.6408      0.00000
     72       5.6763      0.00000
     73       5.8803      0.00000
     74       5.9310      0.00000
     75       6.1709      0.00000
     76       6.4030      0.00000
     77       6.4526      0.00000
     78       6.5755      0.00000
     79       6.5795      0.00000
     80       6.6988      0.00000

 k-point     4 :       0.5000   -0.0000   -0.0000
  band No.  band energies     occupation 
      1     -39.5390      1.00000
      2     -39.5379      1.00000
      3     -39.5337      1.00000
      4     -39.5327      1.00000
      5     -29.0006      1.00000
      6     -28.9972      1.00000
      7     -28.9944      1.00000
      8     -28.9911      1.00000
      9     -19.7200      1.00000
     10     -19.7155      1.00000
     11     -19.7127      1.00000
     12     -19.7119      1.00000
     13     -19.7084      1.00000
     14     -19.6894      1.00000
     15     -19.6848      1.00000
     16     -19.6760      1.00000
     17     -19.6521      1.00000
     18     -19.6467      1.00000
     19     -19.6187      1.00000
     20     -19.6106      1.00000
     21     -11.8121      1.00000
     22     -11.8018      1.00000
     23     -11.7900      1.00000
     24     -11.7861      1.00000
     25     -11.7616      1.00000
     26     -11.7555      1.00000
     27     -11.7217      1.00000
     28     -11.7057      1.00000
     29     -11.7039      1.00000
     30     -11.6610      1.00000
     31     -11.6578      1.00000
     32     -11.6523      1.00000
     33      -8.2235      1.00000
     34      -7.7231      1.00000
     35      -7.5971      1.00000
     36      -6.9714      1.00000
     37      -6.8104      1.00000
     38      -6.8023      1.00000
     39      -6.6304      1.00000
     40      -6.5970      1.00000
     41      -3.0425      1.00000
     42      -2.2794      1.00000
     43      -1.1918      1.00000
     44      -1.0863      1.00000
     45      -0.7833      1.00000
     46      -0.4326      1.00000
     47      -0.2527      1.00000
     48      -0.2282      1.00000
     49       0.0935      1.00000
     50       0.3044      1.00000
     51       0.7017      1.00000
     52       0.8281      1.00000
     53       0.9610      1.00000
     54       1.0648      1.00000
     55       1.1677      1.00000
     56       1.2936      1.00000
     57       1.3109      1.00000
     58       1.5538      1.00000
     59       1.6695      1.00000
     60       1.6921      1.00000
     61       1.7729      1.00000
     62       1.8329      1.00000
     63       1.8773      1.00000
     64       2.1946      1.00000
     65       4.3832      0.00000
     66       4.6957      0.00000
     67       4.8453      0.00000
     68       5.3504      0.00000
     69       5.4862      0.00000
     70       5.5420      0.00000
     71       5.6323      0.00000
     72       5.7041      0.00000
     73       6.0419      0.00000
     74       6.1455      0.00000
     75       6.2160      0.00000
     76       6.3601      0.00000
     77       6.3648      0.00000
     78       6.5808      0.00000
     79       6.6089      0.00000
     80       6.6397      0.00000

 k-point     5 :      -0.0000    0.2000   -0.0000
  band No.  band energies     occupation 
      1     -39.5390      1.00000
      2     -39.5380      1.00000
      3     -39.5336      1.00000
      4     -39.5327      1.00000
      5     -29.0005      1.00000
      6     -28.9978      1.00000
      7     -28.9937      1.00000
      8     -28.9912      1.00000
      9     -19.7202      1.00000
     10     -19.7160      1.00000
     11     -19.7145      1.00000
     12     -19.7097      1.00000
     13     -19.7069      1.00000
     14     -19.6924      1.00000
     15     -19.6822      1.00000
     16     -19.6762      1.00000
     17     -19.6519      1.00000
     18     -19.6475      1.00000
     19     -19.6178      1.00000
     20     -19.6113      1.00000
     21     -11.8037      1.00000
     22     -11.8018      1.00000
     23     -11.7875      1.00000
     24     -11.7860      1.00000
     25     -11.7625      1.00000
     26     -11.7581      1.00000
     27     -11.7194      1.00000
     28     -11.7123      1.00000
     29     -11.6981      1.00000
     30     -11.6671      1.00000
     31     -11.6551      1.00000
     32     -11.6518      1.00000
     33      -8.3168      1.00000
     34      -7.8980      1.00000
     35      -7.4498      1.00000
     36      -6.9446      1.00000
     37      -6.7119      1.00000
     38      -6.7106      1.00000
     39      -6.6376      1.00000
     40      -6.5849      1.00000
     41      -2.9882      1.00000
     42      -2.4925      1.00000
     43      -1.5810      1.00000
     44      -1.2349      1.00000
     45      -0.6157      1.00000
     46      -0.2825      1.00000
     47      -0.2477      1.00000
     48      -0.2034      1.00000
     49      -0.1455      1.00000
     50       0.2681      1.00000
     51       0.6109      1.00000
     52       0.8389      1.00000
     53       1.1205      1.00000
     54       1.1289      1.00000
     55       1.2000      1.00000
     56       1.4891      1.00000
     57       1.5527      1.00000
     58       1.6024      1.00000
     59       1.7552      1.00000
     60       1.8011      1.00000
     61       1.8118      1.00000
     62       1.9601      1.00000
     63       2.0551      1.00000
     64       2.0825      1.00000
     65       4.6218      0.00000
     66       4.6855      0.00000
     67       4.9919      0.00000
     68       5.1587      0.00000
     69       5.2327      0.00000
     70       5.3662      0.00000
     71       5.5643      0.00000
     72       5.5980      0.00000
     73       5.8096      0.00000
     74       6.1138      0.00000
     75       6.2291      0.00000
     76       6.2980      0.00000
     77       6.3969      0.00000
     78       6.4348      0.00000
     79       6.4653      0.00000
     80       6.5762      0.00000

 k-point     6 :       0.1667    0.2000    0.0000
  band No.  band energies     occupation 
      1     -39.5390      1.00000
      2     -39.5380      1.00000
      3     -39.5336      1.00000
      4     -39.5327      1.00000
      5     -29.0005      1.00000
      6     -28.9978      1.00000
      7     -28.9938      1.00000
      8     -28.9912      1.00000
      9     -19.7202      1.00000
     10     -19.7160      1.00000
     11     -19.7145      1.00000
     12     -19.7097      1.00000
     13     -19.7069      1.00000
     14     -19.6924      1.00000
     15     -19.6822      1.00000
     16     -19.6762      1.00000
     17     -19.6519      1.00000
     18     -19.6475      1.00000
     19     -19.6178      1.00000
     20     -19.6112      1.00000
     21     -11.8066      1.00000
     22     -11.8011      1.00000
     23     -11.7881      1.00000
     24     -11.7861      1.00000
     25     -11.7624      1.00000
     26     -11.7578      1.00000
     27     -11.7197      1.00000
     28     -11.7116      1.00000
     29     -11.6977      1.00000
     30     -11.6670      1.00000
     31     -11.6551      1.00000
     32     -11.6519      1.00000
     33      -8.2891      1.00000
     34      -7.8818      1.00000
     35      -7.4542      1.00000
     36      -6.9635      1.00000
     37      -6.7363      1.00000
     38      -6.7310      1.00000
     39      -6.6354      1.00000
     40      -6.5918      1.00000
     41      -2.9846      1.00000
     42      -2.4600      1.00000
     43      -1.4719      1.00000
     44      -1.2136      1.00000
     45      -0.6579      1.00000
     46      -0.3448      1.00000
     47      -0.2331      1.00000
     48      -0.1629      1.00000
     49      -0.1200      1.00000
     50       0.2707      1.00000
     51       0.6583      1.00000
     52       0.8443      1.00000
     53       1.0543      1.00000
     54       1.1760      1.00000
     55       1.1974      1.00000
     56       1.4588      1.00000
     57       1.5153      1.00000
     58       1.5533      1.00000
     59       1.6233      1.00000
     60       1.7580      1.00000
     61       1.8071      1.00000
     62       1.9378      1.00000
     63       2.0145      1.00000
     64       2.1010      1.00000
     65       4.7159      0.00000
     66       4.7399      0.00000
     67       4.8774      0.00000
     68       5.1028      0.00000
     69       5.2938      0.00000
     70       5.3765      0.00000
     71       5.5794      0.00000
     72       5.6649      0.00000
     73       5.8268      0.00000
     74       6.1200      0.00000
     75       6.2054      0.00000
     76       6.3263      0.00000
     77       6.3807      0.00000
     78       6.4644      0.00000
     79       6.5069      0.00000
     80       6.7297      0.00000

 k-point     7 :       0.3333    0.2000    0.0000
  band No.  band energies     occupation 
      1     -39.5390      1.00000
      2     -39.5380      1.00000
      3     -39.5336      1.00000
      4     -39.5327      1.00000
      5     -29.0004      1.00000
      6     -28.9978      1.00000
      7     -28.9938      1.00000
      8     -28.9912      1.00000
      9     -19.7202      1.00000
     10     -19.7160      1.00000
     11     -19.7145      1.00000
     12     -19.7097      1.00000
     13     -19.7069      1.00000
     14     -19.6924      1.00000
     15     -19.6823      1.00000
     16     -19.6763      1.00000
     17     -19.6519      1.00000
     18     -19.6475      1.00000
     19     -19.6178      1.00000
     20     -19.6112      1.00000
     21     -11.8100      1.00000
     22     -11.8020      1.00000
     23     -11.7891      1.00000
     24     -11.7864      1.00000
     25     -11.7621      1.00000
     26     -11.7572      1.00000
     27     -11.7200      1.00000
     28     -11.7105      1.00000
     29     -11.6970      1.00000
     30     -11.6667      1.00000
     31     -11.6550      1.00000
     32     -11.6522      1.00000
     33      -8.2271      1.00000
     34      -7.8478      1.00000
     35      -7.4705      1.00000
     36      -7.0031      1.00000
     37      -6.7840      1.00000
     38      -6.7751      1.00000
     39      -6.6312      1.00000
     40      -6.6002      1.00000
     41      -2.9775      1.00000
     42      -2.3968      1.00000
     43      -1.2244      1.00000
     44      -1.1654      1.00000
     45      -0.7248      1.00000
     46      -0.3989      1.00000
     47      -0.2473      1.00000
     48      -0.1748      1.00000
     49       0.0260      1.00000
     50       0.2598      1.00000
     51       0.6950      1.00000
     52       0.8281      1.00000
     53       1.0007      1.00000
     54       1.0987      1.00000
     55       1.2125      1.00000
     56       1.2790      1.00000
     57       1.3979      1.00000
     58       1.5119      1.00000
     59       1.6017      1.00000
     60       1.7107      1.00000
     61       1.7576      1.00000
     62       1.9120      1.00000
     63       1.9262      1.00000
     64       2.1292      1.00000
     65       4.5618      0.00000
     66       4.7621      0.00000
     67       4.9801      0.00000
     68       5.0923      0.00000
     69       5.4299      0.00000
     70       5.5090      0.00000
     71       5.5406      0.00000
     72       5.7699      0.00000
     73       5.9227      0.00000
     74       6.0129      0.00000
     75       6.1938      0.00000
     76       6.3921      0.00000
     77       6.4785      0.00000
     78       6.5778      0.00000
     79       6.6159      0.00000
     80       6.6359      0.00000

 k-point     8 :       0.5000    0.2000    0.0000
  band No.  band energies     occupation 
      1     -39.5390      1.00000
      2     -39.5380      1.00000
      3     -39.5336      1.00000
      4     -39.5327      1.00000
      5     -29.0004      1.00000
      6     -28.9977      1.00000
      7     -28.9938      1.00000
      8     -28.9913      1.00000
      9     -19.7202      1.00000
     10     -19.7160      1.00000
     11     -19.7145      1.00000
     12     -19.7097      1.00000
     13     -19.7070      1.00000
     14     -19.6924      1.00000
     15     -19.6823      1.00000
     16     -19.6763      1.00000
     17     -19.6518      1.00000
     18     -19.6475      1.00000
     19     -19.6178      1.00000
     20     -19.6112      1.00000
     21     -11.8113      1.00000
     22     -11.8029      1.00000
     23     -11.7897      1.00000
     24     -11.7865      1.00000
     25     -11.7620      1.00000
     26     -11.7569      1.00000
     27     -11.7202      1.00000
     28     -11.7100      1.00000
     29     -11.6967      1.00000
     30     -11.6666      1.00000
     31     -11.6550      1.00000
     32     -11.6523      1.00000
     33      -8.1918      1.00000
     34      -7.8304      1.00000
     35      -7.4838      1.00000
     36      -7.0232      1.00000
     37      -6.8069      1.00000
     38      -6.7984      1.00000
     39      -6.6291      1.00000
     40      -6.6026      1.00000
     41      -2.9739      1.00000
     42      -2.3663      1.00000
     43      -1.1408      1.00000
     44      -1.0783      1.00000
     45      -0.7505      1.00000
     46      -0.4057      1.00000
     47      -0.2563      1.00000
     48      -0.1711      1.00000
     49       0.0898      1.00000
     50       0.2438      1.00000
     51       0.6435      1.00000
     52       0.7971      1.00000
     53       0.9797      1.00000
     54       1.0767      1.00000
     55       1.1243      1.00000
     56       1.3003      1.00000
     57       1.3417      1.00000
     58       1.4878      1.00000
     59       1.6121      1.00000
     60       1.6680      1.00000
     61       1.7896      1.00000
     62       1.8567      1.00000
     63       1.8943      1.00000
     64       2.1497      1.00000
     65       4.4730      0.00000
     66       4.7668      0.00000
     67       4.8837      0.00000
     68       5.3165      0.00000
     69       5.4187      0.00000
     70       5.5180      0.00000
     71       5.7021      0.00000
     72       5.7427      0.00000
     73       5.9321      0.00000
     74       6.0361      0.00000
     75       6.1961      0.00000
     76       6.4114      0.00000
     77       6.4603      0.00000
     78       6.5098      0.00000
     79       6.6193      0.00000
     80       6.7685      0.00000

 k-point     9 :      -0.3333    0.2000    0.0000
  band No.  band energies     occupation 
      1     -39.5390      1.00000
      2     -39.5380      1.00000
      3     -39.5336      1.00000
      4     -39.5327      1.00000
      5     -29.0004      1.00000
      6     -28.9978      1.00000
      7     -28.9938      1.00000
      8     -28.9912      1.00000
      9     -19.7202      1.00000
     10     -19.7160      1.00000
     11     -19.7145      1.00000
     12     -19.7097      1.00000
     13     -19.7069      1.00000
     14     -19.6924      1.00000
     15     -19.6823      1.00000
     16     -19.6763      1.00000
     17     -19.6519      1.00000
     18     -19.6475      1.00000
     19     -19.6178      1.00000
     20     -19.6112      1.00000
     21     -11.8100      1.00000
     22     -11.8020      1.00000
     23     -11.7891      1.00000
     24     -11.7864      1.00000
     25     -11.7622      1.00000
     26     -11.7572      1.00000
     27     -11.7201      1.00000
     28     -11.7105      1.00000
     29     -11.6971      1.00000
     30     -11.6667      1.00000
     31     -11.6550      1.00000
     32     -11.6522      1.00000
     33      -8.2271      1.00000
     34      -7.8478      1.00000
     35      -7.4706      1.00000
     36      -7.0031      1.00000
     37      -6.7842      1.00000
     38      -6.7749      1.00000
     39      -6.6312      1.00000
     40      -6.6002      1.00000
     41      -2.9774      1.00000
     42      -2.3969      1.00000
     43      -1.2245      1.00000
     44      -1.1653      1.00000
     45      -0.7248      1.00000
     46      -0.3991      1.00000
     47      -0.2470      1.00000
     48      -0.1748      1.00000
     49       0.0258      1.00000
     50       0.2599      1.00000
     51       0.6949      1.00000
     52       0.8281      1.00000
     53       1.0008      1.00000
     54       1.0991      1.00000
     55       1.2120      1.00000
     56       1.2790      1.00000
     57       1.3977      1.00000
     58       1.5119      1.00000
     59       1.6018      1.00000
     60       1.7107      1.00000
     61       1.7576      1.00000
     62       1.9119      1.00000
     63       1.9261      1.00000
     64       2.1292      1.00000
     65       4.5618      0.00000
     66       4.7620      0.00000
     67       4.9797      0.00000
     68       5.0926      0.00000
     69       5.4303      0.00000
     70       5.5088      0.00000
     71       5.5407      0.00000
     72       5.7696      0.00000
     73       5.9228      0.00000
     74       6.0131      0.00000
     75       6.1938      0.00000
     76       6.3926      0.00000
     77       6.4794      0.00000
     78       6.5783      0.00000
     79       6.6150      0.00000
     80       6.6354      0.00000

 k-point    10 :      -0.1667    0.2000    0.0000
  band No.  band energies     occupation 
      1     -39.5390      1.00000
      2     -39.5380      1.00000
      3     -39.5336      1.00000
      4     -39.5327      1.00000
      5     -29.0005      1.00000
      6     -28.9978      1.00000
      7     -28.9938      1.00000
      8     -28.9912      1.00000
      9     -19.7202      1.00000
     10     -19.7160      1.00000
     11     -19.7145      1.00000
     12     -19.7097      1.00000
     13     -19.7069      1.00000
     14     -19.6924      1.00000
     15     -19.6822      1.00000
     16     -19.6762      1.00000
     17     -19.6519      1.00000
     18     -19.6475      1.00000
     19     -19.6178      1.00000
     20     -19.6112      1.00000
     21     -11.8066      1.00000
     22     -11.8011      1.00000
     23     -11.7880      1.00000
     24     -11.7861      1.00000
     25     -11.7624      1.00000
     26     -11.7578      1.00000
     27     -11.7197      1.00000
     28     -11.7116      1.00000
     29     -11.6977      1.00000
     30     -11.6670      1.00000
     31     -11.6551      1.00000
     32     -11.6519      1.00000
     33      -8.2891      1.00000
     34      -7.8817      1.00000
     35      -7.4542      1.00000
     36      -6.9635      1.00000
     37      -6.7362      1.00000
     38      -6.7311      1.00000
     39      -6.6354      1.00000
     40      -6.5918      1.00000
     41      -2.9846      1.00000
     42      -2.4601      1.00000
     43      -1.4720      1.00000
     44      -1.2136      1.00000
     45      -0.6579      1.00000
     46      -0.3449      1.00000
     47      -0.2325      1.00000
     48      -0.1632      1.00000
     49      -0.1202      1.00000
     50       0.2708      1.00000
     51       0.6583      1.00000
     52       0.8444      1.00000
     53       1.0544      1.00000
     54       1.1762      1.00000
     55       1.1975      1.00000
     56       1.4590      1.00000
     57       1.5148      1.00000
     58       1.5533      1.00000
     59       1.6230      1.00000
     60       1.7580      1.00000
     61       1.8076      1.00000
     62       1.9376      1.00000
     63       2.0145      1.00000
     64       2.1009      1.00000
     65       4.7160      0.00000
     66       4.7399      0.00000
     67       4.8775      0.00000
     68       5.1023      0.00000
     69       5.2939      0.00000
     70       5.3766      0.00000
     71       5.5792      0.00000
     72       5.6646      0.00000
     73       5.8273      0.00000
     74       6.1196      0.00000
     75       6.2054      0.00000
     76       6.3264      0.00000
     77       6.3812      0.00000
     78       6.4651      0.00000
     79       6.5066      0.00000
     80       6.7246      0.00000

 k-point    11 :      -0.0000    0.4000   -0.0000
  band No.  band energies     occupation 
      1     -39.5387      1.00000
      2     -39.5383      1.00000
      3     -39.5334      1.00000
      4     -39.5329      1.00000
      5     -28.9999      1.00000
      6     -28.9988      1.00000
      7     -28.9928      1.00000
      8     -28.9917      1.00000
      9     -19.7200      1.00000
     10     -19.7186      1.00000
     11     -19.7126      1.00000
     12     -19.7107      1.00000
     13     -19.7023      1.00000
     14     -19.6972      1.00000
     15     -19.6792      1.00000
     16     -19.6772      1.00000
     17     -19.6510      1.00000
     18     -19.6493      1.00000
     19     -19.6155      1.00000
     20     -19.6130      1.00000
     21     -11.8027      1.00000
     22     -11.8019      1.00000
     23     -11.7874      1.00000
     24     -11.7868      1.00000
     25     -11.7623      1.00000
     26     -11.7604      1.00000
     27     -11.7175      1.00000
     28     -11.7153      1.00000
     29     -11.6876      1.00000
     30     -11.6768      1.00000
     31     -11.6530      1.00000
     32     -11.6521      1.00000
     33      -8.2158      1.00000
     34      -8.0673      1.00000
     35      -7.2635      1.00000
     36      -7.0831      1.00000
     37      -6.6997      1.00000
     38      -6.6984      1.00000
     39      -6.6317      1.00000
     40      -6.6122      1.00000
     41      -2.8284      1.00000
     42      -2.6402      1.00000
     43      -1.5089      1.00000
     44      -1.3870      1.00000
     45      -0.5148      1.00000
     46      -0.3869      1.00000
     47      -0.0850      1.00000
     48      -0.0433      1.00000
     49       0.0436      1.00000
     50       0.2469      1.00000
     51       0.5355      1.00000
     52       0.6339      1.00000
     53       1.0515      1.00000
     54       1.0924      1.00000
     55       1.2591      1.00000
     56       1.4047      1.00000
     57       1.4890      1.00000
     58       1.5808      1.00000
     59       1.6951      1.00000
     60       1.7629      1.00000
     61       1.7717      1.00000
     62       1.8623      1.00000
     63       2.0769      1.00000
     64       2.0913      1.00000
     65       4.8362      0.00000
     66       4.9765      0.00000
     67       4.9949      0.00000
     68       5.1933      0.00000
     69       5.2551      0.00000
     70       5.3525      0.00000
     71       5.5774      0.00000
     72       5.6531      0.00000
     73       5.7626      0.00000
     74       5.9699      0.00000
     75       6.2806      0.00000
     76       6.3656      0.00000
     77       6.4049      0.00000
     78       6.4196      0.00000
     79       6.5309      0.00000
     80       6.7385      0.00000

 k-point    12 :       0.1667    0.4000   -0.0000
  band No.  band energies     occupation 
      1     -39.5387      1.00000
      2     -39.5383      1.00000
      3     -39.5334      1.00000
      4     -39.5329      1.00000
      5     -28.9999      1.00000
      6     -28.9988      1.00000
      7     -28.9928      1.00000
      8     -28.9917      1.00000
      9     -19.7200      1.00000
     10     -19.7186      1.00000
     11     -19.7126      1.00000
     12     -19.7107      1.00000
     13     -19.7022      1.00000
     14     -19.6972      1.00000
     15     -19.6792      1.00000
     16     -19.6772      1.00000
     17     -19.6509      1.00000
     18     -19.6493      1.00000
     19     -19.6155      1.00000
     20     -19.6130      1.00000
     21     -11.8047      1.00000
     22     -11.8025      1.00000
     23     -11.7878      1.00000
     24     -11.7868      1.00000
     25     -11.7622      1.00000
     26     -11.7603      1.00000
     27     -11.7173      1.00000
     28     -11.7148      1.00000
     29     -11.6873      1.00000
     30     -11.6765      1.00000
     31     -11.6530      1.00000
     32     -11.6522      1.00000
     33      -8.1905      1.00000
     34      -8.0461      1.00000
     35      -7.2731      1.00000
     36      -7.0976      1.00000
     37      -6.7260      1.00000
     38      -6.7222      1.00000
     39      -6.6302      1.00000
     40      -6.6147      1.00000
     41      -2.8195      1.00000
     42      -2.6208      1.00000
     43      -1.4139      1.00000
     44      -1.3209      1.00000
     45      -0.5344      1.00000
     46      -0.3994      1.00000
     47      -0.1120      1.00000
     48      -0.0617      1.00000
     49       0.0284      1.00000
     50       0.2140      1.00000
     51       0.5763      1.00000
     52       0.6841      1.00000
     53       1.0499      1.00000
     54       1.0757      1.00000
     55       1.2627      1.00000
     56       1.4027      1.00000
     57       1.4754      1.00000
     58       1.4841      1.00000
     59       1.6732      1.00000
     60       1.7259      1.00000
     61       1.7546      1.00000
     62       1.8308      1.00000
     63       2.0431      1.00000
     64       2.0743      1.00000
     65       4.8638      0.00000
     66       4.9504      0.00000
     67       5.0072      0.00000
     68       5.1432      0.00000
     69       5.2916      0.00000
     70       5.3176      0.00000
     71       5.5781      0.00000
     72       5.6071      0.00000
     73       5.8823      0.00000
     74       6.0274      0.00000
     75       6.2909      0.00000
     76       6.3723      0.00000
     77       6.3920      0.00000
     78       6.4601      0.00000
     79       6.5964      0.00000
     80       6.7673      0.00000

 k-point    13 :       0.3333    0.4000    0.0000
  band No.  band energies     occupation 
      1     -39.5387      1.00000
      2     -39.5383      1.00000
      3     -39.5334      1.00000
      4     -39.5329      1.00000
      5     -28.9998      1.00000
      6     -28.9987      1.00000
      7     -28.9928      1.00000
      8     -28.9918      1.00000
      9     -19.7200      1.00000
     10     -19.7186      1.00000
     11     -19.7126      1.00000
     12     -19.7107      1.00000
     13     -19.7022      1.00000
     14     -19.6972      1.00000
     15     -19.6793      1.00000
     16     -19.6772      1.00000
     17     -19.6509      1.00000
     18     -19.6492      1.00000
     19     -19.6155      1.00000
     20     -19.6130      1.00000
     21     -11.8077      1.00000
     22     -11.8045      1.00000
     23     -11.7884      1.00000
     24     -11.7872      1.00000
     25     -11.7620      1.00000
     26     -11.7599      1.00000
     27     -11.7170      1.00000
     28     -11.7139      1.00000
     29     -11.6868      1.00000
     30     -11.6761      1.00000
     31     -11.6531      1.00000
     32     -11.6524      1.00000
     33      -8.1347      1.00000
     34      -8.0003      1.00000
     35      -7.3000      1.00000
     36      -7.1326      1.00000
     37      -6.7755      1.00000
     38      -6.7705      1.00000
     39      -6.6270      1.00000
     40      -6.6160      1.00000
     41      -2.8027      1.00000
     42      -2.5846      1.00000
     43      -1.1970      1.00000
     44      -1.1691      1.00000
     45      -0.5896      1.00000
     46      -0.4390      1.00000
     47      -0.1458      1.00000
     48      -0.0592      1.00000
     49       0.0170      1.00000
     50       0.1474      1.00000
     51       0.6345      1.00000
     52       0.7208      1.00000
     53       1.0058      1.00000
     54       1.0417      1.00000
     55       1.2138      1.00000
     56       1.2453      1.00000
     57       1.4584      1.00000
     58       1.4768      1.00000
     59       1.5774      1.00000
     60       1.6819      1.00000
     61       1.7281      1.00000
     62       1.8409      1.00000
     63       1.9836      1.00000
     64       2.0536      1.00000
     65       4.7684      0.00000
     66       4.9245      0.00000
     67       5.0525      0.00000
     68       5.1412      0.00000
     69       5.2999      0.00000
     70       5.3420      0.00000
     71       5.4974      0.00000
     72       5.7019      0.00000
     73       5.9461      0.00000
     74       6.0532      0.00000
     75       6.3625      0.00000
     76       6.4015      0.00000
     77       6.5453      0.00000
     78       6.5631      0.00000
     79       6.6256      0.00000
     80       6.7590      0.00000

 k-point    14 :       0.5000    0.4000    0.0000
  band No.  band energies     occupation 
      1     -39.5387      1.00000
      2     -39.5383      1.00000
      3     -39.5334      1.00000
      4     -39.5329      1.00000
      5     -28.9998      1.00000
      6     -28.9987      1.00000
      7     -28.9929      1.00000
      8     -28.9918      1.00000
      9     -19.7200      1.00000
     10     -19.7186      1.00000
     11     -19.7126      1.00000
     12     -19.7107      1.00000
     13     -19.7022      1.00000
     14     -19.6972      1.00000
     15     -19.6793      1.00000
     16     -19.6773      1.00000
     17     -19.6509      1.00000
     18     -19.6492      1.00000
     19     -19.6155      1.00000
     20     -19.6130      1.00000
     21     -11.8089      1.00000
     22     -11.8056      1.00000
     23     -11.7888      1.00000
     24     -11.7875      1.00000
     25     -11.7618      1.00000
     26     -11.7598      1.00000
     27     -11.7168      1.00000
     28     -11.7134      1.00000
     29     -11.6865      1.00000
     30     -11.6758      1.00000
     31     -11.6532      1.00000
     32     -11.6525      1.00000
     33      -8.1034      1.00000
     34      -7.9753      1.00000
     35      -7.3184      1.00000
     36      -7.1537      1.00000
     37      -6.7983      1.00000
     38      -6.7936      1.00000
     39      -6.6253      1.00000
     40      -6.6158      1.00000
     41      -2.7947      1.00000
     42      -2.5675      1.00000
     43      -1.0796      1.00000
     44      -1.0674      1.00000
     45      -0.6253      1.00000
     46      -0.4622      1.00000
     47      -0.1640      1.00000
     48      -0.0394      1.00000
     49       0.0145      1.00000
     50       0.1192      1.00000
     51       0.6247      1.00000
     52       0.7151      1.00000
     53       1.0104      1.00000
     54       1.0734      1.00000
     55       1.0799      1.00000
     56       1.1382      1.00000
     57       1.4221      1.00000
     58       1.4638      1.00000
     59       1.5934      1.00000
     60       1.7174      1.00000
     61       1.7353      1.00000
     62       1.8400      1.00000
     63       1.9467      1.00000
     64       2.0434      1.00000
     65       4.7199      0.00000
     66       4.8693      0.00000
     67       5.0033      0.00000
     68       5.2308      0.00000
     69       5.2943      0.00000
     70       5.3106      0.00000
     71       5.6441      0.00000
     72       5.7911      0.00000
     73       5.9198      0.00000
     74       5.9995      0.00000
     75       6.3672      0.00000
     76       6.3768      0.00000
     77       6.4889      0.00000
     78       6.5235      0.00000
     79       6.6584      0.00000
     80       6.7402      0.00000

 k-point    15 :      -0.3333    0.4000    0.0000
  band No.  band energies     occupation 
      1     -39.5387      1.00000
      2     -39.5383      1.00000
      3     -39.5334      1.00000
      4     -39.5329      1.00000
      5     -28.9998      1.00000
      6     -28.9987      1.00000
      7     -28.9928      1.00000
      8     -28.9918      1.00000
      9     -19.7200      1.00000
     10     -19.7186      1.00000
     11     -19.7126      1.00000
     12     -19.7107      1.00000
     13     -19.7022      1.00000
     14     -19.6972      1.00000
     15     -19.6793      1.00000
     16     -19.6772      1.00000
     17     -19.6509      1.00000
     18     -19.6492      1.00000
     19     -19.6155      1.00000
     20     -19.6130      1.00000
     21     -11.8076      1.00000
     22     -11.8045      1.00000
     23     -11.7883      1.00000
     24     -11.7873      1.00000
     25     -11.7620      1.00000
     26     -11.7599      1.00000
     27     -11.7170      1.00000
     28     -11.7138      1.00000
     29     -11.6868      1.00000
     30     -11.6761      1.00000
     31     -11.6532      1.00000
     32     -11.6524      1.00000
     33      -8.1347      1.00000
     34      -8.0003      1.00000
     35      -7.3000      1.00000
     36      -7.1326      1.00000
     37      -6.7757      1.00000
     38      -6.7703      1.00000
     39      -6.6270      1.00000
     40      -6.6160      1.00000
     41      -2.8026      1.00000
     42      -2.5846      1.00000
     43      -1.1971      1.00000
     44      -1.1689      1.00000
     45      -0.5895      1.00000
     46      -0.4391      1.00000
     47      -0.1456      1.00000
     48      -0.0590      1.00000
     49       0.0168      1.00000
     50       0.1472      1.00000
     51       0.6345      1.00000
     52       0.7209      1.00000
     53       1.0058      1.00000
     54       1.0419      1.00000
     55       1.2136      1.00000
     56       1.2453      1.00000
     57       1.4588      1.00000
     58       1.4765      1.00000
     59       1.5770      1.00000
     60       1.6821      1.00000
     61       1.7282      1.00000
     62       1.8407      1.00000
     63       1.9837      1.00000
     64       2.0535      1.00000
     65       4.7685      0.00000
     66       4.9243      0.00000
     67       5.0521      0.00000
     68       5.1410      0.00000
     69       5.3004      0.00000
     70       5.3420      0.00000
     71       5.4976      0.00000
     72       5.7015      0.00000
     73       5.9463      0.00000
     74       6.0531      0.00000
     75       6.3629      0.00000
     76       6.4015      0.00000
     77       6.5454      0.00000
     78       6.5635      0.00000
     79       6.6251      0.00000
     80       6.7605      0.00000

 k-point    16 :      -0.1667    0.4000    0.0000
  band No.  band energies     occupation 
      1     -39.5387      1.00000
      2     -39.5383      1.00000
      3     -39.5334      1.00000
      4     -39.5329      1.00000
      5     -28.9999      1.00000
      6     -28.9988      1.00000
      7     -28.9928      1.00000
      8     -28.9917      1.00000
      9     -19.7200      1.00000
     10     -19.7186      1.00000
     11     -19.7126      1.00000
     12     -19.7107      1.00000
     13     -19.7022      1.00000
     14     -19.6972      1.00000
     15     -19.6792      1.00000
     16     -19.6772      1.00000
     17     -19.6509      1.00000
     18     -19.6493      1.00000
     19     -19.6155      1.00000
     20     -19.6130      1.00000
     21     -11.8047      1.00000
     22     -11.8025      1.00000
     23     -11.7876      1.00000
     24     -11.7870      1.00000
     25     -11.7622      1.00000
     26     -11.7602      1.00000
     27     -11.7174      1.00000
     28     -11.7148      1.00000
     29     -11.6873      1.00000
     30     -11.6765      1.00000
     31     -11.6531      1.00000
     32     -11.6522      1.00000
     33      -8.1905      1.00000
     34      -8.0461      1.00000
     35      -7.2732      1.00000
     36      -7.0976      1.00000
     37      -6.7260      1.00000
     38      -6.7222      1.00000
     39      -6.6302      1.00000
     40      -6.6148      1.00000
     41      -2.8194      1.00000
     42      -2.6209      1.00000
     43      -1.4140      1.00000
     44      -1.3209      1.00000
     45      -0.5344      1.00000
     46      -0.3995      1.00000
     47      -0.1118      1.00000
     48      -0.0617      1.00000
     49       0.0283      1.00000
     50       0.2139      1.00000
     51       0.5763      1.00000
     52       0.6842      1.00000
     53       1.0497      1.00000
     54       1.0760      1.00000
     55       1.2629      1.00000
     56       1.4022      1.00000
     57       1.4751      1.00000
     58       1.4844      1.00000
     59       1.6731      1.00000
     60       1.7258      1.00000
     61       1.7550      1.00000
     62       1.8307      1.00000
     63       2.0432      1.00000
     64       2.0741      1.00000
     65       4.8637      0.00000
     66       4.9510      0.00000
     67       5.0070      0.00000
     68       5.1425      0.00000
     69       5.2909      0.00000
     70       5.3186      0.00000
     71       5.5781      0.00000
     72       5.6073      0.00000
     73       5.8822      0.00000
     74       6.0272      0.00000
     75       6.2914      0.00000
     76       6.3723      0.00000
     77       6.3925      0.00000
     78       6.4603      0.00000
     79       6.5962      0.00000
     80       6.7664      0.00000

 k-point    17 :      -0.0000   -0.0000    0.1667
  band No.  band energies     occupation 
      1     -39.5390      1.00000
      2     -39.5380      1.00000
      3     -39.5337      1.00000
      4     -39.5327      1.00000
      5     -29.0005      1.00000
      6     -28.9975      1.00000
      7     -28.9941      1.00000
      8     -28.9912      1.00000
      9     -19.7206      1.00000
     10     -19.7181      1.00000
     11     -19.7122      1.00000
     12     -19.7092      1.00000
     13     -19.7077      1.00000
     14     -19.6904      1.00000
     15     -19.6840      1.00000
     16     -19.6765      1.00000
     17     -19.6519      1.00000
     18     -19.6470      1.00000
     19     -19.6180      1.00000
     20     -19.6110      1.00000
     21     -11.8032      1.00000
     22     -11.8006      1.00000
     23     -11.7900      1.00000
     24     -11.7861      1.00000
     25     -11.7656      1.00000
     26     -11.7636      1.00000
     27     -11.7147      1.00000
     28     -11.7075      1.00000
     29     -11.7048      1.00000
     30     -11.6645      1.00000
     31     -11.6586      1.00000
     32     -11.6493      1.00000
     33      -8.3021      1.00000
     34      -7.7963      1.00000
     35      -7.5211      1.00000
     36      -6.8949      1.00000
     37      -6.7433      1.00000
     38      -6.7292      1.00000
     39      -6.7066      1.00000
     40      -6.6048      1.00000
     41      -2.9188      1.00000
     42      -2.2888      1.00000
     43      -1.6258      1.00000
     44      -1.2506      1.00000
     45      -0.7144      1.00000
     46      -0.5813      1.00000
     47      -0.2574      1.00000
     48      -0.0826      1.00000
     49      -0.0578      1.00000
     50       0.3246      1.00000
     51       0.7267      1.00000
     52       0.8075      1.00000
     53       1.0429      1.00000
     54       1.1826      1.00000
     55       1.1897      1.00000
     56       1.3534      1.00000
     57       1.5293      1.00000
     58       1.6910      1.00000
     59       1.7672      1.00000
     60       1.7751      1.00000
     61       1.8908      1.00000
     62       1.9035      1.00000
     63       1.9538      1.00000
     64       2.0521      1.00000
     65       4.5861      0.00000
     66       4.6135      0.00000
     67       4.9165      0.00000
     68       4.9652      0.00000
     69       5.4307      0.00000
     70       5.5254      0.00000
     71       5.6370      0.00000
     72       5.7312      0.00000
     73       5.7503      0.00000
     74       6.1249      0.00000
     75       6.1514      0.00000
     76       6.1815      0.00000
     77       6.2315      0.00000
     78       6.3745      0.00000
     79       6.4517      0.00000
     80       6.5966      0.00000

 k-point    18 :       0.1667    0.0000    0.1667
  band No.  band energies     occupation 
      1     -39.5390      1.00000
      2     -39.5380      1.00000
      3     -39.5337      1.00000
      4     -39.5327      1.00000
      5     -29.0004      1.00000
      6     -28.9975      1.00000
      7     -28.9941      1.00000
      8     -28.9912      1.00000
      9     -19.7206      1.00000
     10     -19.7181      1.00000
     11     -19.7122      1.00000
     12     -19.7092      1.00000
     13     -19.7077      1.00000
     14     -19.6904      1.00000
     15     -19.6841      1.00000
     16     -19.6765      1.00000
     17     -19.6519      1.00000
     18     -19.6470      1.00000
     19     -19.6180      1.00000
     20     -19.6110      1.00000
     21     -11.8065      1.00000
     22     -11.7994      1.00000
     23     -11.7897      1.00000
     24     -11.7874      1.00000
     25     -11.7656      1.00000
     26     -11.7625      1.00000
     27     -11.7154      1.00000
     28     -11.7071      1.00000
     29     -11.7041      1.00000
     30     -11.6647      1.00000
     31     -11.6588      1.00000
     32     -11.6488      1.00000
     33      -8.2602      1.00000
     34      -7.7871      1.00000
     35      -7.5274      1.00000
     36      -6.9328      1.00000
     37      -6.7449      1.00000
     38      -6.7326      1.00000
     39      -6.7151      1.00000
     40      -6.6363      1.00000
     41      -2.9094      1.00000
     42      -2.2215      1.00000
     43      -1.4736      1.00000
     44      -1.2563      1.00000
     45      -0.8080      1.00000
     46      -0.5629      1.00000
     47      -0.1900      1.00000
     48      -0.1316      1.00000
     49      -0.0482      1.00000
     50       0.3404      1.00000
     51       0.7442      1.00000
     52       0.8240      1.00000
     53       1.0263      1.00000
     54       1.1759      1.00000
     55       1.1967      1.00000
     56       1.3479      1.00000
     57       1.3812      1.00000
     58       1.6399      1.00000
     59       1.6690      1.00000
     60       1.7497      1.00000
     61       1.8531      1.00000
     62       1.9109      1.00000
     63       1.9657      1.00000
     64       1.9686      1.00000
     65       4.5877      0.00000
     66       4.7523      0.00000
     67       4.7882      0.00000
     68       4.9024      0.00000
     69       5.4817      0.00000
     70       5.5703      0.00000
     71       5.7573      0.00000
     72       5.7855      0.00000
     73       5.9195      0.00000
     74       5.9693      0.00000
     75       6.1030      0.00000
     76       6.2878      0.00000
     77       6.2915      0.00000
     78       6.4057      0.00000
     79       6.5608      0.00000
     80       6.7510      0.00000

 k-point    19 :       0.3333    0.0000    0.1667
  band No.  band energies     occupation 
      1     -39.5390      1.00000
      2     -39.5380      1.00000
      3     -39.5337      1.00000
      4     -39.5327      1.00000
      5     -29.0004      1.00000
      6     -28.9974      1.00000
      7     -28.9942      1.00000
      8     -28.9913      1.00000
      9     -19.7206      1.00000
     10     -19.7181      1.00000
     11     -19.7122      1.00000
     12     -19.7092      1.00000
     13     -19.7077      1.00000
     14     -19.6904      1.00000
     15     -19.6841      1.00000
     16     -19.6766      1.00000
     17     -19.6518      1.00000
     18     -19.6470      1.00000
     19     -19.6180      1.00000
     20     -19.6110      1.00000
     21     -11.8097      1.00000
     22     -11.7999      1.00000
     23     -11.7916      1.00000
     24     -11.7870      1.00000
     25     -11.7653      1.00000
     26     -11.7621      1.00000
     27     -11.7159      1.00000
     28     -11.7062      1.00000
     29     -11.7033      1.00000
     30     -11.6650      1.00000
     31     -11.6587      1.00000
     32     -11.6486      1.00000
     33      -8.1988      1.00000
     34      -7.7608      1.00000
     35      -7.5431      1.00000
     36      -6.9675      1.00000
     37      -6.7833      1.00000
     38      -6.7755      1.00000
     39      -6.7120      1.00000
     40      -6.6406      1.00000
     41      -2.9094      1.00000
     42      -2.1695      1.00000
     43      -1.3296      1.00000
     44      -1.2147      1.00000
     45      -0.7891      1.00000
     46      -0.5506      1.00000
     47      -0.1448      1.00000
     48      -0.1329      1.00000
     49      -0.0194      1.00000
     50       0.3707      1.00000
     51       0.6937      1.00000
     52       0.7932      1.00000
     53       1.0544      1.00000
     54       1.1074      1.00000
     55       1.1113      1.00000
     56       1.2078      1.00000
     57       1.3487      1.00000
     58       1.5825      1.00000
     59       1.6849      1.00000
     60       1.7453      1.00000
     61       1.7696      1.00000
     62       1.8445      1.00000
     63       1.8995      1.00000
     64       2.0037      1.00000
     65       4.4197      0.00000
     66       4.7042      0.00000
     67       4.8412      0.00000
     68       5.1271      0.00000
     69       5.5271      0.00000
     70       5.6180      0.00000
     71       5.6848      0.00000
     72       5.8185      0.00000
     73       5.9424      0.00000
     74       6.0372      0.00000
     75       6.0505      0.00000
     76       6.4206      0.00000
     77       6.4367      0.00000
     78       6.6068      0.00000
     79       6.7064      0.00000
     80       6.7396      0.00000

 k-point    20 :       0.5000   -0.0000    0.1667
  band No.  band energies     occupation 
      1     -39.5390      1.00000
      2     -39.5380      1.00000
      3     -39.5337      1.00000
      4     -39.5327      1.00000
      5     -29.0004      1.00000
      6     -28.9974      1.00000
      7     -28.9942      1.00000
      8     -28.9913      1.00000
      9     -19.7206      1.00000
     10     -19.7181      1.00000
     11     -19.7122      1.00000
     12     -19.7092      1.00000
     13     -19.7077      1.00000
     14     -19.6904      1.00000
     15     -19.6842      1.00000
     16     -19.6766      1.00000
     17     -19.6518      1.00000
     18     -19.6470      1.00000
     19     -19.6180      1.00000
     20     -19.6110      1.00000
     21     -11.8107      1.00000
     22     -11.8004      1.00000
     23     -11.7926      1.00000
     24     -11.7864      1.00000
     25     -11.7651      1.00000
     26     -11.7626      1.00000
     27     -11.7158      1.00000
     28     -11.7057      1.00000
     29     -11.7030      1.00000
     30     -11.6651      1.00000
     31     -11.6585      1.00000
     32     -11.6489      1.00000
     33      -8.1840      1.00000
     34      -7.7429      1.00000
     35      -7.5447      1.00000
     36      -6.9734      1.00000
     37      -6.8218      1.00000
     38      -6.7869      1.00000
     39      -6.7145      1.00000
     40      -6.6212      1.00000
     41      -2.9165      1.00000
     42      -2.1913      1.00000
     43      -1.3476      1.00000
     44      -1.1871      1.00000
     45      -0.6955      1.00000
     46      -0.5261      1.00000
     47      -0.1887      1.00000
     48      -0.0927      1.00000
     49       0.0732      1.00000
     50       0.3954      1.00000
     51       0.7021      1.00000
     52       0.7176      1.00000
     53       0.9230      1.00000
     54       1.0661      1.00000
     55       1.0773      1.00000
     56       1.2394      1.00000
     57       1.3764      1.00000
     58       1.5397      1.00000
     59       1.6574      1.00000
     60       1.7219      1.00000
     61       1.7899      1.00000
     62       1.8172      1.00000
     63       1.9520      1.00000
     64       2.0122      1.00000
     65       4.4057      0.00000
     66       4.6852      0.00000
     67       4.8709      0.00000
     68       5.3478      0.00000
     69       5.4715      0.00000
     70       5.5016      0.00000
     71       5.5420      0.00000
     72       5.7503      0.00000
     73       5.9899      0.00000
     74       6.0602      0.00000
     75       6.0891      0.00000
     76       6.4485      0.00000
     77       6.4858      0.00000
     78       6.5381      0.00000
     79       6.7261      0.00000
     80       6.7483      0.00000

 k-point    21 :      -0.3333   -0.0000    0.1667
  band No.  band energies     occupation 
      1     -39.5390      1.00000
      2     -39.5380      1.00000
      3     -39.5337      1.00000
      4     -39.5327      1.00000
      5     -29.0004      1.00000
      6     -28.9974      1.00000
      7     -28.9942      1.00000
      8     -28.9913      1.00000
      9     -19.7205      1.00000
     10     -19.7181      1.00000
     11     -19.7122      1.00000
     12     -19.7092      1.00000
     13     -19.7077      1.00000
     14     -19.6904      1.00000
     15     -19.6841      1.00000
     16     -19.6766      1.00000
     17     -19.6518      1.00000
     18     -19.6470      1.00000
     19     -19.6181      1.00000
     20     -19.6110      1.00000
     21     -11.8092      1.00000
     22     -11.7996      1.00000
     23     -11.7924      1.00000
     24     -11.7856      1.00000
     25     -11.7652      1.00000
     26     -11.7637      1.00000
     27     -11.7152      1.00000
     28     -11.7060      1.00000
     29     -11.7035      1.00000
     30     -11.6649      1.00000
     31     -11.6583      1.00000
     32     -11.6494      1.00000
     33      -8.2343      1.00000
     34      -7.7534      1.00000
     35      -7.5272      1.00000
     36      -6.9367      1.00000
     37      -6.8146      1.00000
     38      -6.7635      1.00000
     39      -6.7232      1.00000
     40      -6.5998      1.00000
     41      -2.9248      1.00000
     42      -2.2579      1.00000
     43      -1.3956      1.00000
     44      -1.3063      1.00000
     45      -0.6067      1.00000
     46      -0.5805      1.00000
     47      -0.2513      1.00000
     48      -0.0543      1.00000
     49       0.0583      1.00000
     50       0.3916      1.00000
     51       0.7603      1.00000
     52       0.8636      1.00000
     53       0.9038      1.00000
     54       1.0736      1.00000
     55       1.1009      1.00000
     56       1.2654      1.00000
     57       1.3708      1.00000
     58       1.5425      1.00000
     59       1.7011      1.00000
     60       1.7035      1.00000
     61       1.8288      1.00000
     62       1.8293      1.00000
     63       2.0314      1.00000
     64       2.0560      1.00000
     65       4.5789      0.00000
     66       4.6022      0.00000
     67       4.9451      0.00000
     68       5.1441      0.00000
     69       5.3714      0.00000
     70       5.4758      0.00000
     71       5.6722      0.00000
     72       5.6873      0.00000
     73       5.8574      0.00000
     74       5.9351      0.00000
     75       6.0943      0.00000
     76       6.3896      0.00000
     77       6.4375      0.00000
     78       6.5675      0.00000
     79       6.6791      0.00000
     80       6.7226      0.00000

 k-point    22 :      -0.1667   -0.0000    0.1667
  band No.  band energies     occupation 
      1     -39.5390      1.00000
      2     -39.5380      1.00000
      3     -39.5337      1.00000
      4     -39.5327      1.00000
      5     -29.0004      1.00000
      6     -28.9975      1.00000
      7     -28.9941      1.00000
      8     -28.9912      1.00000
      9     -19.7206      1.00000
     10     -19.7181      1.00000
     11     -19.7123      1.00000
     12     -19.7092      1.00000
     13     -19.7077      1.00000
     14     -19.6904      1.00000
     15     -19.6841      1.00000
     16     -19.6765      1.00000
     17     -19.6519      1.00000
     18     -19.6470      1.00000
     19     -19.6180      1.00000
     20     -19.6110      1.00000
     21     -11.8057      1.00000
     22     -11.7996      1.00000
     23     -11.7913      1.00000
     24     -11.7851      1.00000
     25     -11.7654      1.00000
     26     -11.7642      1.00000
     27     -11.7147      1.00000
     28     -11.7069      1.00000
     29     -11.7045      1.00000
     30     -11.6646      1.00000
     31     -11.6583      1.00000
     32     -11.6496      1.00000
     33      -8.2904      1.00000
     34      -7.7803      1.00000
     35      -7.5202      1.00000
     36      -6.8920      1.00000
     37      -6.7750      1.00000
     38      -6.7319      1.00000
     39      -6.7268      1.00000
     40      -6.5902      1.00000
     41      -2.9272      1.00000
     42      -2.3037      1.00000
     43      -1.5815      1.00000
     44      -1.2830      1.00000
     45      -0.6003      1.00000
     46      -0.5998      1.00000
     47      -0.2681      1.00000
     48      -0.0896      1.00000
     49      -0.0278      1.00000
     50       0.3507      1.00000
     51       0.7740      1.00000
     52       0.8014      1.00000
     53       1.0592      1.00000
     54       1.1339      1.00000
     55       1.1922      1.00000
     56       1.2914      1.00000
     57       1.4579      1.00000
     58       1.6514      1.00000
     59       1.7058      1.00000
     60       1.8207      1.00000
     61       1.8376      1.00000
     62       1.8622      1.00000
     63       2.0026      1.00000
     64       2.1010      1.00000
     65       4.5844      0.00000
     66       4.6299      0.00000
     67       4.9408      0.00000
     68       5.0982      0.00000
     69       5.3631      0.00000
     70       5.3913      0.00000
     71       5.5003      0.00000
     72       5.7231      0.00000
     73       5.7846      0.00000
     74       6.1218      0.00000
     75       6.1732      0.00000
     76       6.2301      0.00000
     77       6.3146      0.00000
     78       6.5028      0.00000
     79       6.5832      0.00000
     80       6.6219      0.00000

 k-point    23 :       0.0000    0.2000    0.1667
  band No.  band energies     occupation 
      1     -39.5389      1.00000
      2     -39.5381      1.00000
      3     -39.5336      1.00000
      4     -39.5328      1.00000
      5     -29.0003      1.00000
      6     -28.9979      1.00000
      7     -28.9936      1.00000
      8     -28.9914      1.00000
      9     -19.7207      1.00000
     10     -19.7176      1.00000
     11     -19.7139      1.00000
     12     -19.7095      1.00000
     13     -19.7052      1.00000
     14     -19.6925      1.00000
     15     -19.6823      1.00000
     16     -19.6768      1.00000
     17     -19.6516      1.00000
     18     -19.6476      1.00000
     19     -19.6172      1.00000
     20     -19.6116      1.00000
     21     -11.8032      1.00000
     22     -11.8007      1.00000
     23     -11.7896      1.00000
     24     -11.7868      1.00000
     25     -11.7669      1.00000
     26     -11.7614      1.00000
     27     -11.7182      1.00000
     28     -11.7108      1.00000
     29     -11.6966      1.00000
     30     -11.6684      1.00000
     31     -11.6563      1.00000
     32     -11.6498      1.00000
     33      -8.2680      1.00000
     34      -7.8854      1.00000
     35      -7.4278      1.00000
     36      -6.9541      1.00000
     37      -6.7319      1.00000
     38      -6.7208      1.00000
     39      -6.7015      1.00000
     40      -6.6193      1.00000
     41      -2.8563      1.00000
     42      -2.3516      1.00000
     43      -1.5964      1.00000
     44      -1.3054      1.00000
     45      -0.6605      1.00000
     46      -0.5040      1.00000
     47      -0.2177      1.00000
     48      -0.1589      1.00000
     49       0.0478      1.00000
     50       0.2990      1.00000
     51       0.6734      1.00000
     52       0.7893      1.00000
     53       0.9957      1.00000
     54       1.1378      1.00000
     55       1.1917      1.00000
     56       1.4067      1.00000
     57       1.5194      1.00000
     58       1.6298      1.00000
     59       1.6738      1.00000
     60       1.7778      1.00000
     61       1.8317      1.00000
     62       1.9496      1.00000
     63       1.9548      1.00000
     64       2.0389      1.00000
     65       4.6430      0.00000
     66       4.7430      0.00000
     67       4.8963      0.00000
     68       5.1351      0.00000
     69       5.3927      0.00000
     70       5.4616      0.00000
     71       5.6162      0.00000
     72       5.6910      0.00000
     73       5.7889      0.00000
     74       6.0998      0.00000
     75       6.1181      0.00000
     76       6.1872      0.00000
     77       6.2662      0.00000
     78       6.4796      0.00000
     79       6.5722      0.00000
     80       6.6315      0.00000

 k-point    24 :       0.1667    0.2000    0.1667
  band No.  band energies     occupation 
      1     -39.5389      1.00000
      2     -39.5381      1.00000
      3     -39.5336      1.00000
      4     -39.5328      1.00000
      5     -29.0003      1.00000
      6     -28.9979      1.00000
      7     -28.9937      1.00000
      8     -28.9914      1.00000
      9     -19.7207      1.00000
     10     -19.7176      1.00000
     11     -19.7139      1.00000
     12     -19.7095      1.00000
     13     -19.7052      1.00000
     14     -19.6926      1.00000
     15     -19.6823      1.00000
     16     -19.6768      1.00000
     17     -19.6516      1.00000
     18     -19.6476      1.00000
     19     -19.6172      1.00000
     20     -19.6116      1.00000
     21     -11.8062      1.00000
     22     -11.8001      1.00000
     23     -11.7895      1.00000
     24     -11.7877      1.00000
     25     -11.7668      1.00000
     26     -11.7608      1.00000
     27     -11.7182      1.00000
     28     -11.7104      1.00000
     29     -11.6962      1.00000
     30     -11.6685      1.00000
     31     -11.6565      1.00000
     32     -11.6495      1.00000
     33      -8.2277      1.00000
     34      -7.8684      1.00000
     35      -7.4411      1.00000
     36      -6.9892      1.00000
     37      -6.7444      1.00000
     38      -6.7218      1.00000
     39      -6.7058      1.00000
     40      -6.6482      1.00000
     41      -2.8452      1.00000
     42      -2.2967      1.00000
     43      -1.4486      1.00000
     44      -1.2734      1.00000
     45      -0.7458      1.00000
     46      -0.5069      1.00000
     47      -0.2209      1.00000
     48      -0.1392      1.00000
     49       0.0500      1.00000
     50       0.2791      1.00000
     51       0.6620      1.00000
     52       0.8819      1.00000
     53       0.9946      1.00000
     54       1.0605      1.00000
     55       1.2231      1.00000
     56       1.3760      1.00000
     57       1.4125      1.00000
     58       1.5688      1.00000
     59       1.6635      1.00000
     60       1.7494      1.00000
     61       1.7802      1.00000
     62       1.8947      1.00000
     63       1.9498      1.00000
     64       1.9914      1.00000
     65       4.6455      0.00000
     66       4.8094      0.00000
     67       4.8791      0.00000
     68       5.0197      0.00000
     69       5.3654      0.00000
     70       5.5234      0.00000
     71       5.6900      0.00000
     72       5.8276      0.00000
     73       5.9144      0.00000
     74       6.0316      0.00000
     75       6.1311      0.00000
     76       6.1892      0.00000
     77       6.3606      0.00000
     78       6.4495      0.00000
     79       6.5793      0.00000
     80       6.7389      0.00000

 k-point    25 :       0.3333    0.2000    0.1667
  band No.  band energies     occupation 
      1     -39.5389      1.00000
      2     -39.5381      1.00000
      3     -39.5336      1.00000
      4     -39.5328      1.00000
      5     -29.0002      1.00000
      6     -28.9978      1.00000
      7     -28.9937      1.00000
      8     -28.9914      1.00000
      9     -19.7207      1.00000
     10     -19.7176      1.00000
     11     -19.7139      1.00000
     12     -19.7095      1.00000
     13     -19.7052      1.00000
     14     -19.6926      1.00000
     15     -19.6824      1.00000
     16     -19.6769      1.00000
     17     -19.6515      1.00000
     18     -19.6476      1.00000
     19     -19.6172      1.00000
     20     -19.6116      1.00000
     21     -11.8093      1.00000
     22     -11.8013      1.00000
     23     -11.7909      1.00000
     24     -11.7874      1.00000
     25     -11.7665      1.00000
     26     -11.7604      1.00000
     27     -11.7186      1.00000
     28     -11.7093      1.00000
     29     -11.6957      1.00000
     30     -11.6684      1.00000
     31     -11.6567      1.00000
     32     -11.6493      1.00000
     33      -8.1684      1.00000
     34      -7.8371      1.00000
     35      -7.4599      1.00000
     36      -7.0218      1.00000
     37      -6.7896      1.00000
     38      -6.7674      1.00000
     39      -6.6998      1.00000
     40      -6.6480      1.00000
     41      -2.8437      1.00000
     42      -2.2581      1.00000
     43      -1.2752      1.00000
     44      -1.2044      1.00000
     45      -0.7509      1.00000
     46      -0.4919      1.00000
     47      -0.2569      1.00000
     48      -0.0404      1.00000
     49       0.0232      1.00000
     50       0.2686      1.00000
     51       0.6248      1.00000
     52       0.8367      1.00000
     53       0.9856      1.00000
     54       1.0582      1.00000
     55       1.1236      1.00000
     56       1.2439      1.00000
     57       1.4310      1.00000
     58       1.5635      1.00000
     59       1.6230      1.00000
     60       1.6650      1.00000
     61       1.7815      1.00000
     62       1.8538      1.00000
     63       1.9064      1.00000
     64       1.9881      1.00000
     65       4.4918      0.00000
     66       4.7922      0.00000
     67       4.8874      0.00000
     68       5.1521      0.00000
     69       5.3995      0.00000
     70       5.5268      0.00000
     71       5.6427      0.00000
     72       5.8437      0.00000
     73       5.9491      0.00000
     74       6.0544      0.00000
     75       6.1778      0.00000
     76       6.3647      0.00000
     77       6.4924      0.00000
     78       6.5781      0.00000
     79       6.6521      0.00000
     80       6.6900      0.00000

 k-point    26 :       0.5000    0.2000    0.1667
  band No.  band energies     occupation 
      1     -39.5389      1.00000
      2     -39.5381      1.00000
      3     -39.5336      1.00000
      4     -39.5328      1.00000
      5     -29.0002      1.00000
      6     -28.9978      1.00000
      7     -28.9937      1.00000
      8     -28.9915      1.00000
      9     -19.7207      1.00000
     10     -19.7176      1.00000
     11     -19.7139      1.00000
     12     -19.7095      1.00000
     13     -19.7052      1.00000
     14     -19.6926      1.00000
     15     -19.6824      1.00000
     16     -19.6769      1.00000
     17     -19.6515      1.00000
     18     -19.6476      1.00000
     19     -19.6172      1.00000
     20     -19.6116      1.00000
     21     -11.8102      1.00000
     22     -11.8020      1.00000
     23     -11.7917      1.00000
     24     -11.7870      1.00000
     25     -11.7663      1.00000
     26     -11.7605      1.00000
     27     -11.7188      1.00000
     28     -11.7088      1.00000
     29     -11.6954      1.00000
     30     -11.6682      1.00000
     31     -11.6566      1.00000
     32     -11.6496      1.00000
     33      -8.1538      1.00000
     34      -7.8226      1.00000
     35      -7.4583      1.00000
     36      -7.0235      1.00000
     37      -6.8192      1.00000
     38      -6.7899      1.00000
     39      -6.7020      1.00000
     40      -6.6309      1.00000
     41      -2.8511      1.00000
     42      -2.2763      1.00000
     43      -1.2821      1.00000
     44      -1.1754      1.00000
     45      -0.6691      1.00000
     46      -0.4692      1.00000
     47      -0.2365      1.00000
     48      -0.0620      1.00000
     49       0.0707      1.00000
     50       0.3058      1.00000
     51       0.6182      1.00000
     52       0.7567      1.00000
     53       0.9436      1.00000
     54       1.0586      1.00000
     55       1.0773      1.00000
     56       1.1993      1.00000
     57       1.4319      1.00000
     58       1.5365      1.00000
     59       1.5933      1.00000
     60       1.6709      1.00000
     61       1.7914      1.00000
     62       1.8626      1.00000
     63       1.9473      1.00000
     64       1.9856      1.00000
     65       4.4919      0.00000
     66       4.7585      0.00000
     67       4.8954      0.00000
     68       5.3261      0.00000
     69       5.3764      0.00000
     70       5.4210      0.00000
     71       5.6558      0.00000
     72       5.6804      0.00000
     73       5.9392      0.00000
     74       5.9899      0.00000
     75       6.1745      0.00000
     76       6.4263      0.00000
     77       6.5283      0.00000
     78       6.5633      0.00000
     79       6.6700      0.00000
     80       6.7868      0.00000

 k-point    27 :      -0.3333    0.2000    0.1667
  band No.  band energies     occupation 
      1     -39.5389      1.00000
      2     -39.5381      1.00000
      3     -39.5336      1.00000
      4     -39.5328      1.00000
      5     -29.0002      1.00000
      6     -28.9979      1.00000
      7     -28.9937      1.00000
      8     -28.9914      1.00000
      9     -19.7207      1.00000
     10     -19.7176      1.00000
     11     -19.7139      1.00000
     12     -19.7095      1.00000
     13     -19.7052      1.00000
     14     -19.6925      1.00000
     15     -19.6824      1.00000
     16     -19.6769      1.00000
     17     -19.6515      1.00000
     18     -19.6476      1.00000
     19     -19.6173      1.00000
     20     -19.6116      1.00000
     21     -11.8087      1.00000
     22     -11.8011      1.00000
     23     -11.7915      1.00000
     24     -11.7864      1.00000
     25     -11.7665      1.00000
     26     -11.7611      1.00000
     27     -11.7188      1.00000
     28     -11.7092      1.00000
     29     -11.6957      1.00000
     30     -11.6682      1.00000
     31     -11.6563      1.00000
     32     -11.6499      1.00000
     33      -8.2022      1.00000
     34      -7.8411      1.00000
     35      -7.4347      1.00000
     36      -6.9863      1.00000
     37      -6.8071      1.00000
     38      -6.7673      1.00000
     39      -6.7106      1.00000
     40      -6.6146      1.00000
     41      -2.8608      1.00000
     42      -2.3280      1.00000
     43      -1.3678      1.00000
     44      -1.2968      1.00000
     45      -0.5955      1.00000
     46      -0.4888      1.00000
     47      -0.2284      1.00000
     48      -0.0902      1.00000
     49       0.0556      1.00000
     50       0.3551      1.00000
     51       0.6787      1.00000
     52       0.7455      1.00000
     53       0.9721      1.00000
     54       1.0601      1.00000
     55       1.1725      1.00000
     56       1.2562      1.00000
     57       1.3997      1.00000
     58       1.5494      1.00000
     59       1.6344      1.00000
     60       1.6584      1.00000
     61       1.7979      1.00000
     62       1.8913      1.00000
     63       1.9926      1.00000
     64       2.0398      1.00000
     65       4.6440      0.00000
     66       4.6986      0.00000
     67       4.9668      0.00000
     68       5.1637      0.00000
     69       5.3233      0.00000
     70       5.4487      0.00000
     71       5.5365      0.00000
     72       5.6851      0.00000
     73       5.9017      0.00000
     74       5.9630      0.00000
     75       6.1204      0.00000
     76       6.3647      0.00000
     77       6.5142      0.00000
     78       6.6138      0.00000
     79       6.6861      0.00000
     80       6.7604      0.00000

 k-point    28 :      -0.1667    0.2000    0.1667
  band No.  band energies     occupation 
      1     -39.5389      1.00000
      2     -39.5381      1.00000
      3     -39.5336      1.00000
      4     -39.5328      1.00000
      5     -29.0002      1.00000
      6     -28.9979      1.00000
      7     -28.9937      1.00000
      8     -28.9914      1.00000
      9     -19.7207      1.00000
     10     -19.7176      1.00000
     11     -19.7139      1.00000
     12     -19.7096      1.00000
     13     -19.7052      1.00000
     14     -19.6925      1.00000
     15     -19.6823      1.00000
     16     -19.6768      1.00000
     17     -19.6516      1.00000
     18     -19.6476      1.00000
     19     -19.6173      1.00000
     20     -19.6116      1.00000
     21     -11.8053      1.00000
     22     -11.8004      1.00000
     23     -11.7906      1.00000
     24     -11.7860      1.00000
     25     -11.7669      1.00000
     26     -11.7616      1.00000
     27     -11.7185      1.00000
     28     -11.7102      1.00000
     29     -11.6963      1.00000
     30     -11.6682      1.00000
     31     -11.6562      1.00000
     32     -11.6501      1.00000
     33      -8.2565      1.00000
     34      -7.8725      1.00000
     35      -7.4237      1.00000
     36      -6.9495      1.00000
     37      -6.7649      1.00000
     38      -6.7254      1.00000
     39      -6.7188      1.00000
     40      -6.6066      1.00000
     41      -2.8646      1.00000
     42      -2.3646      1.00000
     43      -1.5545      1.00000
     44      -1.3179      1.00000
     45      -0.6039      1.00000
     46      -0.4596      1.00000
     47      -0.2368      1.00000
     48      -0.1587      1.00000
     49       0.0359      1.00000
     50       0.3370      1.00000
     51       0.6927      1.00000
     52       0.7479      1.00000
     53       1.0218      1.00000
     54       1.0800      1.00000
     55       1.2354      1.00000
     56       1.3637      1.00000
     57       1.4617      1.00000
     58       1.6242      1.00000
     59       1.6513      1.00000
     60       1.7597      1.00000
     61       1.8036      1.00000
     62       1.9147      1.00000
     63       2.0050      1.00000
     64       2.0594      1.00000
     65       4.6475      0.00000
     66       4.7277      0.00000
     67       4.9286      0.00000
     68       5.1770      0.00000
     69       5.3522      0.00000
     70       5.3987      0.00000
     71       5.4881      0.00000
     72       5.6719      0.00000
     73       5.7824      0.00000
     74       6.1183      0.00000
     75       6.1225      0.00000
     76       6.3247      0.00000
     77       6.4493      0.00000
     78       6.5249      0.00000
     79       6.6037      0.00000
     80       6.6447      0.00000

 k-point    29 :       0.0000    0.4000    0.1667
  band No.  band energies     occupation 
      1     -39.5387      1.00000
      2     -39.5383      1.00000
      3     -39.5334      1.00000
      4     -39.5330      1.00000
      5     -28.9998      1.00000
      6     -28.9987      1.00000
      7     -28.9928      1.00000
      8     -28.9918      1.00000
      9     -19.7201      1.00000
     10     -19.7186      1.00000
     11     -19.7134      1.00000
     12     -19.7112      1.00000
     13     -19.7009      1.00000
     14     -19.6965      1.00000
     15     -19.6798      1.00000
     16     -19.6779      1.00000
     17     -19.6507      1.00000
     18     -19.6491      1.00000
     19     -19.6153      1.00000
     20     -19.6132      1.00000
     21     -11.8026      1.00000
     22     -11.8015      1.00000
     23     -11.7889      1.00000
     24     -11.7881      1.00000
     25     -11.7655      1.00000
     26     -11.7619      1.00000
     27     -11.7191      1.00000
     28     -11.7153      1.00000
     29     -11.6856      1.00000
     30     -11.6760      1.00000
     31     -11.6534      1.00000
     32     -11.6513      1.00000
     33      -8.1728      1.00000
     34      -8.0353      1.00000
     35      -7.2617      1.00000
     36      -7.0918      1.00000
     37      -6.7142      1.00000
     38      -6.7053      1.00000
     39      -6.6898      1.00000
     40      -6.6544      1.00000
     41      -2.6976      1.00000
     42      -2.5073      1.00000
     43      -1.5213      1.00000
     44      -1.4163      1.00000
     45      -0.5448      1.00000
     46      -0.4282      1.00000
     47      -0.1947      1.00000
     48      -0.1022      1.00000
     49       0.1444      1.00000
     50       0.2814      1.00000
     51       0.5572      1.00000
     52       0.6049      1.00000
     53       1.0442      1.00000
     54       1.1449      1.00000
     55       1.2169      1.00000
     56       1.3532      1.00000
     57       1.4320      1.00000
     58       1.4934      1.00000
     59       1.7076      1.00000
     60       1.7714      1.00000
     61       1.8194      1.00000
     62       1.8795      1.00000
     63       1.9810      1.00000
     64       2.0226      1.00000
     65       4.7862      0.00000
     66       4.8672      0.00000
     67       5.0379      0.00000
     68       5.2211      0.00000
     69       5.3665      0.00000
     70       5.4091      0.00000
     71       5.5890      0.00000
     72       5.6289      0.00000
     73       5.8609      0.00000
     74       5.9888      0.00000
     75       6.1304      0.00000
     76       6.1521      0.00000
     77       6.4439      0.00000
     78       6.4761      0.00000
     79       6.6071      0.00000
     80       6.7156      0.00000

 k-point    30 :       0.1667    0.4000    0.1667
  band No.  band energies     occupation 
      1     -39.5387      1.00000
      2     -39.5383      1.00000
      3     -39.5334      1.00000
      4     -39.5330      1.00000
      5     -28.9998      1.00000
      6     -28.9987      1.00000
      7     -28.9929      1.00000
      8     -28.9919      1.00000
      9     -19.7201      1.00000
     10     -19.7186      1.00000
     11     -19.7134      1.00000
     12     -19.7112      1.00000
     13     -19.7009      1.00000
     14     -19.6965      1.00000
     15     -19.6798      1.00000
     16     -19.6779      1.00000
     17     -19.6507      1.00000
     18     -19.6491      1.00000
     19     -19.6153      1.00000
     20     -19.6132      1.00000
     21     -11.8049      1.00000
     22     -11.8024      1.00000
     23     -11.7889      1.00000
     24     -11.7882      1.00000
     25     -11.7654      1.00000
     26     -11.7617      1.00000
     27     -11.7186      1.00000
     28     -11.7146      1.00000
     29     -11.6854      1.00000
     30     -11.6760      1.00000
     31     -11.6536      1.00000
     32     -11.6513      1.00000
     33      -8.1370      1.00000
     34      -8.0076      1.00000
     35      -7.2846      1.00000
     36      -7.1220      1.00000
     37      -6.7320      1.00000
     38      -6.7166      1.00000
     39      -6.6909      1.00000
     40      -6.6725      1.00000
     41      -2.6794      1.00000
     42      -2.4740      1.00000
     43      -1.3925      1.00000
     44      -1.3266      1.00000
     45      -0.5993      1.00000
     46      -0.4551      1.00000
     47      -0.2461      1.00000
     48      -0.0986      1.00000
     49       0.1423      1.00000
     50       0.2284      1.00000
     51       0.5795      1.00000
     52       0.6793      1.00000
     53       1.0925      1.00000
     54       1.1070      1.00000
     55       1.1532      1.00000
     56       1.2862      1.00000
     57       1.4376      1.00000
     58       1.4696      1.00000
     59       1.7171      1.00000
     60       1.7276      1.00000
     61       1.7744      1.00000
     62       1.8279      1.00000
     63       1.9355      1.00000
     64       1.9723      1.00000
     65       4.8013      0.00000
     66       4.8814      0.00000
     67       5.0017      0.00000
     68       5.1262      0.00000
     69       5.3141      0.00000
     70       5.4721      0.00000
     71       5.6390      0.00000
     72       5.7548      0.00000
     73       5.9802      0.00000
     74       6.0766      0.00000
     75       6.1205      0.00000
     76       6.1429      0.00000
     77       6.3809      0.00000
     78       6.4558      0.00000
     79       6.6416      0.00000
     80       6.7042      0.00000

 k-point    31 :       0.3333    0.4000    0.1667
  band No.  band energies     occupation 
      1     -39.5387      1.00000
      2     -39.5383      1.00000
      3     -39.5334      1.00000
      4     -39.5330      1.00000
      5     -28.9997      1.00000
      6     -28.9987      1.00000
      7     -28.9929      1.00000
      8     -28.9919      1.00000
      9     -19.7201      1.00000
     10     -19.7186      1.00000
     11     -19.7134      1.00000
     12     -19.7112      1.00000
     13     -19.7009      1.00000
     14     -19.6965      1.00000
     15     -19.6798      1.00000
     16     -19.6779      1.00000
     17     -19.6506      1.00000
     18     -19.6491      1.00000
     19     -19.6153      1.00000
     20     -19.6132      1.00000
     21     -11.8076      1.00000
     22     -11.8045      1.00000
     23     -11.7895      1.00000
     24     -11.7882      1.00000
     25     -11.7651      1.00000
     26     -11.7614      1.00000
     27     -11.7185      1.00000
     28     -11.7139      1.00000
     29     -11.6849      1.00000
     30     -11.6755      1.00000
     31     -11.6537      1.00000
     32     -11.6513      1.00000
     33      -8.0841      1.00000
     34      -7.9648      1.00000
     35      -7.3100      1.00000
     36      -7.1520      1.00000
     37      -6.7833      1.00000
     38      -6.7695      1.00000
     39      -6.6814      1.00000
     40      -6.6637      1.00000
     41      -2.6723      1.00000
     42      -2.4547      1.00000
     43      -1.2097      1.00000
     44      -1.1916      1.00000
     45      -0.6183      1.00000
     46      -0.4384      1.00000
     47      -0.3006      1.00000
     48      -0.0875      1.00000
     49       0.1336      1.00000
     50       0.1767      1.00000
     51       0.5570      1.00000
     52       0.6482      1.00000
     53       1.0268      1.00000
     54       1.0491      1.00000
     55       1.1838      1.00000
     56       1.2391      1.00000
     57       1.4523      1.00000
     58       1.4918      1.00000
     59       1.5952      1.00000
     60       1.6744      1.00000
     61       1.7179      1.00000
     62       1.8520      1.00000
     63       1.9108      1.00000
     64       1.9610      1.00000
     65       4.6948      0.00000
     66       4.8985      0.00000
     67       4.9506      0.00000
     68       5.1411      0.00000
     69       5.2184      0.00000
     70       5.4059      0.00000
     71       5.6296      0.00000
     72       5.8188      0.00000
     73       6.0163      0.00000
     74       6.1076      0.00000
     75       6.2365      0.00000
     76       6.3693      0.00000
     77       6.4659      0.00000
     78       6.5264      0.00000
     79       6.6212      0.00000
     80       6.6715      0.00000

 k-point    32 :       0.5000    0.4000    0.1667
  band No.  band energies     occupation 
      1     -39.5387      1.00000
      2     -39.5383      1.00000
      3     -39.5334      1.00000
      4     -39.5330      1.00000
      5     -28.9997      1.00000
      6     -28.9986      1.00000
      7     -28.9929      1.00000
      8     -28.9920      1.00000
      9     -19.7201      1.00000
     10     -19.7186      1.00000
     11     -19.7134      1.00000
     12     -19.7112      1.00000
     13     -19.7009      1.00000
     14     -19.6965      1.00000
     15     -19.6799      1.00000
     16     -19.6780      1.00000
     17     -19.6506      1.00000
     18     -19.6491      1.00000
     19     -19.6153      1.00000
     20     -19.6132      1.00000
     21     -11.8085      1.00000
     22     -11.8054      1.00000
     23     -11.7900      1.00000
     24     -11.7883      1.00000
     25     -11.7648      1.00000
     26     -11.7611      1.00000
     27     -11.7188      1.00000
     28     -11.7139      1.00000
     29     -11.6845      1.00000
     30     -11.6752      1.00000
     31     -11.6537      1.00000
     32     -11.6514      1.00000
     33      -8.0702      1.00000
     34      -7.9513      1.00000
     35      -7.3074      1.00000
     36      -7.1502      1.00000
     37      -6.8082      1.00000
     38      -6.7945      1.00000
     39      -6.6810      1.00000
     40      -6.6548      1.00000
     41      -2.6811      1.00000
     42      -2.4672      1.00000
     43      -1.1892      1.00000
     44      -1.1615      1.00000
     45      -0.5603      1.00000
     46      -0.3876      1.00000
     47      -0.3048      1.00000
     48      -0.1077      1.00000
     49       0.0963      1.00000
     50       0.2153      1.00000
     51       0.5630      1.00000
     52       0.6468      1.00000
     53       1.0268      1.00000
     54       1.0539      1.00000
     55       1.0797      1.00000
     56       1.1398      1.00000
     57       1.4575      1.00000
     58       1.5071      1.00000
     59       1.5931      1.00000
     60       1.6866      1.00000
     61       1.7157      1.00000
     62       1.8553      1.00000
     63       1.9420      1.00000
     64       1.9689      1.00000
     65       4.7265      0.00000
     66       4.8672      0.00000
     67       4.9745      0.00000
     68       5.1987      0.00000
     69       5.2695      0.00000
     70       5.2909      0.00000
     71       5.4978      0.00000
     72       5.6501      0.00000
     73       5.9810      0.00000
     74       6.0395      0.00000
     75       6.3897      0.00000
     76       6.4228      0.00000
     77       6.4838      0.00000
     78       6.5619      0.00000
     79       6.6343      0.00000
     80       6.7106      0.00000

 k-point    33 :      -0.3333    0.4000    0.1667
  band No.  band energies     occupation 
      1     -39.5387      1.00000
      2     -39.5383      1.00000
      3     -39.5334      1.00000
      4     -39.5330      1.00000
      5     -28.9997      1.00000
      6     -28.9987      1.00000
      7     -28.9929      1.00000
      8     -28.9919      1.00000
      9     -19.7201      1.00000
     10     -19.7186      1.00000
     11     -19.7134      1.00000
     12     -19.7112      1.00000
     13     -19.7009      1.00000
     14     -19.6965      1.00000
     15     -19.6798      1.00000
     16     -19.6779      1.00000
     17     -19.6506      1.00000
     18     -19.6491      1.00000
     19     -19.6153      1.00000
     20     -19.6132      1.00000
     21     -11.8070      1.00000
     22     -11.8042      1.00000
     23     -11.7898      1.00000
     24     -11.7880      1.00000
     25     -11.7649      1.00000
     26     -11.7613      1.00000
     27     -11.7193      1.00000
     28     -11.7145      1.00000
     29     -11.6847      1.00000
     30     -11.6752      1.00000
     31     -11.6536      1.00000
     32     -11.6514      1.00000
     33      -8.1123      1.00000
     34      -7.9830      1.00000
     35      -7.2755      1.00000
     36      -7.1136      1.00000
     37      -6.7881      1.00000
     38      -6.7715      1.00000
     39      -6.6872      1.00000
     40      -6.6506      1.00000
     41      -2.6967      1.00000
     42      -2.4966      1.00000
     43      -1.3224      1.00000
     44      -1.2945      1.00000
     45      -0.4851      1.00000
     46      -0.3515      1.00000
     47      -0.2532      1.00000
     48      -0.1491      1.00000
     49       0.0859      1.00000
     50       0.2451      1.00000
     51       0.5589      1.00000
     52       0.6555      1.00000
     53       1.0329      1.00000
     54       1.0379      1.00000
     55       1.1995      1.00000
     56       1.2229      1.00000
     57       1.4958      1.00000
     58       1.5668      1.00000
     59       1.5745      1.00000
     60       1.6710      1.00000
     61       1.7062      1.00000
     62       1.8396      1.00000
     63       1.9869      1.00000
     64       2.0140      1.00000
     65       4.8054      0.00000
     66       4.9032      0.00000
     67       5.0024      0.00000
     68       5.2154      0.00000
     69       5.2239      0.00000
     70       5.3415      0.00000
     71       5.4165      0.00000
     72       5.4880      0.00000
     73       5.9146      0.00000
     74       6.0417      0.00000
     75       6.3054      0.00000
     76       6.3685      0.00000
     77       6.5275      0.00000
     78       6.5685      0.00000
     79       6.6830      0.00000
     80       6.7843      0.00000

 k-point    34 :      -0.1667    0.4000    0.1667
  band No.  band energies     occupation 
      1     -39.5387      1.00000
      2     -39.5383      1.00000
      3     -39.5334      1.00000
      4     -39.5330      1.00000
      5     -28.9998      1.00000
      6     -28.9987      1.00000
      7     -28.9929      1.00000
      8     -28.9919      1.00000
      9     -19.7201      1.00000
     10     -19.7186      1.00000
     11     -19.7134      1.00000
     12     -19.7112      1.00000
     13     -19.7009      1.00000
     14     -19.6965      1.00000
     15     -19.6798      1.00000
     16     -19.6779      1.00000
     17     -19.6506      1.00000
     18     -19.6491      1.00000
     19     -19.6153      1.00000
     20     -19.6132      1.00000
     21     -11.8041      1.00000
     22     -11.8023      1.00000
     23     -11.7893      1.00000
     24     -11.7877      1.00000
     25     -11.7652      1.00000
     26     -11.7617      1.00000
     27     -11.7195      1.00000
     28     -11.7152      1.00000
     29     -11.6853      1.00000
     30     -11.6757      1.00000
     31     -11.6534      1.00000
     32     -11.6514      1.00000
     33      -8.1615      1.00000
     34      -8.0240      1.00000
     35      -7.2558      1.00000
     36      -7.0858      1.00000
     37      -6.7440      1.00000
     38      -6.7265      1.00000
     39      -6.6908      1.00000
     40      -6.6468      1.00000
     41      -2.7060      1.00000
     42      -2.5173      1.00000
     43      -1.4877      1.00000
     44      -1.4003      1.00000
     45      -0.4959      1.00000
     46      -0.3360      1.00000
     47      -0.2377      1.00000
     48      -0.1344      1.00000
     49       0.1172      1.00000
     50       0.2913      1.00000
     51       0.5177      1.00000
     52       0.5957      1.00000
     53       1.0483      1.00000
     54       1.1098      1.00000
     55       1.2523      1.00000
     56       1.3480      1.00000
     57       1.4539      1.00000
     58       1.5414      1.00000
     59       1.6969      1.00000
     60       1.7364      1.00000
     61       1.7532      1.00000
     62       1.8479      1.00000
     63       2.0105      1.00000
     64       2.0299      1.00000
     65       4.7753      0.00000
     66       4.8691      0.00000
     67       5.0100      0.00000
     68       5.2152      0.00000
     69       5.3441      0.00000
     70       5.3571      0.00000
     71       5.4517      0.00000
     72       5.5566      0.00000
     73       5.8784      0.00000
     74       6.0059      0.00000
     75       6.1790      0.00000
     76       6.3030      0.00000
     77       6.5410      0.00000
     78       6.5926      0.00000
     79       6.6287      0.00000
     80       6.6930      0.00000

 k-point    35 :      -0.0000   -0.4000    0.1667
  band No.  band energies     occupation 
      1     -39.5387      1.00000
      2     -39.5383      1.00000
      3     -39.5334      1.00000
      4     -39.5330      1.00000
      5     -28.9998      1.00000
      6     -28.9987      1.00000
      7     -28.9928      1.00000
      8     -28.9918      1.00000
      9     -19.7202      1.00000
     10     -19.7185      1.00000
     11     -19.7135      1.00000
     12     -19.7112      1.00000
     13     -19.7008      1.00000
     14     -19.6965      1.00000
     15     -19.6798      1.00000
     16     -19.6778      1.00000
     17     -19.6506      1.00000
     18     -19.6491      1.00000
     19     -19.6153      1.00000
     20     -19.6132      1.00000
     21     -11.8027      1.00000
     22     -11.8014      1.00000
     23     -11.7890      1.00000
     24     -11.7880      1.00000
     25     -11.7648      1.00000
     26     -11.7625      1.00000
     27     -11.7188      1.00000
     28     -11.7156      1.00000
     29     -11.6858      1.00000
     30     -11.6757      1.00000
     31     -11.6537      1.00000
     32     -11.6512      1.00000
     33      -8.1728      1.00000
     34      -8.0352      1.00000
     35      -7.2617      1.00000
     36      -7.0918      1.00000
     37      -6.7144      1.00000
     38      -6.7053      1.00000
     39      -6.6897      1.00000
     40      -6.6545      1.00000
     41      -2.6976      1.00000
     42      -2.5074      1.00000
     43      -1.5216      1.00000
     44      -1.4160      1.00000
     45      -0.5450      1.00000
     46      -0.4278      1.00000
     47      -0.1949      1.00000
     48      -0.1020      1.00000
     49       0.1440      1.00000
     50       0.2815      1.00000
     51       0.5573      1.00000
     52       0.6049      1.00000
     53       1.0438      1.00000
     54       1.1453      1.00000
     55       1.2172      1.00000
     56       1.3529      1.00000
     57       1.4325      1.00000
     58       1.4929      1.00000
     59       1.7073      1.00000
     60       1.7714      1.00000
     61       1.8192      1.00000
     62       1.8801      1.00000
     63       1.9813      1.00000
     64       2.0222      1.00000
     65       4.7865      0.00000
     66       4.8666      0.00000
     67       5.0386      0.00000
     68       5.2203      0.00000
     69       5.3668      0.00000
     70       5.4094      0.00000
     71       5.5888      0.00000
     72       5.6292      0.00000
     73       5.8611      0.00000
     74       5.9888      0.00000
     75       6.1307      0.00000
     76       6.1518      0.00000
     77       6.4432      0.00000
     78       6.4763      0.00000
     79       6.6056      0.00000
     80       6.7157      0.00000

 k-point    36 :       0.1667   -0.4000    0.1667
  band No.  band energies     occupation 
      1     -39.5387      1.00000
      2     -39.5383      1.00000
      3     -39.5334      1.00000
      4     -39.5330      1.00000
      5     -28.9998      1.00000
      6     -28.9987      1.00000
      7     -28.9929      1.00000
      8     -28.9919      1.00000
      9     -19.7202      1.00000
     10     -19.7185      1.00000
     11     -19.7135      1.00000
     12     -19.7112      1.00000
     13     -19.7009      1.00000
     14     -19.6965      1.00000
     15     -19.6798      1.00000
     16     -19.6778      1.00000
     17     -19.6506      1.00000
     18     -19.6491      1.00000
     19     -19.6153      1.00000
     20     -19.6132      1.00000
     21     -11.8049      1.00000
     22     -11.8023      1.00000
     23     -11.7890      1.00000
     24     -11.7881      1.00000
     25     -11.7649      1.00000
     26     -11.7624      1.00000
     27     -11.7183      1.00000
     28     -11.7149      1.00000
     29     -11.6856      1.00000
     30     -11.6757      1.00000
     31     -11.6539      1.00000
     32     -11.6511      1.00000
     33      -8.1371      1.00000
     34      -8.0075      1.00000
     35      -7.2846      1.00000
     36      -7.1220      1.00000
     37      -6.7327      1.00000
     38      -6.7156      1.00000
     39      -6.6908      1.00000
     40      -6.6727      1.00000
     41      -2.6793      1.00000
     42      -2.4740      1.00000
     43      -1.3930      1.00000
     44      -1.3262      1.00000
     45      -0.5993      1.00000
     46      -0.4548      1.00000
     47      -0.2462      1.00000
     48      -0.0984      1.00000
     49       0.1418      1.00000
     50       0.2285      1.00000
     51       0.5797      1.00000
     52       0.6794      1.00000
     53       1.0930      1.00000
     54       1.1067      1.00000
     55       1.1531      1.00000
     56       1.2864      1.00000
     57       1.4380      1.00000
     58       1.4692      1.00000
     59       1.7168      1.00000
     60       1.7282      1.00000
     61       1.7739      1.00000
     62       1.8281      1.00000
     63       1.9358      1.00000
     64       1.9721      1.00000
     65       4.8005      0.00000
     66       4.8821      0.00000
     67       5.0022      0.00000
     68       5.1256      0.00000
     69       5.3137      0.00000
     70       5.4725      0.00000
     71       5.6392      0.00000
     72       5.7546      0.00000
     73       5.9804      0.00000
     74       6.0767      0.00000
     75       6.1203      0.00000
     76       6.1434      0.00000
     77       6.3799      0.00000
     78       6.4565      0.00000
     79       6.6409      0.00000
     80       6.7052      0.00000

 k-point    37 :       0.3333   -0.4000    0.1667
  band No.  band energies     occupation 
      1     -39.5387      1.00000
      2     -39.5383      1.00000
      3     -39.5334      1.00000
      4     -39.5330      1.00000
      5     -28.9997      1.00000
      6     -28.9987      1.00000
      7     -28.9929      1.00000
      8     -28.9919      1.00000
      9     -19.7202      1.00000
     10     -19.7185      1.00000
     11     -19.7135      1.00000
     12     -19.7112      1.00000
     13     -19.7009      1.00000
     14     -19.6965      1.00000
     15     -19.6799      1.00000
     16     -19.6779      1.00000
     17     -19.6506      1.00000
     18     -19.6491      1.00000
     19     -19.6153      1.00000
     20     -19.6132      1.00000
     21     -11.8077      1.00000
     22     -11.8045      1.00000
     23     -11.7896      1.00000
     24     -11.7881      1.00000
     25     -11.7646      1.00000
     26     -11.7620      1.00000
     27     -11.7181      1.00000
     28     -11.7142      1.00000
     29     -11.6851      1.00000
     30     -11.6752      1.00000
     31     -11.6540      1.00000
     32     -11.6511      1.00000
     33      -8.0842      1.00000
     34      -7.9648      1.00000
     35      -7.3100      1.00000
     36      -7.1520      1.00000
     37      -6.7841      1.00000
     38      -6.7685      1.00000
     39      -6.6814      1.00000
     40      -6.6638      1.00000
     41      -2.6723      1.00000
     42      -2.4548      1.00000
     43      -1.2103      1.00000
     44      -1.1910      1.00000
     45      -0.6182      1.00000
     46      -0.4384      1.00000
     47      -0.3006      1.00000
     48      -0.0875      1.00000
     49       0.1335      1.00000
     50       0.1765      1.00000
     51       0.5573      1.00000
     52       0.6482      1.00000
     53       1.0268      1.00000
     54       1.0492      1.00000
     55       1.1833      1.00000
     56       1.2398      1.00000
     57       1.4519      1.00000
     58       1.4920      1.00000
     59       1.5953      1.00000
     60       1.6742      1.00000
     61       1.7176      1.00000
     62       1.8522      1.00000
     63       1.9108      1.00000
     64       1.9610      1.00000
     65       4.6947      0.00000
     66       4.8987      0.00000
     67       4.9503      0.00000
     68       5.1410      0.00000
     69       5.2189      0.00000
     70       5.4056      0.00000
     71       5.6301      0.00000
     72       5.8182      0.00000
     73       6.0162      0.00000
     74       6.1079      0.00000
     75       6.2364      0.00000
     76       6.3693      0.00000
     77       6.4658      0.00000
     78       6.5264      0.00000
     79       6.6207      0.00000
     80       6.6723      0.00000

 k-point    38 :       0.5000   -0.4000    0.1667
  band No.  band energies     occupation 
      1     -39.5387      1.00000
      2     -39.5383      1.00000
      3     -39.5334      1.00000
      4     -39.5330      1.00000
      5     -28.9997      1.00000
      6     -28.9986      1.00000
      7     -28.9929      1.00000
      8     -28.9919      1.00000
      9     -19.7202      1.00000
     10     -19.7185      1.00000
     11     -19.7135      1.00000
     12     -19.7112      1.00000
     13     -19.7009      1.00000
     14     -19.6965      1.00000
     15     -19.6799      1.00000
     16     -19.6779      1.00000
     17     -19.6506      1.00000
     18     -19.6491      1.00000
     19     -19.6153      1.00000
     20     -19.6132      1.00000
     21     -11.8086      1.00000
     22     -11.8053      1.00000
     23     -11.7901      1.00000
     24     -11.7882      1.00000
     25     -11.7643      1.00000
     26     -11.7618      1.00000
     27     -11.7185      1.00000
     28     -11.7142      1.00000
     29     -11.6847      1.00000
     30     -11.6749      1.00000
     31     -11.6540      1.00000
     32     -11.6512      1.00000
     33      -8.0703      1.00000
     34      -7.9513      1.00000
     35      -7.3074      1.00000
     36      -7.1503      1.00000
     37      -6.8089      1.00000
     38      -6.7937      1.00000
     39      -6.6810      1.00000
     40      -6.6549      1.00000
     41      -2.6811      1.00000
     42      -2.4672      1.00000
     43      -1.1894      1.00000
     44      -1.1612      1.00000
     45      -0.5602      1.00000
     46      -0.3877      1.00000
     47      -0.3047      1.00000
     48      -0.1077      1.00000
     49       0.0961      1.00000
     50       0.2154      1.00000
     51       0.5633      1.00000
     52       0.6467      1.00000
     53       1.0270      1.00000
     54       1.0538      1.00000
     55       1.0798      1.00000
     56       1.1396      1.00000
     57       1.4573      1.00000
     58       1.5074      1.00000
     59       1.5929      1.00000
     60       1.6865      1.00000
     61       1.7156      1.00000
     62       1.8556      1.00000
     63       1.9420      1.00000
     64       1.9689      1.00000
     65       4.7266      0.00000
     66       4.8670      0.00000
     67       4.9743      0.00000
     68       5.1991      0.00000
     69       5.2696      0.00000
     70       5.2903      0.00000
     71       5.4981      0.00000
     72       5.6499      0.00000
     73       5.9808      0.00000
     74       6.0396      0.00000
     75       6.3899      0.00000
     76       6.4234      0.00000
     77       6.4837      0.00000
     78       6.5616      0.00000
     79       6.6355      0.00000
     80       6.7188      0.00000

 k-point    39 :      -0.3333   -0.4000    0.1667
  band No.  band energies     occupation 
      1     -39.5387      1.00000
      2     -39.5383      1.00000
      3     -39.5334      1.00000
      4     -39.5330      1.00000
      5     -28.9997      1.00000
      6     -28.9987      1.00000
      7     -28.9929      1.00000
      8     -28.9919      1.00000
      9     -19.7202      1.00000
     10     -19.7185      1.00000
     11     -19.7135      1.00000
     12     -19.7112      1.00000
     13     -19.7009      1.00000
     14     -19.6965      1.00000
     15     -19.6799      1.00000
     16     -19.6779      1.00000
     17     -19.6506      1.00000
     18     -19.6491      1.00000
     19     -19.6153      1.00000
     20     -19.6132      1.00000
     21     -11.8071      1.00000
     22     -11.8041      1.00000
     23     -11.7899      1.00000
     24     -11.7879      1.00000
     25     -11.7643      1.00000
     26     -11.7620      1.00000
     27     -11.7190      1.00000
     28     -11.7148      1.00000
     29     -11.6849      1.00000
     30     -11.6749      1.00000
     31     -11.6539      1.00000
     32     -11.6512      1.00000
     33      -8.1124      1.00000
     34      -7.9829      1.00000
     35      -7.2754      1.00000
     36      -7.1137      1.00000
     37      -6.7886      1.00000
     38      -6.7710      1.00000
     39      -6.6872      1.00000
     40      -6.6507      1.00000
     41      -2.6967      1.00000
     42      -2.4966      1.00000
     43      -1.3227      1.00000
     44      -1.2943      1.00000
     45      -0.4850      1.00000
     46      -0.3518      1.00000
     47      -0.2528      1.00000
     48      -0.1490      1.00000
     49       0.0854      1.00000
     50       0.2453      1.00000
     51       0.5589      1.00000
     52       0.6556      1.00000
     53       1.0331      1.00000
     54       1.0376      1.00000
     55       1.2004      1.00000
     56       1.2222      1.00000
     57       1.4960      1.00000
     58       1.5666      1.00000
     59       1.5746      1.00000
     60       1.6706      1.00000
     61       1.7059      1.00000
     62       1.8402      1.00000
     63       1.9870      1.00000
     64       2.0140      1.00000
     65       4.8048      0.00000
     66       4.9038      0.00000
     67       5.0029      0.00000
     68       5.2151      0.00000
     69       5.2239      0.00000
     70       5.3415      0.00000
     71       5.4159      0.00000
     72       5.4884      0.00000
     73       5.9141      0.00000
     74       6.0420      0.00000
     75       6.3061      0.00000
     76       6.3688      0.00000
     77       6.5274      0.00000
     78       6.5678      0.00000
     79       6.6821      0.00000
     80       6.7806      0.00000

 k-point    40 :      -0.1667   -0.4000    0.1667
  band No.  band energies     occupation 
      1     -39.5387      1.00000
      2     -39.5383      1.00000
      3     -39.5334      1.00000
      4     -39.5330      1.00000
      5     -28.9998      1.00000
      6     -28.9987      1.00000
      7     -28.9929      1.00000
      8     -28.9919      1.00000
      9     -19.7202      1.00000
     10     -19.7185      1.00000
     11     -19.7135      1.00000
     12     -19.7112      1.00000
     13     -19.7009      1.00000
     14     -19.6965      1.00000
     15     -19.6798      1.00000
     16     -19.6778      1.00000
     17     -19.6506      1.00000
     18     -19.6491      1.00000
     19     -19.6153      1.00000
     20     -19.6132      1.00000
     21     -11.8043      1.00000
     22     -11.8021      1.00000
     23     -11.7894      1.00000
     24     -11.7876      1.00000
     25     -11.7646      1.00000
     26     -11.7624      1.00000
     27     -11.7192      1.00000
     28     -11.7155      1.00000
     29     -11.6855      1.00000
     30     -11.6754      1.00000
     31     -11.6537      1.00000
     32     -11.6512      1.00000
     33      -8.1616      1.00000
     34      -8.0239      1.00000
     35      -7.2558      1.00000
     36      -7.0859      1.00000
     37      -6.7442      1.00000
     38      -6.7264      1.00000
     39      -6.6908      1.00000
     40      -6.6468      1.00000
     41      -2.7060      1.00000
     42      -2.5173      1.00000
     43      -1.4879      1.00000
     44      -1.4001      1.00000
     45      -0.4960      1.00000
     46      -0.3357      1.00000
     47      -0.2379      1.00000
     48      -0.1343      1.00000
     49       0.1168      1.00000
     50       0.2915      1.00000
     51       0.5176      1.00000
     52       0.5958      1.00000
     53       1.0480      1.00000
     54       1.1100      1.00000
     55       1.2525      1.00000
     56       1.3482      1.00000
     57       1.4542      1.00000
     58       1.5411      1.00000
     59       1.6964      1.00000
     60       1.7362      1.00000
     61       1.7533      1.00000
     62       1.8485      1.00000
     63       2.0108      1.00000
     64       2.0297      1.00000
     65       4.7756      0.00000
     66       4.8686      0.00000
     67       5.0105      0.00000
     68       5.2152      0.00000
     69       5.3443      0.00000
     70       5.3570      0.00000
     71       5.4517      0.00000
     72       5.5564      0.00000
     73       5.8783      0.00000
     74       6.0061      0.00000
     75       6.1793      0.00000
     76       6.3023      0.00000
     77       6.5417      0.00000
     78       6.5920      0.00000
     79       6.6282      0.00000
     80       6.6959      0.00000

 k-point    41 :      -0.0000   -0.2000    0.1667
  band No.  band energies     occupation 
      1     -39.5389      1.00000
      2     -39.5381      1.00000
      3     -39.5336      1.00000
      4     -39.5328      1.00000
      5     -29.0003      1.00000
      6     -28.9979      1.00000
      7     -28.9936      1.00000
      8     -28.9913      1.00000
      9     -19.7207      1.00000
     10     -19.7174      1.00000
     11     -19.7141      1.00000
     12     -19.7095      1.00000
     13     -19.7051      1.00000
     14     -19.6925      1.00000
     15     -19.6824      1.00000
     16     -19.6768      1.00000
     17     -19.6516      1.00000
     18     -19.6477      1.00000
     19     -19.6172      1.00000
     20     -19.6116      1.00000
     21     -11.8033      1.00000
     22     -11.8007      1.00000
     23     -11.7896      1.00000
     24     -11.7867      1.00000
     25     -11.7664      1.00000
     26     -11.7621      1.00000
     27     -11.7178      1.00000
     28     -11.7111      1.00000
     29     -11.6967      1.00000
     30     -11.6681      1.00000
     31     -11.6566      1.00000
     32     -11.6497      1.00000
     33      -8.2681      1.00000
     34      -7.8853      1.00000
     35      -7.4278      1.00000
     36      -6.9541      1.00000
     37      -6.7321      1.00000
     38      -6.7206      1.00000
     39      -6.7014      1.00000
     40      -6.6193      1.00000
     41      -2.8563      1.00000
     42      -2.3516      1.00000
     43      -1.5967      1.00000
     44      -1.3052      1.00000
     45      -0.6606      1.00000
     46      -0.5036      1.00000
     47      -0.2174      1.00000
     48      -0.1596      1.00000
     49       0.0476      1.00000
     50       0.2988      1.00000
     51       0.6734      1.00000
     52       0.7896      1.00000
     53       0.9955      1.00000
     54       1.1381      1.00000
     55       1.1916      1.00000
     56       1.4069      1.00000
     57       1.5194      1.00000
     58       1.6293      1.00000
     59       1.6736      1.00000
     60       1.7777      1.00000
     61       1.8321      1.00000
     62       1.9498      1.00000
     63       1.9550      1.00000
     64       2.0387      1.00000
     65       4.6435      0.00000
     66       4.7422      0.00000
     67       4.8962      0.00000
     68       5.1352      0.00000
     69       5.3924      0.00000
     70       5.4621      0.00000
     71       5.6161      0.00000
     72       5.6914      0.00000
     73       5.7890      0.00000
     74       6.1004      0.00000
     75       6.1180      0.00000
     76       6.1867      0.00000
     77       6.2651      0.00000
     78       6.4795      0.00000
     79       6.5729      0.00000
     80       6.6328      0.00000

 k-point    42 :       0.1667   -0.2000    0.1667
  band No.  band energies     occupation 
      1     -39.5389      1.00000
      2     -39.5381      1.00000
      3     -39.5336      1.00000
      4     -39.5328      1.00000
      5     -29.0003      1.00000
      6     -28.9979      1.00000
      7     -28.9937      1.00000
      8     -28.9914      1.00000
      9     -19.7207      1.00000
     10     -19.7174      1.00000
     11     -19.7141      1.00000
     12     -19.7095      1.00000
     13     -19.7051      1.00000
     14     -19.6926      1.00000
     15     -19.6824      1.00000
     16     -19.6768      1.00000
     17     -19.6515      1.00000
     18     -19.6477      1.00000
     19     -19.6172      1.00000
     20     -19.6116      1.00000
     21     -11.8063      1.00000
     22     -11.8001      1.00000
     23     -11.7895      1.00000
     24     -11.7876      1.00000
     25     -11.7663      1.00000
     26     -11.7614      1.00000
     27     -11.7179      1.00000
     28     -11.7106      1.00000
     29     -11.6964      1.00000
     30     -11.6682      1.00000
     31     -11.6568      1.00000
     32     -11.6494      1.00000
     33      -8.2277      1.00000
     34      -7.8684      1.00000
     35      -7.4412      1.00000
     36      -6.9892      1.00000
     37      -6.7450      1.00000
     38      -6.7209      1.00000
     39      -6.7060      1.00000
     40      -6.6483      1.00000
     41      -2.8451      1.00000
     42      -2.2968      1.00000
     43      -1.4489      1.00000
     44      -1.2732      1.00000
     45      -0.7457      1.00000
     46      -0.5067      1.00000
     47      -0.2212      1.00000
     48      -0.1389      1.00000
     49       0.0496      1.00000
     50       0.2790      1.00000
     51       0.6622      1.00000
     52       0.8822      1.00000
     53       0.9945      1.00000
     54       1.0607      1.00000
     55       1.2229      1.00000
     56       1.3764      1.00000
     57       1.4123      1.00000
     58       1.5687      1.00000
     59       1.6631      1.00000
     60       1.7501      1.00000
     61       1.7800      1.00000
     62       1.8944      1.00000
     63       1.9502      1.00000
     64       1.9912      1.00000
     65       4.6453      0.00000
     66       4.8096      0.00000
     67       4.8792      0.00000
     68       5.0196      0.00000
     69       5.3648      0.00000
     70       5.5237      0.00000
     71       5.6903      0.00000
     72       5.8271      0.00000
     73       5.9145      0.00000
     74       6.0324      0.00000
     75       6.1311      0.00000
     76       6.1896      0.00000
     77       6.3596      0.00000
     78       6.4494      0.00000
     79       6.5799      0.00000
     80       6.7522      0.00000

 k-point    43 :       0.3333   -0.2000    0.1667
  band No.  band energies     occupation 
      1     -39.5389      1.00000
      2     -39.5381      1.00000
      3     -39.5336      1.00000
      4     -39.5328      1.00000
      5     -29.0002      1.00000
      6     -28.9978      1.00000
      7     -28.9937      1.00000
      8     -28.9914      1.00000
      9     -19.7207      1.00000
     10     -19.7174      1.00000
     11     -19.7141      1.00000
     12     -19.7095      1.00000
     13     -19.7051      1.00000
     14     -19.6926      1.00000
     15     -19.6824      1.00000
     16     -19.6769      1.00000
     17     -19.6515      1.00000
     18     -19.6477      1.00000
     19     -19.6172      1.00000
     20     -19.6116      1.00000
     21     -11.8093      1.00000
     22     -11.8012      1.00000
     23     -11.7910      1.00000
     24     -11.7873      1.00000
     25     -11.7660      1.00000
     26     -11.7610      1.00000
     27     -11.7182      1.00000
     28     -11.7095      1.00000
     29     -11.6958      1.00000
     30     -11.6681      1.00000
     31     -11.6570      1.00000
     32     -11.6493      1.00000
     33      -8.1684      1.00000
     34      -7.8371      1.00000
     35      -7.4599      1.00000
     36      -7.0218      1.00000
     37      -6.7904      1.00000
     38      -6.7665      1.00000
     39      -6.6998      1.00000
     40      -6.6481      1.00000
     41      -2.8437      1.00000
     42      -2.2582      1.00000
     43      -1.2756      1.00000
     44      -1.2041      1.00000
     45      -0.7508      1.00000
     46      -0.4918      1.00000
     47      -0.2570      1.00000
     48      -0.0400      1.00000
     49       0.0228      1.00000
     50       0.2683      1.00000
     51       0.6251      1.00000
     52       0.8367      1.00000
     53       0.9858      1.00000
     54       1.0583      1.00000
     55       1.1232      1.00000
     56       1.2442      1.00000
     57       1.4307      1.00000
     58       1.5631      1.00000
     59       1.6234      1.00000
     60       1.6650      1.00000
     61       1.7814      1.00000
     62       1.8536      1.00000
     63       1.9065      1.00000
     64       1.9882      1.00000
     65       4.4919      0.00000
     66       4.7919      0.00000
     67       4.8872      0.00000
     68       5.1527      0.00000
     69       5.3993      0.00000
     70       5.5264      0.00000
     71       5.6429      0.00000
     72       5.8442      0.00000
     73       5.9487      0.00000
     74       6.0540      0.00000
     75       6.1780      0.00000
     76       6.3649      0.00000
     77       6.4922      0.00000
     78       6.5782      0.00000
     79       6.6520      0.00000
     80       6.6900      0.00000

 k-point    44 :       0.5000   -0.2000    0.1667
  band No.  band energies     occupation 
      1     -39.5389      1.00000
      2     -39.5381      1.00000
      3     -39.5336      1.00000
      4     -39.5328      1.00000
      5     -29.0002      1.00000
      6     -28.9978      1.00000
      7     -28.9937      1.00000
      8     -28.9915      1.00000
      9     -19.7207      1.00000
     10     -19.7174      1.00000
     11     -19.7141      1.00000
     12     -19.7095      1.00000
     13     -19.7051      1.00000
     14     -19.6926      1.00000
     15     -19.6825      1.00000
     16     -19.6769      1.00000
     17     -19.6515      1.00000
     18     -19.6477      1.00000
     19     -19.6172      1.00000
     20     -19.6116      1.00000
     21     -11.8103      1.00000
     22     -11.8019      1.00000
     23     -11.7918      1.00000
     24     -11.7869      1.00000
     25     -11.7658      1.00000
     26     -11.7611      1.00000
     27     -11.7185      1.00000
     28     -11.7090      1.00000
     29     -11.6955      1.00000
     30     -11.6679      1.00000
     31     -11.6569      1.00000
     32     -11.6495      1.00000
     33      -8.1539      1.00000
     34      -7.8225      1.00000
     35      -7.4583      1.00000
     36      -7.0236      1.00000
     37      -6.8197      1.00000
     38      -6.7892      1.00000
     39      -6.7021      1.00000
     40      -6.6310      1.00000
     41      -2.8511      1.00000
     42      -2.2763      1.00000
     43      -1.2822      1.00000
     44      -1.1753      1.00000
     45      -0.6691      1.00000
     46      -0.4692      1.00000
     47      -0.2364      1.00000
     48      -0.0624      1.00000
     49       0.0709      1.00000
     50       0.3055      1.00000
     51       0.6185      1.00000
     52       0.7569      1.00000
     53       0.9440      1.00000
     54       1.0578      1.00000
     55       1.0775      1.00000
     56       1.1993      1.00000
     57       1.4318      1.00000
     58       1.5362      1.00000
     59       1.5934      1.00000
     60       1.6710      1.00000
     61       1.7914      1.00000
     62       1.8628      1.00000
     63       1.9474      1.00000
     64       1.9856      1.00000
     65       4.4920      0.00000
     66       4.7584      0.00000
     67       4.8952      0.00000
     68       5.3268      0.00000
     69       5.3766      0.00000
     70       5.4203      0.00000
     71       5.6558      0.00000
     72       5.6800      0.00000
     73       5.9390      0.00000
     74       5.9903      0.00000
     75       6.1744      0.00000
     76       6.4265      0.00000
     77       6.5281      0.00000
     78       6.5637      0.00000
     79       6.6704      0.00000
     80       6.8051      0.00000

 k-point    45 :      -0.3333   -0.2000    0.1667
  band No.  band energies     occupation 
      1     -39.5389      1.00000
      2     -39.5381      1.00000
      3     -39.5336      1.00000
      4     -39.5328      1.00000
      5     -29.0002      1.00000
      6     -28.9978      1.00000
      7     -28.9937      1.00000
      8     -28.9914      1.00000
      9     -19.7207      1.00000
     10     -19.7174      1.00000
     11     -19.7141      1.00000
     12     -19.7095      1.00000
     13     -19.7051      1.00000
     14     -19.6925      1.00000
     15     -19.6824      1.00000
     16     -19.6769      1.00000
     17     -19.6515      1.00000
     18     -19.6476      1.00000
     19     -19.6173      1.00000
     20     -19.6116      1.00000
     21     -11.8088      1.00000
     22     -11.8010      1.00000
     23     -11.7915      1.00000
     24     -11.7863      1.00000
     25     -11.7660      1.00000
     26     -11.7618      1.00000
     27     -11.7184      1.00000
     28     -11.7094      1.00000
     29     -11.6958      1.00000
     30     -11.6678      1.00000
     31     -11.6567      1.00000
     32     -11.6498      1.00000
     33      -8.2022      1.00000
     34      -7.8410      1.00000
     35      -7.4347      1.00000
     36      -6.9863      1.00000
     37      -6.8075      1.00000
     38      -6.7669      1.00000
     39      -6.7106      1.00000
     40      -6.6147      1.00000
     41      -2.8608      1.00000
     42      -2.3279      1.00000
     43      -1.3680      1.00000
     44      -1.2967      1.00000
     45      -0.5956      1.00000
     46      -0.4887      1.00000
     47      -0.2283      1.00000
     48      -0.0903      1.00000
     49       0.0554      1.00000
     50       0.3549      1.00000
     51       0.6788      1.00000
     52       0.7458      1.00000
     53       0.9720      1.00000
     54       1.0599      1.00000
     55       1.1728      1.00000
     56       1.2561      1.00000
     57       1.4000      1.00000
     58       1.5490      1.00000
     59       1.6345      1.00000
     60       1.6583      1.00000
     61       1.7978      1.00000
     62       1.8916      1.00000
     63       1.9930      1.00000
     64       2.0398      1.00000
     65       4.6439      0.00000
     66       4.6986      0.00000
     67       4.9672      0.00000
     68       5.1638      0.00000
     69       5.3230      0.00000
     70       5.4484      0.00000
     71       5.5367      0.00000
     72       5.6856      0.00000
     73       5.9011      0.00000
     74       5.9627      0.00000
     75       6.1203      0.00000
     76       6.3655      0.00000
     77       6.5145      0.00000
     78       6.6126      0.00000
     79       6.6878      0.00000
     80       6.7576      0.00000

 k-point    46 :      -0.1667   -0.2000    0.1667
  band No.  band energies     occupation 
      1     -39.5389      1.00000
      2     -39.5381      1.00000
      3     -39.5336      1.00000
      4     -39.5328      1.00000
      5     -29.0002      1.00000
      6     -28.9979      1.00000
      7     -28.9937      1.00000
      8     -28.9914      1.00000
      9     -19.7207      1.00000
     10     -19.7174      1.00000
     11     -19.7141      1.00000
     12     -19.7095      1.00000
     13     -19.7051      1.00000
     14     -19.6925      1.00000
     15     -19.6824      1.00000
     16     -19.6768      1.00000
     17     -19.6515      1.00000
     18     -19.6476      1.00000
     19     -19.6172      1.00000
     20     -19.6116      1.00000
     21     -11.8054      1.00000
     22     -11.8003      1.00000
     23     -11.7907      1.00000
     24     -11.7859      1.00000
     25     -11.7663      1.00000
     26     -11.7623      1.00000
     27     -11.7181      1.00000
     28     -11.7104      1.00000
     29     -11.6964      1.00000
     30     -11.6679      1.00000
     31     -11.6565      1.00000
     32     -11.6500      1.00000
     33      -8.2566      1.00000
     34      -7.8724      1.00000
     35      -7.4237      1.00000
     36      -6.9495      1.00000
     37      -6.7651      1.00000
     38      -6.7252      1.00000
     39      -6.7188      1.00000
     40      -6.6065      1.00000
     41      -2.8646      1.00000
     42      -2.3645      1.00000
     43      -1.5547      1.00000
     44      -1.3178      1.00000
     45      -0.6040      1.00000
     46      -0.4593      1.00000
     47      -0.2366      1.00000
     48      -0.1589      1.00000
     49       0.0357      1.00000
     50       0.3368      1.00000
     51       0.6925      1.00000
     52       0.7481      1.00000
     53       1.0215      1.00000
     54       1.0801      1.00000
     55       1.2355      1.00000
     56       1.3640      1.00000
     57       1.4620      1.00000
     58       1.6240      1.00000
     59       1.6512      1.00000
     60       1.7594      1.00000
     61       1.8035      1.00000
     62       1.9149      1.00000
     63       2.0055      1.00000
     64       2.0593      1.00000
     65       4.6476      0.00000
     66       4.7275      0.00000
     67       4.9285      0.00000
     68       5.1771      0.00000
     69       5.3527      0.00000
     70       5.3989      0.00000
     71       5.4876      0.00000
     72       5.6721      0.00000
     73       5.7821      0.00000
     74       6.1178      0.00000
     75       6.1228      0.00000
     76       6.3246      0.00000
     77       6.4487      0.00000
     78       6.5249      0.00000
     79       6.5975      0.00000
     80       6.6466      0.00000

 k-point    47 :      -0.0000   -0.0000    0.3333
  band No.  band energies     occupation 
      1     -39.5388      1.00000
      2     -39.5382      1.00000
      3     -39.5335      1.00000
      4     -39.5329      1.00000
      5     -28.9999      1.00000
      6     -28.9981      1.00000
      7     -28.9935      1.00000
      8     -28.9917      1.00000
      9     -19.7216      1.00000
     10     -19.7208      1.00000
     11     -19.7111      1.00000
     12     -19.7091      1.00000
     13     -19.7029      1.00000
     14     -19.6933      1.00000
     15     -19.6824      1.00000
     16     -19.6781      1.00000
     17     -19.6509      1.00000
     18     -19.6480      1.00000
     19     -19.6162      1.00000
     20     -19.6122      1.00000
     21     -11.8006      1.00000
     22     -11.7971      1.00000
     23     -11.7940      1.00000
     24     -11.7886      1.00000
     25     -11.7739      1.00000
     26     -11.7730      1.00000
     27     -11.7069      1.00000
     28     -11.7061      1.00000
     29     -11.7017      1.00000
     30     -11.6769      1.00000
     31     -11.6531      1.00000
     32     -11.6473      1.00000
     33      -8.1662      1.00000
     34      -7.8577      1.00000
     35      -7.3829      1.00000
     36      -6.9392      1.00000
     37      -6.9025      1.00000
     38      -6.8182      1.00000
     39      -6.6857      1.00000
     40      -6.6462      1.00000
     41      -2.5681      1.00000
     42      -1.9680      1.00000
     43      -1.7532      1.00000
     44      -1.4935      1.00000
     45      -0.7539      1.00000
     46      -0.7299      1.00000
     47      -0.2263      1.00000
     48       0.0909      1.00000
     49       0.1885      1.00000
     50       0.4346      1.00000
     51       0.6813      1.00000
     52       0.6941      1.00000
     53       0.8797      1.00000
     54       1.0099      1.00000
     55       1.1665      1.00000
     56       1.2849      1.00000
     57       1.3801      1.00000
     58       1.4840      1.00000
     59       1.7210      1.00000
     60       1.7401      1.00000
     61       1.8311      1.00000
     62       1.8601      1.00000
     63       1.9616      1.00000
     64       2.0494      1.00000
     65       4.6394      0.00000
     66       4.6812      0.00000
     67       5.0095      0.00000
     68       5.0393      0.00000
     69       5.4500      0.00000
     70       5.4892      0.00000
     71       5.7547      0.00000
     72       5.7868      0.00000
     73       5.9267      0.00000
     74       5.9405      0.00000
     75       5.9894      0.00000
     76       6.1494      0.00000
     77       6.2642      0.00000
     78       6.3994      0.00000
     79       6.5517      0.00000
     80       6.6298      0.00000

 k-point    48 :       0.1667    0.0000    0.3333
  band No.  band energies     occupation 
      1     -39.5388      1.00000
      2     -39.5382      1.00000
      3     -39.5335      1.00000
      4     -39.5329      1.00000
      5     -28.9998      1.00000
      6     -28.9980      1.00000
      7     -28.9935      1.00000
      8     -28.9918      1.00000
      9     -19.7216      1.00000
     10     -19.7208      1.00000
     11     -19.7111      1.00000
     12     -19.7091      1.00000
     13     -19.7029      1.00000
     14     -19.6933      1.00000
     15     -19.6825      1.00000
     16     -19.6781      1.00000
     17     -19.6509      1.00000
     18     -19.6480      1.00000
     19     -19.6162      1.00000
     20     -19.6122      1.00000
     21     -11.8035      1.00000
     22     -11.7960      1.00000
     23     -11.7942      1.00000
     24     -11.7894      1.00000
     25     -11.7734      1.00000
     26     -11.7726      1.00000
     27     -11.7066      1.00000
     28     -11.7063      1.00000
     29     -11.7014      1.00000
     30     -11.6770      1.00000
     31     -11.6534      1.00000
     32     -11.6468      1.00000
     33      -8.1196      1.00000
     34      -7.8605      1.00000
     35      -7.3931      1.00000
     36      -6.9456      1.00000
     37      -6.9335      1.00000
     38      -6.7905      1.00000
     39      -6.7062      1.00000
     40      -6.6773      1.00000
     41      -2.5658      1.00000
     42      -1.9282      1.00000
     43      -1.6764      1.00000
     44      -1.4642      1.00000
     45      -0.7761      1.00000
     46      -0.7013      1.00000
     47      -0.1645      1.00000
     48       0.0299      1.00000
     49       0.1670      1.00000
     50       0.4755      1.00000
     51       0.6041      1.00000
     52       0.6436      1.00000
     53       0.8689      1.00000
     54       1.0956      1.00000
     55       1.1782      1.00000
     56       1.2120      1.00000
     57       1.4053      1.00000
     58       1.5044      1.00000
     59       1.6759      1.00000
     60       1.7074      1.00000
     61       1.8238      1.00000
     62       1.8364      1.00000
     63       1.8801      1.00000
     64       1.9936      1.00000
     65       4.5679      0.00000
     66       4.6519      0.00000
     67       4.9979      0.00000
     68       5.1073      0.00000
     69       5.4729      0.00000
     70       5.5441      0.00000
     71       5.7302      0.00000
     72       5.7723      0.00000
     73       5.9007      0.00000
     74       5.9235      0.00000
     75       6.0383      0.00000
     76       6.2120      0.00000
     77       6.3781      0.00000
     78       6.4807      0.00000
     79       6.6780      0.00000
     80       6.6974      0.00000

 k-point    49 :       0.3333   -0.0000    0.3333
  band No.  band energies     occupation 
      1     -39.5388      1.00000
      2     -39.5382      1.00000
      3     -39.5335      1.00000
      4     -39.5329      1.00000
      5     -28.9998      1.00000
      6     -28.9980      1.00000
      7     -28.9936      1.00000
      8     -28.9918      1.00000
      9     -19.7216      1.00000
     10     -19.7208      1.00000
     11     -19.7111      1.00000
     12     -19.7091      1.00000
     13     -19.7029      1.00000
     14     -19.6933      1.00000
     15     -19.6825      1.00000
     16     -19.6782      1.00000
     17     -19.6508      1.00000
     18     -19.6480      1.00000
     19     -19.6163      1.00000
     20     -19.6122      1.00000
     21     -11.8062      1.00000
     22     -11.7965      1.00000
     23     -11.7961      1.00000
     24     -11.7892      1.00000
     25     -11.7731      1.00000
     26     -11.7723      1.00000
     27     -11.7062      1.00000
     28     -11.7055      1.00000
     29     -11.7014      1.00000
     30     -11.6777      1.00000
     31     -11.6532      1.00000
     32     -11.6464      1.00000
     33      -8.0712      1.00000
     34      -7.8387      1.00000
     35      -7.4055      1.00000
     36      -6.9741      1.00000
     37      -6.9353      1.00000
     38      -6.8053      1.00000
     39      -6.7332      1.00000
     40      -6.6890      1.00000
     41      -2.5790      1.00000
     42      -1.9289      1.00000
     43      -1.6951      1.00000
     44      -1.3913      1.00000
     45      -0.6430      1.00000
     46      -0.5911      1.00000
     47      -0.1122      1.00000
     48       0.0101      1.00000
     49       0.1109      1.00000
     50       0.4783      1.00000
     51       0.5738      1.00000
     52       0.6040      1.00000
     53       0.8578      1.00000
     54       1.0369      1.00000
     55       1.1111      1.00000
     56       1.2587      1.00000
     57       1.4102      1.00000
     58       1.4149      1.00000
     59       1.6441      1.00000
     60       1.6620      1.00000
     61       1.7540      1.00000
     62       1.8608      1.00000
     63       1.9072      1.00000
     64       1.9494      1.00000
     65       4.4753      0.00000
     66       4.7029      0.00000
     67       4.8937      0.00000
     68       5.2721      0.00000
     69       5.4412      0.00000
     70       5.4611      0.00000
     71       5.6650      0.00000
     72       5.7431      0.00000
     73       5.7852      0.00000
     74       6.0559      0.00000
     75       6.1673      0.00000
     76       6.2808      0.00000
     77       6.4114      0.00000
     78       6.5231      0.00000
     79       6.7396      0.00000
     80       6.7415      0.00000

 k-point    50 :       0.5000    0.0000    0.3333
  band No.  band energies     occupation 
      1     -39.5388      1.00000
      2     -39.5382      1.00000
      3     -39.5335      1.00000
      4     -39.5329      1.00000
      5     -28.9998      1.00000
      6     -28.9979      1.00000
      7     -28.9936      1.00000
      8     -28.9919      1.00000
      9     -19.7216      1.00000
     10     -19.7208      1.00000
     11     -19.7111      1.00000
     12     -19.7091      1.00000
     13     -19.7029      1.00000
     14     -19.6933      1.00000
     15     -19.6826      1.00000
     16     -19.6782      1.00000
     17     -19.6508      1.00000
     18     -19.6480      1.00000
     19     -19.6163      1.00000
     20     -19.6122      1.00000
     21     -11.8070      1.00000
     22     -11.7973      1.00000
     23     -11.7967      1.00000
     24     -11.7888      1.00000
     25     -11.7731      1.00000
     26     -11.7724      1.00000
     27     -11.7056      1.00000
     28     -11.7049      1.00000
     29     -11.7017      1.00000
     30     -11.6782      1.00000
     31     -11.6527      1.00000
     32     -11.6466      1.00000
     33      -8.0764      1.00000
     34      -7.8123      1.00000
     35      -7.3958      1.00000
     36      -6.9669      1.00000
     37      -6.9360      1.00000
     38      -6.8649      1.00000
     39      -6.7379      1.00000
     40      -6.6609      1.00000
     41      -2.5907      1.00000
     42      -1.9738      1.00000
     43      -1.7196      1.00000
     44      -1.4307      1.00000
     45      -0.5318      1.00000
     46      -0.4662      1.00000
     47      -0.1756      1.00000
     48       0.0428      1.00000
     49       0.2057      1.00000
     50       0.4841      1.00000
     51       0.6040      1.00000
     52       0.7075      1.00000
     53       0.7584      1.00000
     54       0.9358      1.00000
     55       1.0194      1.00000
     56       1.1740      1.00000
     57       1.3765      1.00000
     58       1.4217      1.00000
     59       1.5652      1.00000
     60       1.6521      1.00000
     61       1.7234      1.00000
     62       1.9176      1.00000
     63       2.0018      1.00000
     64       2.0133      1.00000
     65       4.5180      0.00000
     66       4.6682      0.00000
     67       4.9596      0.00000
     68       5.1993      0.00000
     69       5.3123      0.00000
     70       5.3961      0.00000
     71       5.6646      0.00000
     72       5.8328      0.00000
     73       5.9398      0.00000
     74       6.0192      0.00000
     75       6.0722      0.00000
     76       6.3021      0.00000
     77       6.4973      0.00000
     78       6.5042      0.00000
     79       6.6494      0.00000
     80       6.7127      0.00000

 k-point    51 :      -0.3333    0.0000    0.3333
  band No.  band energies     occupation 
      1     -39.5388      1.00000
      2     -39.5382      1.00000
      3     -39.5335      1.00000
      4     -39.5329      1.00000
      5     -28.9998      1.00000
      6     -28.9980      1.00000
      7     -28.9936      1.00000
      8     -28.9918      1.00000
      9     -19.7216      1.00000
     10     -19.7208      1.00000
     11     -19.7111      1.00000
     12     -19.7091      1.00000
     13     -19.7029      1.00000
     14     -19.6933      1.00000
     15     -19.6825      1.00000
     16     -19.6782      1.00000
     17     -19.6508      1.00000
     18     -19.6480      1.00000
     19     -19.6163      1.00000
     20     -19.6122      1.00000
     21     -11.8055      1.00000
     22     -11.7970      1.00000
     23     -11.7962      1.00000
     24     -11.7880      1.00000
     25     -11.7742      1.00000
     26     -11.7724      1.00000
     27     -11.7053      1.00000
     28     -11.7050      1.00000
     29     -11.7022      1.00000
     30     -11.6781      1.00000
     31     -11.6525      1.00000
     32     -11.6471      1.00000
     33      -8.1280      1.00000
     34      -7.8092      1.00000
     35      -7.3818      1.00000
     36      -6.9395      1.00000
     37      -6.9116      1.00000
     38      -6.8861      1.00000
     39      -6.7296      1.00000
     40      -6.6388      1.00000
     41      -2.5974      1.00000
     42      -2.0024      1.00000
     43      -1.7414      1.00000
     44      -1.5066      1.00000
     45      -0.6130      1.00000
     46      -0.4446      1.00000
     47      -0.2186      1.00000
     48       0.0887      1.00000
     49       0.1859      1.00000
     50       0.4676      1.00000
     51       0.6478      1.00000
     52       0.8289      1.00000
     53       0.8358      1.00000
     54       0.9640      1.00000
     55       0.9982      1.00000
     56       1.1113      1.00000
     57       1.3884      1.00000
     58       1.4049      1.00000
     59       1.6114      1.00000
     60       1.6665      1.00000
     61       1.7396      1.00000
     62       1.9329      1.00000
     63       2.0115      1.00000
     64       2.0862      1.00000
     65       4.5980      0.00000
     66       4.7264      0.00000
     67       4.8825      0.00000
     68       5.1587      0.00000
     69       5.2278      0.00000
     70       5.4223      0.00000
     71       5.7773      0.00000
     72       5.8252      0.00000
     73       5.9332      0.00000
     74       5.9479      0.00000
     75       6.0548      0.00000
     76       6.2882      0.00000
     77       6.4417      0.00000
     78       6.4517      0.00000
     79       6.5588      0.00000
     80       6.7114      0.00000

 k-point    52 :      -0.1667    0.0000    0.3333
  band No.  band energies     occupation 
      1     -39.5388      1.00000
      2     -39.5382      1.00000
      3     -39.5335      1.00000
      4     -39.5329      1.00000
      5     -28.9998      1.00000
      6     -28.9980      1.00000
      7     -28.9935      1.00000
      8     -28.9918      1.00000
      9     -19.7216      1.00000
     10     -19.7208      1.00000
     11     -19.7111      1.00000
     12     -19.7091      1.00000
     13     -19.7029      1.00000
     14     -19.6933      1.00000
     15     -19.6825      1.00000
     16     -19.6781      1.00000
     17     -19.6509      1.00000
     18     -19.6480      1.00000
     19     -19.6163      1.00000
     20     -19.6123      1.00000
     21     -11.8022      1.00000
     22     -11.7965      1.00000
     23     -11.7956      1.00000
     24     -11.7875      1.00000
     25     -11.7748      1.00000
     26     -11.7726      1.00000
     27     -11.7063      1.00000
     28     -11.7053      1.00000
     29     -11.7022      1.00000
     30     -11.6774      1.00000
     31     -11.6527      1.00000
     32     -11.6475      1.00000
     33      -8.1697      1.00000
     34      -7.8329      1.00000
     35      -7.3802      1.00000
     36      -6.9457      1.00000
     37      -6.8760      1.00000
     38      -6.8548      1.00000
     39      -6.7049      1.00000
     40      -6.6339      1.00000
     41      -2.5883      1.00000
     42      -1.9964      1.00000
     43      -1.7874      1.00000
     44      -1.5043      1.00000
     45      -0.6980      1.00000
     46      -0.5991      1.00000
     47      -0.2392      1.00000
     48       0.1202      1.00000
     49       0.1460      1.00000
     50       0.4247      1.00000
     51       0.7074      1.00000
     52       0.7376      1.00000
     53       0.9042      1.00000
     54       0.9880      1.00000
     55       1.1938      1.00000
     56       1.2299      1.00000
     57       1.2521      1.00000
     58       1.4584      1.00000
     59       1.7578      1.00000
     60       1.7766      1.00000
     61       1.8116      1.00000
     62       1.8761      1.00000
     63       1.9194      1.00000
     64       2.0798      1.00000
     65       4.6521      0.00000
     66       4.6607      0.00000
     67       5.0481      0.00000
     68       5.1690      0.00000
     69       5.2040      0.00000
     70       5.4748      0.00000
     71       5.6715      0.00000
     72       5.7648      0.00000
     73       5.8368      0.00000
     74       5.8941      0.00000
     75       6.1208      0.00000
     76       6.2273      0.00000
     77       6.3745      0.00000
     78       6.4549      0.00000
     79       6.5805      0.00000
     80       6.6962      0.00000

 k-point    53 :      -0.0000    0.2000    0.3333
  band No.  band energies     occupation 
      1     -39.5387      1.00000
      2     -39.5382      1.00000
      3     -39.5334      1.00000
      4     -39.5330      1.00000
      5     -28.9998      1.00000
      6     -28.9983      1.00000
      7     -28.9933      1.00000
      8     -28.9919      1.00000
      9     -19.7214      1.00000
     10     -19.7199      1.00000
     11     -19.7127      1.00000
     12     -19.7101      1.00000
     13     -19.7011      1.00000
     14     -19.6938      1.00000
     15     -19.6819      1.00000
     16     -19.6785      1.00000
     17     -19.6506      1.00000
     18     -19.6482      1.00000
     19     -19.6158      1.00000
     20     -19.6126      1.00000
     21     -11.8016      1.00000
     22     -11.7981      1.00000
     23     -11.7935      1.00000
     24     -11.7894      1.00000
     25     -11.7737      1.00000
     26     -11.7684      1.00000
     27     -11.7165      1.00000
     28     -11.7101      1.00000
     29     -11.6913      1.00000
     30     -11.6746      1.00000
     31     -11.6538      1.00000
     32     -11.6484      1.00000
     33      -8.1389      1.00000
     34      -7.8901      1.00000
     35      -7.3486      1.00000
     36      -7.0149      1.00000
     37      -6.8626      1.00000
     38      -6.8169      1.00000
     39      -6.6832      1.00000
     40      -6.6530      1.00000
     41      -2.5141      1.00000
     42      -2.0578      1.00000
     43      -1.6798      1.00000
     44      -1.4962      1.00000
     45      -0.7096      1.00000
     46      -0.6807      1.00000
     47      -0.2026      1.00000
     48       0.0107      1.00000
     49       0.1899      1.00000
     50       0.3700      1.00000
     51       0.5432      1.00000
     52       0.8109      1.00000
     53       0.9275      1.00000
     54       0.9451      1.00000
     55       1.1813      1.00000
     56       1.2494      1.00000
     57       1.3873      1.00000
     58       1.5310      1.00000
     59       1.6624      1.00000
     60       1.7289      1.00000
     61       1.8247      1.00000
     62       1.8982      1.00000
     63       1.9414      1.00000
     64       2.0206      1.00000
     65       4.6515      0.00000
     66       4.7313      0.00000
     67       5.0604      0.00000
     68       5.1120      0.00000
     69       5.3544      0.00000
     70       5.5879      0.00000
     71       5.6102      0.00000
     72       5.7504      0.00000
     73       5.8485      0.00000
     74       5.9657      0.00000
     75       6.0336      0.00000
     76       6.2022      0.00000
     77       6.3136      0.00000
     78       6.4266      0.00000
     79       6.5778      0.00000
     80       6.6546      0.00000

 k-point    54 :       0.1667    0.2000    0.3333
  band No.  band energies     occupation 
      1     -39.5387      1.00000
      2     -39.5382      1.00000
      3     -39.5334      1.00000
      4     -39.5330      1.00000
      5     -28.9997      1.00000
      6     -28.9982      1.00000
      7     -28.9933      1.00000
      8     -28.9919      1.00000
      9     -19.7214      1.00000
     10     -19.7199      1.00000
     11     -19.7127      1.00000
     12     -19.7101      1.00000
     13     -19.7011      1.00000
     14     -19.6938      1.00000
     15     -19.6820      1.00000
     16     -19.6785      1.00000
     17     -19.6506      1.00000
     18     -19.6482      1.00000
     19     -19.6158      1.00000
     20     -19.6126      1.00000
     21     -11.8043      1.00000
     22     -11.7982      1.00000
     23     -11.7933      1.00000
     24     -11.7897      1.00000
     25     -11.7736      1.00000
     26     -11.7679      1.00000
     27     -11.7167      1.00000
     28     -11.7095      1.00000
     29     -11.6912      1.00000
     30     -11.6747      1.00000
     31     -11.6540      1.00000
     32     -11.6479      1.00000
     33      -8.0948      1.00000
     34      -7.8844      1.00000
     35      -7.3633      1.00000
     36      -7.0404      1.00000
     37      -6.8734      1.00000
     38      -6.7974      1.00000
     39      -6.7017      1.00000
     40      -6.6804      1.00000
     41      -2.5113      1.00000
     42      -2.0311      1.00000
     43      -1.5846      1.00000
     44      -1.4556      1.00000
     45      -0.7380      1.00000
     46      -0.6595      1.00000
     47      -0.1392      1.00000
     48      -0.0504      1.00000
     49       0.1829      1.00000
     50       0.3203      1.00000
     51       0.5402      1.00000
     52       0.7678      1.00000
     53       0.8661      1.00000
     54       1.0449      1.00000
     55       1.1236      1.00000
     56       1.3168      1.00000
     57       1.3996      1.00000
     58       1.5515      1.00000
     59       1.5979      1.00000
     60       1.6694      1.00000
     61       1.8271      1.00000
     62       1.8616      1.00000
     63       1.8759      1.00000
     64       1.9755      1.00000
     65       4.5882      0.00000
     66       4.7212      0.00000
     67       5.0725      0.00000
     68       5.1459      0.00000
     69       5.3075      0.00000
     70       5.5779      0.00000
     71       5.5946      0.00000
     72       5.7913      0.00000
     73       5.8892      0.00000
     74       5.9726      0.00000
     75       6.0615      0.00000
     76       6.2549      0.00000
     77       6.3346      0.00000
     78       6.4997      0.00000
     79       6.6394      0.00000
     80       6.7300      0.00000

 k-point    55 :       0.3333    0.2000    0.3333
  band No.  band energies     occupation 
      1     -39.5387      1.00000
      2     -39.5382      1.00000
      3     -39.5334      1.00000
      4     -39.5330      1.00000
      5     -28.9997      1.00000
      6     -28.9982      1.00000
      7     -28.9934      1.00000
      8     -28.9920      1.00000
      9     -19.7214      1.00000
     10     -19.7198      1.00000
     11     -19.7127      1.00000
     12     -19.7101      1.00000
     13     -19.7012      1.00000
     14     -19.6938      1.00000
     15     -19.6820      1.00000
     16     -19.6785      1.00000
     17     -19.6506      1.00000
     18     -19.6482      1.00000
     19     -19.6159      1.00000
     20     -19.6126      1.00000
     21     -11.8068      1.00000
     22     -11.8001      1.00000
     23     -11.7939      1.00000
     24     -11.7894      1.00000
     25     -11.7732      1.00000
     26     -11.7676      1.00000
     27     -11.7168      1.00000
     28     -11.7088      1.00000
     29     -11.6909      1.00000
     30     -11.6749      1.00000
     31     -11.6538      1.00000
     32     -11.6477      1.00000
     33      -8.0483      1.00000
     34      -7.8594      1.00000
     35      -7.3755      1.00000
     36      -7.0559      1.00000
     37      -6.8896      1.00000
     38      -6.8018      1.00000
     39      -6.7428      1.00000
     40      -6.6890      1.00000
     41      -2.5242      1.00000
     42      -2.0406      1.00000
     43      -1.5743      1.00000
     44      -1.3794      1.00000
     45      -0.6209      1.00000
     46      -0.5514      1.00000
     47      -0.1002      1.00000
     48      -0.0767      1.00000
     49       0.1480      1.00000
     50       0.2532      1.00000
     51       0.5668      1.00000
     52       0.7482      1.00000
     53       0.7992      1.00000
     54       1.0457      1.00000
     55       1.1049      1.00000
     56       1.2568      1.00000
     57       1.4078      1.00000
     58       1.4576      1.00000
     59       1.6021      1.00000
     60       1.6654      1.00000
     61       1.7314      1.00000
     62       1.8831      1.00000
     63       1.9011      1.00000
     64       1.9428      1.00000
     65       4.5173      0.00000
     66       4.7650      0.00000
     67       4.9393      0.00000
     68       5.2672      0.00000
     69       5.3300      0.00000
     70       5.4195      0.00000
     71       5.5064      0.00000
     72       5.7233      0.00000
     73       5.8860      0.00000
     74       6.1438      0.00000
     75       6.1628      0.00000
     76       6.3226      0.00000
     77       6.4023      0.00000
     78       6.6115      0.00000
     79       6.6571      0.00000
     80       6.8170      0.00000

 k-point    56 :       0.5000    0.2000    0.3333
  band No.  band energies     occupation 
      1     -39.5387      1.00000
      2     -39.5382      1.00000
      3     -39.5334      1.00000
      4     -39.5330      1.00000
      5     -28.9996      1.00000
      6     -28.9981      1.00000
      7     -28.9934      1.00000
      8     -28.9920      1.00000
      9     -19.7214      1.00000
     10     -19.7198      1.00000
     11     -19.7127      1.00000
     12     -19.7101      1.00000
     13     -19.7011      1.00000
     14     -19.6938      1.00000
     15     -19.6821      1.00000
     16     -19.6786      1.00000
     17     -19.6506      1.00000
     18     -19.6482      1.00000
     19     -19.6159      1.00000
     20     -19.6126      1.00000
     21     -11.8075      1.00000
     22     -11.8009      1.00000
     23     -11.7944      1.00000
     24     -11.7894      1.00000
     25     -11.7728      1.00000
     26     -11.7679      1.00000
     27     -11.7167      1.00000
     28     -11.7087      1.00000
     29     -11.6908      1.00000
     30     -11.6750      1.00000
     31     -11.6535      1.00000
     32     -11.6478      1.00000
     33      -8.0521      1.00000
     34      -7.8387      1.00000
     35      -7.3638      1.00000
     36      -7.0470      1.00000
     37      -6.8909      1.00000
     38      -6.8420      1.00000
     39      -6.7519      1.00000
     40      -6.6756      1.00000
     41      -2.5353      1.00000
     42      -2.0689      1.00000
     43      -1.6142      1.00000
     44      -1.4186      1.00000
     45      -0.4990      1.00000
     46      -0.4323      1.00000
     47      -0.1633      1.00000
     48      -0.0336      1.00000
     49       0.1768      1.00000
     50       0.2966      1.00000
     51       0.6296      1.00000
     52       0.6869      1.00000
     53       0.8300      1.00000
     54       0.9891      1.00000
     55       1.0577      1.00000
     56       1.0970      1.00000
     57       1.3810      1.00000
     58       1.4209      1.00000
     59       1.5554      1.00000
     60       1.6805      1.00000
     61       1.7530      1.00000
     62       1.9224      1.00000
     63       1.9532      1.00000
     64       1.9939      1.00000
     65       4.5835      0.00000
     66       4.7384      0.00000
     67       4.9592      0.00000
     68       5.1992      0.00000
     69       5.2542      0.00000
     70       5.3402      0.00000
     71       5.6088      0.00000
     72       5.7361      0.00000
     73       5.9641      0.00000
     74       6.0486      0.00000
     75       6.1038      0.00000
     76       6.2965      0.00000
     77       6.4127      0.00000
     78       6.6212      0.00000
     79       6.7058      0.00000
     80       6.7701      0.00000

 k-point    57 :      -0.3333    0.2000    0.3333
  band No.  band energies     occupation 
      1     -39.5387      1.00000
      2     -39.5382      1.00000
      3     -39.5334      1.00000
      4     -39.5330      1.00000
      5     -28.9997      1.00000
      6     -28.9982      1.00000
      7     -28.9934      1.00000
      8     -28.9919      1.00000
      9     -19.7214      1.00000
     10     -19.7198      1.00000
     11     -19.7127      1.00000
     12     -19.7101      1.00000
     13     -19.7011      1.00000
     14     -19.6938      1.00000
     15     -19.6820      1.00000
     16     -19.6785      1.00000
     17     -19.6506      1.00000
     18     -19.6482      1.00000
     19     -19.6159      1.00000
     20     -19.6126      1.00000
     21     -11.8060      1.00000
     22     -11.8002      1.00000
     23     -11.7941      1.00000
     24     -11.7889      1.00000
     25     -11.7732      1.00000
     26     -11.7684      1.00000
     27     -11.7165      1.00000
     28     -11.7092      1.00000
     29     -11.6909      1.00000
     30     -11.6749      1.00000
     31     -11.6534      1.00000
     32     -11.6482      1.00000
     33      -8.1009      1.00000
     34      -7.8454      1.00000
     35      -7.3441      1.00000
     36      -7.0151      1.00000
     37      -6.8743      1.00000
     38      -6.8595      1.00000
     39      -6.7385      1.00000
     40      -6.6578      1.00000
     41      -2.5416      1.00000
     42      -2.0859      1.00000
     43      -1.6589      1.00000
     44      -1.4984      1.00000
     45      -0.5651      1.00000
     46      -0.4015      1.00000
     47      -0.2113      1.00000
     48       0.0089      1.00000
     49       0.1539      1.00000
     50       0.3629      1.00000
     51       0.5567      1.00000
     52       0.8133      1.00000
     53       0.8846      1.00000
     54       1.0154      1.00000
     55       1.0334      1.00000
     56       1.1142      1.00000
     57       1.3963      1.00000
     58       1.4620      1.00000
     59       1.5140      1.00000
     60       1.7070      1.00000
     61       1.7736      1.00000
     62       1.9211      1.00000
     63       1.9688      1.00000
     64       2.0594      1.00000
     65       4.6680      0.00000
     66       4.7710      0.00000
     67       4.8918      0.00000
     68       5.1369      0.00000
     69       5.2333      0.00000
     70       5.3706      0.00000
     71       5.7473      0.00000
     72       5.7723      0.00000
     73       5.8602      0.00000
     74       5.9563      0.00000
     75       6.1149      0.00000
     76       6.2201      0.00000
     77       6.4004      0.00000
     78       6.5318      0.00000
     79       6.6764      0.00000
     80       6.6864      0.00000

 k-point    58 :      -0.1667    0.2000    0.3333
  band No.  band energies     occupation 
      1     -39.5387      1.00000
      2     -39.5382      1.00000
      3     -39.5334      1.00000
      4     -39.5330      1.00000
      5     -28.9997      1.00000
      6     -28.9982      1.00000
      7     -28.9933      1.00000
      8     -28.9919      1.00000
      9     -19.7214      1.00000
     10     -19.7199      1.00000
     11     -19.7127      1.00000
     12     -19.7101      1.00000
     13     -19.7011      1.00000
     14     -19.6938      1.00000
     15     -19.6820      1.00000
     16     -19.6785      1.00000
     17     -19.6506      1.00000
     18     -19.6482      1.00000
     19     -19.6159      1.00000
     20     -19.6126      1.00000
     21     -11.8030      1.00000
     22     -11.7989      1.00000
     23     -11.7939      1.00000
     24     -11.7886      1.00000
     25     -11.7737      1.00000
     26     -11.7687      1.00000
     27     -11.7164      1.00000
     28     -11.7099      1.00000
     29     -11.6912      1.00000
     30     -11.6747      1.00000
     31     -11.6535      1.00000
     32     -11.6485      1.00000
     33      -8.1414      1.00000
     34      -7.8716      1.00000
     35      -7.3403      1.00000
     36      -7.0014      1.00000
     37      -6.8609      1.00000
     38      -6.8416      1.00000
     39      -6.7053      1.00000
     40      -6.6456      1.00000
     41      -2.5338      1.00000
     42      -2.0836      1.00000
     43      -1.7085      1.00000
     44      -1.5072      1.00000
     45      -0.6504      1.00000
     46      -0.5508      1.00000
     47      -0.2247      1.00000
     48       0.0183      1.00000
     49       0.1643      1.00000
     50       0.3647      1.00000
     51       0.5559      1.00000
     52       0.8536      1.00000
     53       0.8786      1.00000
     54       0.9757      1.00000
     55       1.1895      1.00000
     56       1.2150      1.00000
     57       1.3488      1.00000
     58       1.4761      1.00000
     59       1.6290      1.00000
     60       1.7959      1.00000
     61       1.8396      1.00000
     62       1.8668      1.00000
     63       1.9366      1.00000
     64       2.0499      1.00000
     65       4.6401      0.00000
     66       4.7587      0.00000
     67       5.0136      0.00000
     68       5.1287      0.00000
     69       5.2980      0.00000
     70       5.4999      0.00000
     71       5.5940      0.00000
     72       5.6746      0.00000
     73       5.8701      0.00000
     74       5.9095      0.00000
     75       6.1886      0.00000
     76       6.2335      0.00000
     77       6.3480      0.00000
     78       6.5496      0.00000
     79       6.6147      0.00000
     80       6.6995      0.00000

 k-point    59 :      -0.0000    0.4000    0.3333
  band No.  band energies     occupation 
      1     -39.5386      1.00000
      2     -39.5383      1.00000
      3     -39.5333      1.00000
      4     -39.5330      1.00000
      5     -28.9995      1.00000
      6     -28.9987      1.00000
      7     -28.9929      1.00000
      8     -28.9921      1.00000
      9     -19.7202      1.00000
     10     -19.7189      1.00000
     11     -19.7143      1.00000
     12     -19.7125      1.00000
     13     -19.6981      1.00000
     14     -19.6954      1.00000
     15     -19.6808      1.00000
     16     -19.6795      1.00000
     17     -19.6499      1.00000
     18     -19.6489      1.00000
     19     -19.6148      1.00000
     20     -19.6135      1.00000
     21     -11.8022      1.00000
     22     -11.8008      1.00000
     23     -11.7924      1.00000
     24     -11.7909      1.00000
     25     -11.7691      1.00000
     26     -11.7655      1.00000
     27     -11.7220      1.00000
     28     -11.7182      1.00000
     29     -11.6801      1.00000
     30     -11.6739      1.00000
     31     -11.6537      1.00000
     32     -11.6512      1.00000
     33      -8.0656      1.00000
     34      -7.9710      1.00000
     35      -7.2572      1.00000
     36      -7.1350      1.00000
     37      -6.8313      1.00000
     38      -6.8173      1.00000
     39      -6.6781      1.00000
     40      -6.6679      1.00000
     41      -2.3774      1.00000
     42      -2.2119      1.00000
     43      -1.5854      1.00000
     44      -1.5226      1.00000
     45      -0.6093      1.00000
     46      -0.5821      1.00000
     47      -0.1377      1.00000
     48      -0.0802      1.00000
     49       0.0799      1.00000
     50       0.1951      1.00000
     51       0.5774      1.00000
     52       0.7341      1.00000
     53       0.9646      1.00000
     54       1.0300      1.00000
     55       1.1487      1.00000
     56       1.1972      1.00000
     57       1.4163      1.00000
     58       1.4830      1.00000
     59       1.6901      1.00000
     60       1.7670      1.00000
     61       1.8311      1.00000
     62       1.8785      1.00000
     63       1.9093      1.00000
     64       1.9539      1.00000
     65       4.7492      0.00000
     66       4.8074      0.00000
     67       5.1072      0.00000
     68       5.1617      0.00000
     69       5.3122      0.00000
     70       5.4039      0.00000
     71       5.6742      0.00000
     72       5.7075      0.00000
     73       5.8244      0.00000
     74       5.8895      0.00000
     75       6.1067      0.00000
     76       6.2197      0.00000
     77       6.4049      0.00000
     78       6.5571      0.00000
     79       6.5832      0.00000
     80       6.7105      0.00000

 k-point    60 :       0.1667    0.4000    0.3333
  band No.  band energies     occupation 
      1     -39.5386      1.00000
      2     -39.5383      1.00000
      3     -39.5333      1.00000
      4     -39.5330      1.00000
      5     -28.9995      1.00000
      6     -28.9986      1.00000
      7     -28.9929      1.00000
      8     -28.9922      1.00000
      9     -19.7202      1.00000
     10     -19.7189      1.00000
     11     -19.7143      1.00000
     12     -19.7125      1.00000
     13     -19.6981      1.00000
     14     -19.6954      1.00000
     15     -19.6808      1.00000
     16     -19.6795      1.00000
     17     -19.6499      1.00000
     18     -19.6489      1.00000
     19     -19.6148      1.00000
     20     -19.6135      1.00000
     21     -11.8044      1.00000
     22     -11.8022      1.00000
     23     -11.7919      1.00000
     24     -11.7905      1.00000
     25     -11.7692      1.00000
     26     -11.7652      1.00000
     27     -11.7219      1.00000
     28     -11.7176      1.00000
     29     -11.6799      1.00000
     30     -11.6739      1.00000
     31     -11.6538      1.00000
     32     -11.6510      1.00000
     33      -8.0294      1.00000
     34      -7.9487      1.00000
     35      -7.2801      1.00000
     36      -7.1628      1.00000
     37      -6.8358      1.00000
     38      -6.8120      1.00000
     39      -6.6956      1.00000
     40      -6.6865      1.00000
     41      -2.3719      1.00000
     42      -2.1989      1.00000
     43      -1.4851      1.00000
     44      -1.4497      1.00000
     45      -0.6329      1.00000
     46      -0.5806      1.00000
     47      -0.1576      1.00000
     48      -0.0893      1.00000
     49       0.0641      1.00000
     50       0.1941      1.00000
     51       0.5409      1.00000
     52       0.6863      1.00000
     53       0.9481      1.00000
     54       1.0139      1.00000
     55       1.1701      1.00000
     56       1.2970      1.00000
     57       1.4201      1.00000
     58       1.4858      1.00000
     59       1.6342      1.00000
     60       1.6646      1.00000
     61       1.8034      1.00000
     62       1.8586      1.00000
     63       1.8928      1.00000
     64       1.9268      1.00000
     65       4.7234      0.00000
     66       4.8187      0.00000
     67       5.0115      0.00000
     68       5.1008      0.00000
     69       5.3117      0.00000
     70       5.4444      0.00000
     71       5.6255      0.00000
     72       5.7269      0.00000
     73       5.9400      0.00000
     74       5.9963      0.00000
     75       6.1063      0.00000
     76       6.2201      0.00000
     77       6.4232      0.00000
     78       6.4451      0.00000
     79       6.6911      0.00000
     80       6.7609      0.00000

 k-point    61 :       0.3333    0.4000    0.3333
  band No.  band energies     occupation 
      1     -39.5386      1.00000
      2     -39.5383      1.00000
      3     -39.5333      1.00000
      4     -39.5330      1.00000
      5     -28.9994      1.00000
      6     -28.9986      1.00000
      7     -28.9930      1.00000
      8     -28.9922      1.00000
      9     -19.7202      1.00000
     10     -19.7189      1.00000
     11     -19.7143      1.00000
     12     -19.7125      1.00000
     13     -19.6981      1.00000
     14     -19.6954      1.00000
     15     -19.6809      1.00000
     16     -19.6795      1.00000
     17     -19.6499      1.00000
     18     -19.6489      1.00000
     19     -19.6148      1.00000
     20     -19.6135      1.00000
     21     -11.8068      1.00000
     22     -11.8045      1.00000
     23     -11.7920      1.00000
     24     -11.7903      1.00000
     25     -11.7688      1.00000
     26     -11.7649      1.00000
     27     -11.7221      1.00000
     28     -11.7174      1.00000
     29     -11.6795      1.00000
     30     -11.6735      1.00000
     31     -11.6538      1.00000
     32     -11.6509      1.00000
     33      -7.9885      1.00000
     34      -7.9159      1.00000
     35      -7.2925      1.00000
     36      -7.1762      1.00000
     37      -6.8529      1.00000
     38      -6.8179      1.00000
     39      -6.7319      1.00000
     40      -6.7028      1.00000
     41      -2.3842      1.00000
     42      -2.2108      1.00000
     43      -1.4290      1.00000
     44      -1.3720      1.00000
     45      -0.5380      1.00000
     46      -0.4719      1.00000
     47      -0.2103      1.00000
     48      -0.1220      1.00000
     49       0.0847      1.00000
     50       0.1699      1.00000
     51       0.5178      1.00000
     52       0.5997      1.00000
     53       0.9686      1.00000
     54       1.0490      1.00000
     55       1.1338      1.00000
     56       1.2383      1.00000
     57       1.4300      1.00000
     58       1.4697      1.00000
     59       1.5361      1.00000
     60       1.5915      1.00000
     61       1.7828      1.00000
     62       1.8589      1.00000
     63       1.9257      1.00000
     64       1.9389      1.00000
     65       4.6748      0.00000
     66       4.8448      0.00000
     67       4.9375      0.00000
     68       5.0728      0.00000
     69       5.2657      0.00000
     70       5.3762      0.00000
     71       5.4932      0.00000
     72       5.6457      0.00000
     73       6.0300      0.00000
     74       6.1268      0.00000
     75       6.2449      0.00000
     76       6.3414      0.00000
     77       6.4659      0.00000
     78       6.5572      0.00000
     79       6.6358      0.00000
     80       6.7348      0.00000

 k-point    62 :       0.5000    0.4000    0.3333
  band No.  band energies     occupation 
      1     -39.5386      1.00000
      2     -39.5383      1.00000
      3     -39.5333      1.00000
      4     -39.5330      1.00000
      5     -28.9994      1.00000
      6     -28.9985      1.00000
      7     -28.9930      1.00000
      8     -28.9922      1.00000
      9     -19.7202      1.00000
     10     -19.7189      1.00000
     11     -19.7143      1.00000
     12     -19.7125      1.00000
     13     -19.6981      1.00000
     14     -19.6954      1.00000
     15     -19.6809      1.00000
     16     -19.6796      1.00000
     17     -19.6499      1.00000
     18     -19.6489      1.00000
     19     -19.6148      1.00000
     20     -19.6136      1.00000
     21     -11.8074      1.00000
     22     -11.8052      1.00000
     23     -11.7924      1.00000
     24     -11.7906      1.00000
     25     -11.7684      1.00000
     26     -11.7647      1.00000
     27     -11.7223      1.00000
     28     -11.7178      1.00000
     29     -11.6792      1.00000
     30     -11.6732      1.00000
     31     -11.6537      1.00000
     32     -11.6509      1.00000
     33      -7.9877      1.00000
     34      -7.9063      1.00000
     35      -7.2782      1.00000
     36      -7.1628      1.00000
     37      -6.8520      1.00000
     38      -6.8143      1.00000
     39      -6.7630      1.00000
     40      -6.7152      1.00000
     41      -2.3952      1.00000
     42      -2.2264      1.00000
     43      -1.4744      1.00000
     44      -1.4129      1.00000
     45      -0.3992      1.00000
     46      -0.3264      1.00000
     47      -0.2064      1.00000
     48      -0.1621      1.00000
     49       0.0640      1.00000
     50       0.1549      1.00000
     51       0.5698      1.00000
     52       0.6445      1.00000
     53       0.9811      1.00000
     54       1.0065      1.00000
     55       1.0381      1.00000
     56       1.1012      1.00000
     57       1.3994      1.00000
     58       1.4057      1.00000
     59       1.5622      1.00000
     60       1.6853      1.00000
     61       1.7842      1.00000
     62       1.8754      1.00000
     63       1.9468      1.00000
     64       1.9549      1.00000
     65       4.7692      0.00000
     66       4.8617      0.00000
     67       4.9704      0.00000
     68       5.1318      0.00000
     69       5.1719      0.00000
     70       5.1806      0.00000
     71       5.5092      0.00000
     72       5.6251      0.00000
     73       6.0350      0.00000
     74       6.0666      0.00000
     75       6.2498      0.00000
     76       6.3123      0.00000
     77       6.3712      0.00000
     78       6.5223      0.00000
     79       6.6803      0.00000
     80       6.7652      0.00000

 k-point    63 :      -0.3333    0.4000    0.3333
  band No.  band energies     occupation 
      1     -39.5386      1.00000
      2     -39.5383      1.00000
      3     -39.5333      1.00000
      4     -39.5330      1.00000
      5     -28.9994      1.00000
      6     -28.9986      1.00000
      7     -28.9930      1.00000
      8     -28.9922      1.00000
      9     -19.7202      1.00000
     10     -19.7189      1.00000
     11     -19.7143      1.00000
     12     -19.7125      1.00000
     13     -19.6981      1.00000
     14     -19.6954      1.00000
     15     -19.6809      1.00000
     16     -19.6795      1.00000
     17     -19.6499      1.00000
     18     -19.6489      1.00000
     19     -19.6149      1.00000
     20     -19.6136      1.00000
     21     -11.8060      1.00000
     22     -11.8040      1.00000
     23     -11.7923      1.00000
     24     -11.7904      1.00000
     25     -11.7684      1.00000
     26     -11.7651      1.00000
     27     -11.7225      1.00000
     28     -11.7183      1.00000
     29     -11.6794      1.00000
     30     -11.6732      1.00000
     31     -11.6537      1.00000
     32     -11.6510      1.00000
     33      -8.0278      1.00000
     34      -7.9314      1.00000
     35      -7.2494      1.00000
     36      -7.1293      1.00000
     37      -6.8423      1.00000
     38      -6.8220      1.00000
     39      -6.7462      1.00000
     40      -6.7049      1.00000
     41      -2.4016      1.00000
     42      -2.2355      1.00000
     43      -1.5490      1.00000
     44      -1.4982      1.00000
     45      -0.4293      1.00000
     46      -0.3056      1.00000
     47      -0.1816      1.00000
     48      -0.1515      1.00000
     49       0.0489      1.00000
     50       0.1624      1.00000
     51       0.5365      1.00000
     52       0.6891      1.00000
     53       0.9994      1.00000
     54       1.0434      1.00000
     55       1.1143      1.00000
     56       1.1466      1.00000
     57       1.3783      1.00000
     58       1.3960      1.00000
     59       1.5909      1.00000
     60       1.7226      1.00000
     61       1.7950      1.00000
     62       1.8842      1.00000
     63       1.9429      1.00000
     64       1.9842      1.00000
     65       4.8057      0.00000
     66       4.8832      0.00000
     67       4.9133      0.00000
     68       5.0804      0.00000
     69       5.2370      0.00000
     70       5.2767      0.00000
     71       5.5891      0.00000
     72       5.5990      0.00000
     73       5.9658      0.00000
     74       6.0058      0.00000
     75       6.1527      0.00000
     76       6.2444      0.00000
     77       6.3624      0.00000
     78       6.4693      0.00000
     79       6.6726      0.00000
     80       6.7314      0.00000

 k-point    64 :      -0.1667    0.4000    0.3333
  band No.  band energies     occupation 
      1     -39.5386      1.00000
      2     -39.5383      1.00000
      3     -39.5333      1.00000
      4     -39.5330      1.00000
      5     -28.9995      1.00000
      6     -28.9986      1.00000
      7     -28.9929      1.00000
      8     -28.9922      1.00000
      9     -19.7202      1.00000
     10     -19.7189      1.00000
     11     -19.7143      1.00000
     12     -19.7125      1.00000
     13     -19.6981      1.00000
     14     -19.6954      1.00000
     15     -19.6808      1.00000
     16     -19.6795      1.00000
     17     -19.6499      1.00000
     18     -19.6489      1.00000
     19     -19.6148      1.00000
     20     -19.6136      1.00000
     21     -11.8034      1.00000
     22     -11.8020      1.00000
     23     -11.7922      1.00000
     24     -11.7904      1.00000
     25     -11.7688      1.00000
     26     -11.7654      1.00000
     27     -11.7223      1.00000
     28     -11.7185      1.00000
     29     -11.6798      1.00000
     30     -11.6736      1.00000
     31     -11.6536      1.00000
     32     -11.6512      1.00000
     33      -8.0647      1.00000
     34      -7.9631      1.00000
     35      -7.2407      1.00000
     36      -7.1154      1.00000
     37      -6.8385      1.00000
     38      -6.8284      1.00000
     39      -6.6993      1.00000
     40      -6.6745      1.00000
     41      -2.3967      1.00000
     42      -2.2332      1.00000
     43      -1.6030      1.00000
     44      -1.5340      1.00000
     45      -0.5311      1.00000
     46      -0.4633      1.00000
     47      -0.1622      1.00000
     48      -0.1096      1.00000
     49       0.0820      1.00000
     50       0.1865      1.00000
     51       0.5412      1.00000
     52       0.6937      1.00000
     53       1.0183      1.00000
     54       1.0827      1.00000
     55       1.1501      1.00000
     56       1.2170      1.00000
     57       1.3595      1.00000
     58       1.4352      1.00000
     59       1.6554      1.00000
     60       1.7631      1.00000
     61       1.8312      1.00000
     62       1.8547      1.00000
     63       1.9602      1.00000
     64       1.9864      1.00000
     65       4.7192      0.00000
     66       4.8126      0.00000
     67       5.0382      0.00000
     68       5.1000      0.00000
     69       5.3614      0.00000
     70       5.4452      0.00000
     71       5.5381      0.00000
     72       5.5711      0.00000
     73       5.9180      0.00000
     74       5.9338      0.00000
     75       6.1796      0.00000
     76       6.2031      0.00000
     77       6.4557      0.00000
     78       6.5568      0.00000
     79       6.6778      0.00000
     80       6.6982      0.00000

 k-point    65 :      -0.0000   -0.4000    0.3333
  band No.  band energies     occupation 
      1     -39.5386      1.00000
      2     -39.5383      1.00000
      3     -39.5333      1.00000
      4     -39.5330      1.00000
      5     -28.9995      1.00000
      6     -28.9986      1.00000
      7     -28.9929      1.00000
      8     -28.9921      1.00000
      9     -19.7203      1.00000
     10     -19.7187      1.00000
     11     -19.7145      1.00000
     12     -19.7124      1.00000
     13     -19.6980      1.00000
     14     -19.6954      1.00000
     15     -19.6808      1.00000
     16     -19.6794      1.00000
     17     -19.6499      1.00000
     18     -19.6490      1.00000
     19     -19.6148      1.00000
     20     -19.6136      1.00000
     21     -11.8025      1.00000
     22     -11.8005      1.00000
     23     -11.7925      1.00000
     24     -11.7907      1.00000
     25     -11.7685      1.00000
     26     -11.7662      1.00000
     27     -11.7217      1.00000
     28     -11.7185      1.00000
     29     -11.6804      1.00000
     30     -11.6735      1.00000
     31     -11.6540      1.00000
     32     -11.6509      1.00000
     33      -8.0657      1.00000
     34      -7.9709      1.00000
     35      -7.2573      1.00000
     36      -7.1351      1.00000
     37      -6.8311      1.00000
     38      -6.8174      1.00000
     39      -6.6781      1.00000
     40      -6.6679      1.00000
     41      -2.3773      1.00000
     42      -2.2120      1.00000
     43      -1.5860      1.00000
     44      -1.5221      1.00000
     45      -0.6098      1.00000
     46      -0.5815      1.00000
     47      -0.1374      1.00000
     48      -0.0807      1.00000
     49       0.0799      1.00000
     50       0.1951      1.00000
     51       0.5773      1.00000
     52       0.7342      1.00000
     53       0.9644      1.00000
     54       1.0301      1.00000
     55       1.1488      1.00000
     56       1.1971      1.00000
     57       1.4165      1.00000
     58       1.4830      1.00000
     59       1.6899      1.00000
     60       1.7675      1.00000
     61       1.8311      1.00000
     62       1.8782      1.00000
     63       1.9095      1.00000
     64       1.9536      1.00000
     65       4.7490      0.00000
     66       4.8074      0.00000
     67       5.1078      0.00000
     68       5.1614      0.00000
     69       5.3113      0.00000
     70       5.4044      0.00000
     71       5.6743      0.00000
     72       5.7079      0.00000
     73       5.8241      0.00000
     74       5.8894      0.00000
     75       6.1071      0.00000
     76       6.2200      0.00000
     77       6.4053      0.00000
     78       6.5563      0.00000
     79       6.5824      0.00000
     80       6.7117      0.00000

 k-point    66 :       0.1667   -0.4000    0.3333
  band No.  band energies     occupation 
      1     -39.5386      1.00000
      2     -39.5383      1.00000
      3     -39.5333      1.00000
      4     -39.5330      1.00000
      5     -28.9995      1.00000
      6     -28.9986      1.00000
      7     -28.9930      1.00000
      8     -28.9922      1.00000
      9     -19.7203      1.00000
     10     -19.7186      1.00000
     11     -19.7145      1.00000
     12     -19.7124      1.00000
     13     -19.6980      1.00000
     14     -19.6954      1.00000
     15     -19.6809      1.00000
     16     -19.6794      1.00000
     17     -19.6499      1.00000
     18     -19.6490      1.00000
     19     -19.6148      1.00000
     20     -19.6136      1.00000
     21     -11.8046      1.00000
     22     -11.8020      1.00000
     23     -11.7921      1.00000
     24     -11.7904      1.00000
     25     -11.7686      1.00000
     26     -11.7659      1.00000
     27     -11.7215      1.00000
     28     -11.7179      1.00000
     29     -11.6802      1.00000
     30     -11.6734      1.00000
     31     -11.6541      1.00000
     32     -11.6508      1.00000
     33      -8.0295      1.00000
     34      -7.9486      1.00000
     35      -7.2801      1.00000
     36      -7.1629      1.00000
     37      -6.8357      1.00000
     38      -6.8121      1.00000
     39      -6.6946      1.00000
     40      -6.6874      1.00000
     41      -2.3717      1.00000
     42      -2.1991      1.00000
     43      -1.4856      1.00000
     44      -1.4493      1.00000
     45      -0.6330      1.00000
     46      -0.5803      1.00000
     47      -0.1578      1.00000
     48      -0.0893      1.00000
     49       0.0641      1.00000
     50       0.1941      1.00000
     51       0.5409      1.00000
     52       0.6862      1.00000
     53       0.9484      1.00000
     54       1.0135      1.00000
     55       1.1700      1.00000
     56       1.2972      1.00000
     57       1.4207      1.00000
     58       1.4855      1.00000
     59       1.6347      1.00000
     60       1.6643      1.00000
     61       1.8029      1.00000
     62       1.8590      1.00000
     63       1.8929      1.00000
     64       1.9266      1.00000
     65       4.7225      0.00000
     66       4.8196      0.00000
     67       5.0121      0.00000
     68       5.1001      0.00000
     69       5.3114      0.00000
     70       5.4444      0.00000
     71       5.6259      0.00000
     72       5.7271      0.00000
     73       5.9401      0.00000
     74       5.9962      0.00000
     75       6.1067      0.00000
     76       6.2203      0.00000
     77       6.4234      0.00000
     78       6.4445      0.00000
     79       6.6899      0.00000
     80       6.7615      0.00000

 k-point    67 :       0.3333   -0.4000    0.3333
  band No.  band energies     occupation 
      1     -39.5386      1.00000
      2     -39.5383      1.00000
      3     -39.5333      1.00000
      4     -39.5330      1.00000
      5     -28.9994      1.00000
      6     -28.9986      1.00000
      7     -28.9930      1.00000
      8     -28.9922      1.00000
      9     -19.7203      1.00000
     10     -19.7186      1.00000
     11     -19.7145      1.00000
     12     -19.7124      1.00000
     13     -19.6980      1.00000
     14     -19.6954      1.00000
     15     -19.6809      1.00000
     16     -19.6795      1.00000
     17     -19.6498      1.00000
     18     -19.6490      1.00000
     19     -19.6148      1.00000
     20     -19.6136      1.00000
     21     -11.8070      1.00000
     22     -11.8043      1.00000
     23     -11.7921      1.00000
     24     -11.7902      1.00000
     25     -11.7683      1.00000
     26     -11.7655      1.00000
     27     -11.7217      1.00000
     28     -11.7177      1.00000
     29     -11.6798      1.00000
     30     -11.6731      1.00000
     31     -11.6541      1.00000
     32     -11.6507      1.00000
     33      -7.9886      1.00000
     34      -7.9158      1.00000
     35      -7.2925      1.00000
     36      -7.1763      1.00000
     37      -6.8531      1.00000
     38      -6.8179      1.00000
     39      -6.7312      1.00000
     40      -6.7034      1.00000
     41      -2.3840      1.00000
     42      -2.2110      1.00000
     43      -1.4290      1.00000
     44      -1.3719      1.00000
     45      -0.5381      1.00000
     46      -0.4717      1.00000
     47      -0.2106      1.00000
     48      -0.1220      1.00000
     49       0.0846      1.00000
     50       0.1702      1.00000
     51       0.5176      1.00000
     52       0.5998      1.00000
     53       0.9686      1.00000
     54       1.0488      1.00000
     55       1.1335      1.00000
     56       1.2390      1.00000
     57       1.4302      1.00000
     58       1.4695      1.00000
     59       1.5357      1.00000
     60       1.5916      1.00000
     61       1.7825      1.00000
     62       1.8592      1.00000
     63       1.9257      1.00000
     64       1.9389      1.00000
     65       4.6747      0.00000
     66       4.8449      0.00000
     67       4.9374      0.00000
     68       5.0725      0.00000
     69       5.2662      0.00000
     70       5.3759      0.00000
     71       5.4937      0.00000
     72       5.6455      0.00000
     73       6.0298      0.00000
     74       6.1274      0.00000
     75       6.2443      0.00000
     76       6.3416      0.00000
     77       6.4654      0.00000
     78       6.5573      0.00000
     79       6.6364      0.00000
     80       6.7352      0.00000

 k-point    68 :       0.5000   -0.4000    0.3333
  band No.  band energies     occupation 
      1     -39.5386      1.00000
      2     -39.5383      1.00000
      3     -39.5333      1.00000
      4     -39.5330      1.00000
      5     -28.9994      1.00000
      6     -28.9985      1.00000
      7     -28.9930      1.00000
      8     -28.9922      1.00000
      9     -19.7203      1.00000
     10     -19.7186      1.00000
     11     -19.7145      1.00000
     12     -19.7124      1.00000
     13     -19.6980      1.00000
     14     -19.6954      1.00000
     15     -19.6810      1.00000
     16     -19.6795      1.00000
     17     -19.6498      1.00000
     18     -19.6490      1.00000
     19     -19.6148      1.00000
     20     -19.6136      1.00000
     21     -11.8076      1.00000
     22     -11.8049      1.00000
     23     -11.7925      1.00000
     24     -11.7905      1.00000
     25     -11.7678      1.00000
     26     -11.7654      1.00000
     27     -11.7220      1.00000
     28     -11.7181      1.00000
     29     -11.6795      1.00000
     30     -11.6728      1.00000
     31     -11.6541      1.00000
     32     -11.6507      1.00000
     33      -7.9878      1.00000
     34      -7.9062      1.00000
     35      -7.2782      1.00000
     36      -7.1629      1.00000
     37      -6.8523      1.00000
     38      -6.8144      1.00000
     39      -6.7622      1.00000
     40      -6.7157      1.00000
     41      -2.3951      1.00000
     42      -2.2266      1.00000
     43      -1.4744      1.00000
     44      -1.4129      1.00000
     45      -0.3992      1.00000
     46      -0.3261      1.00000
     47      -0.2067      1.00000
     48      -0.1620      1.00000
     49       0.0637      1.00000
     50       0.1553      1.00000
     51       0.5697      1.00000
     52       0.6445      1.00000
     53       0.9815      1.00000
     54       1.0060      1.00000
     55       1.0379      1.00000
     56       1.1015      1.00000
     57       1.3997      1.00000
     58       1.4056      1.00000
     59       1.5621      1.00000
     60       1.6851      1.00000
     61       1.7839      1.00000
     62       1.8758      1.00000
     63       1.9469      1.00000
     64       1.9548      1.00000
     65       4.7693      0.00000
     66       4.8615      0.00000
     67       4.9700      0.00000
     68       5.1316      0.00000
     69       5.1721      0.00000
     70       5.1807      0.00000
     71       5.5095      0.00000
     72       5.6250      0.00000
     73       6.0347      0.00000
     74       6.0666      0.00000
     75       6.2499      0.00000
     76       6.3126      0.00000
     77       6.3707      0.00000
     78       6.5226      0.00000
     79       6.6800      0.00000
     80       6.7653      0.00000

 k-point    69 :      -0.3333   -0.4000    0.3333
  band No.  band energies     occupation 
      1     -39.5386      1.00000
      2     -39.5383      1.00000
      3     -39.5333      1.00000
      4     -39.5330      1.00000
      5     -28.9994      1.00000
      6     -28.9986      1.00000
      7     -28.9930      1.00000
      8     -28.9922      1.00000
      9     -19.7203      1.00000
     10     -19.7186      1.00000
     11     -19.7145      1.00000
     12     -19.7124      1.00000
     13     -19.6980      1.00000
     14     -19.6954      1.00000
     15     -19.6809      1.00000
     16     -19.6795      1.00000
     17     -19.6498      1.00000
     18     -19.6490      1.00000
     19     -19.6148      1.00000
     20     -19.6136      1.00000
     21     -11.8062      1.00000
     22     -11.8037      1.00000
     23     -11.7924      1.00000
     24     -11.7903      1.00000
     25     -11.7678      1.00000
     26     -11.7657      1.00000
     27     -11.7221      1.00000
     28     -11.7186      1.00000
     29     -11.6797      1.00000
     30     -11.6728      1.00000
     31     -11.6540      1.00000
     32     -11.6508      1.00000
     33      -8.0279      1.00000
     34      -7.9313      1.00000
     35      -7.2493      1.00000
     36      -7.1293      1.00000
     37      -6.8425      1.00000
     38      -6.8219      1.00000
     39      -6.7461      1.00000
     40      -6.7049      1.00000
     41      -2.4015      1.00000
     42      -2.2356      1.00000
     43      -1.5492      1.00000
     44      -1.4981      1.00000
     45      -0.4293      1.00000
     46      -0.3054      1.00000
     47      -0.1817      1.00000
     48      -0.1513      1.00000
     49       0.0485      1.00000
     50       0.1626      1.00000
     51       0.5365      1.00000
     52       0.6889      1.00000
     53       0.9993      1.00000
     54       1.0435      1.00000
     55       1.1139      1.00000
     56       1.1473      1.00000
     57       1.3784      1.00000
     58       1.3959      1.00000
     59       1.5909      1.00000
     60       1.7225      1.00000
     61       1.7946      1.00000
     62       1.8844      1.00000
     63       1.9432      1.00000
     64       1.9841      1.00000
     65       4.8051      0.00000
     66       4.8839      0.00000
     67       4.9137      0.00000
     68       5.0803      0.00000
     69       5.2366      0.00000
     70       5.2768      0.00000
     71       5.5899      0.00000
     72       5.5982      0.00000
     73       5.9657      0.00000
     74       6.0055      0.00000
     75       6.1534      0.00000
     76       6.2436      0.00000
     77       6.3624      0.00000
     78       6.4694      0.00000
     79       6.6725      0.00000
     80       6.7317      0.00000

 k-point    70 :      -0.1667   -0.4000    0.3333
  band No.  band energies     occupation 
      1     -39.5386      1.00000
      2     -39.5383      1.00000
      3     -39.5333      1.00000
      4     -39.5330      1.00000
      5     -28.9995      1.00000
      6     -28.9986      1.00000
      7     -28.9930      1.00000
      8     -28.9922      1.00000
      9     -19.7203      1.00000
     10     -19.7186      1.00000
     11     -19.7145      1.00000
     12     -19.7124      1.00000
     13     -19.6980      1.00000
     14     -19.6954      1.00000
     15     -19.6809      1.00000
     16     -19.6794      1.00000
     17     -19.6499      1.00000
     18     -19.6490      1.00000
     19     -19.6148      1.00000
     20     -19.6136      1.00000
     21     -11.8037      1.00000
     22     -11.8017      1.00000
     23     -11.7924      1.00000
     24     -11.7902      1.00000
     25     -11.7682      1.00000
     26     -11.7661      1.00000
     27     -11.7220      1.00000
     28     -11.7188      1.00000
     29     -11.6801      1.00000
     30     -11.6732      1.00000
     31     -11.6540      1.00000
     32     -11.6509      1.00000
     33      -8.0649      1.00000
     34      -7.9630      1.00000
     35      -7.2407      1.00000
     36      -7.1154      1.00000
     37      -6.8385      1.00000
     38      -6.8283      1.00000
     39      -6.6996      1.00000
     40      -6.6743      1.00000
     41      -2.3966      1.00000
     42      -2.2333      1.00000
     43      -1.6034      1.00000
     44      -1.5337      1.00000
     45      -0.5313      1.00000
     46      -0.4629      1.00000
     47      -0.1618      1.00000
     48      -0.1101      1.00000
     49       0.0820      1.00000
     50       0.1866      1.00000
     51       0.5410      1.00000
     52       0.6937      1.00000
     53       1.0180      1.00000
     54       1.0828      1.00000
     55       1.1507      1.00000
     56       1.2168      1.00000
     57       1.3596      1.00000
     58       1.4353      1.00000
     59       1.6550      1.00000
     60       1.7632      1.00000
     61       1.8312      1.00000
     62       1.8549      1.00000
     63       1.9603      1.00000
     64       1.9864      1.00000
     65       4.7197      0.00000
     66       4.8119      0.00000
     67       5.0387      0.00000
     68       5.0997      0.00000
     69       5.3619      0.00000
     70       5.4444      0.00000
     71       5.5382      0.00000
     72       5.5712      0.00000
     73       5.9179      0.00000
     74       5.9334      0.00000
     75       6.1792      0.00000
     76       6.2040      0.00000
     77       6.4559      0.00000
     78       6.5571      0.00000
     79       6.6609      0.00000
     80       6.6993      0.00000

 k-point    71 :      -0.0000   -0.2000    0.3333
  band No.  band energies     occupation 
      1     -39.5387      1.00000
      2     -39.5382      1.00000
      3     -39.5334      1.00000
      4     -39.5330      1.00000
      5     -28.9998      1.00000
      6     -28.9983      1.00000
      7     -28.9933      1.00000
      8     -28.9919      1.00000
      9     -19.7215      1.00000
     10     -19.7197      1.00000
     11     -19.7128      1.00000
     12     -19.7101      1.00000
     13     -19.7011      1.00000
     14     -19.6938      1.00000
     15     -19.6820      1.00000
     16     -19.6784      1.00000
     17     -19.6506      1.00000
     18     -19.6483      1.00000
     19     -19.6158      1.00000
     20     -19.6126      1.00000
     21     -11.8019      1.00000
     22     -11.7979      1.00000
     23     -11.7936      1.00000
     24     -11.7893      1.00000
     25     -11.7732      1.00000
     26     -11.7690      1.00000
     27     -11.7162      1.00000
     28     -11.7103      1.00000
     29     -11.6915      1.00000
     30     -11.6743      1.00000
     31     -11.6540      1.00000
     32     -11.6483      1.00000
     33      -8.1389      1.00000
     34      -7.8900      1.00000
     35      -7.3486      1.00000
     36      -7.0150      1.00000
     37      -6.8625      1.00000
     38      -6.8170      1.00000
     39      -6.6831      1.00000
     40      -6.6531      1.00000
     41      -2.5140      1.00000
     42      -2.0579      1.00000
     43      -1.6801      1.00000
     44      -1.4959      1.00000
     45      -0.7099      1.00000
     46      -0.6803      1.00000
     47      -0.2025      1.00000
     48       0.0103      1.00000
     49       0.1900      1.00000
     50       0.3697      1.00000
     51       0.5434      1.00000
     52       0.8111      1.00000
     53       0.9275      1.00000
     54       0.9449      1.00000
     55       1.1815      1.00000
     56       1.2493      1.00000
     57       1.3875      1.00000
     58       1.5309      1.00000
     59       1.6626      1.00000
     60       1.7294      1.00000
     61       1.8245      1.00000
     62       1.8983      1.00000
     63       1.9413      1.00000
     64       2.0205      1.00000
     65       4.6518      0.00000
     66       4.7309      0.00000
     67       5.0602      0.00000
     68       5.1123      0.00000
     69       5.3539      0.00000
     70       5.5882      0.00000
     71       5.6108      0.00000
     72       5.7503      0.00000
     73       5.8486      0.00000
     74       5.9656      0.00000
     75       6.0335      0.00000
     76       6.2028      0.00000
     77       6.3141      0.00000
     78       6.4253      0.00000
     79       6.5774      0.00000
     80       6.6540      0.00000

 k-point    72 :       0.1667   -0.2000    0.3333
  band No.  band energies     occupation 
      1     -39.5387      1.00000
      2     -39.5382      1.00000
      3     -39.5334      1.00000
      4     -39.5330      1.00000
      5     -28.9997      1.00000
      6     -28.9982      1.00000
      7     -28.9933      1.00000
      8     -28.9919      1.00000
      9     -19.7215      1.00000
     10     -19.7197      1.00000
     11     -19.7128      1.00000
     12     -19.7101      1.00000
     13     -19.7011      1.00000
     14     -19.6938      1.00000
     15     -19.6820      1.00000
     16     -19.6784      1.00000
     17     -19.6506      1.00000
     18     -19.6483      1.00000
     19     -19.6158      1.00000
     20     -19.6126      1.00000
     21     -11.8044      1.00000
     22     -11.7980      1.00000
     23     -11.7935      1.00000
     24     -11.7895      1.00000
     25     -11.7732      1.00000
     26     -11.7685      1.00000
     27     -11.7164      1.00000
     28     -11.7098      1.00000
     29     -11.6914      1.00000
     30     -11.6744      1.00000
     31     -11.6542      1.00000
     32     -11.6479      1.00000
     33      -8.0948      1.00000
     34      -7.8843      1.00000
     35      -7.3633      1.00000
     36      -7.0405      1.00000
     37      -6.8733      1.00000
     38      -6.7976      1.00000
     39      -6.7009      1.00000
     40      -6.6810      1.00000
     41      -2.5112      1.00000
     42      -2.0312      1.00000
     43      -1.5849      1.00000
     44      -1.4554      1.00000
     45      -0.7380      1.00000
     46      -0.6594      1.00000
     47      -0.1391      1.00000
     48      -0.0507      1.00000
     49       0.1830      1.00000
     50       0.3202      1.00000
     51       0.5404      1.00000
     52       0.7678      1.00000
     53       0.8659      1.00000
     54       1.0447      1.00000
     55       1.1235      1.00000
     56       1.3168      1.00000
     57       1.4001      1.00000
     58       1.5517      1.00000
     59       1.5977      1.00000
     60       1.6696      1.00000
     61       1.8269      1.00000
     62       1.8615      1.00000
     63       1.8761      1.00000
     64       1.9754      1.00000
     65       4.5875      0.00000
     66       4.7218      0.00000
     67       5.0725      0.00000
     68       5.1464      0.00000
     69       5.3065      0.00000
     70       5.5776      0.00000
     71       5.5955      0.00000
     72       5.7915      0.00000
     73       5.8894      0.00000
     74       5.9734      0.00000
     75       6.0609      0.00000
     76       6.2551      0.00000
     77       6.3350      0.00000
     78       6.4992      0.00000
     79       6.6386      0.00000
     80       6.7288      0.00000

 k-point    73 :       0.3333   -0.2000    0.3333
  band No.  band energies     occupation 
      1     -39.5387      1.00000
      2     -39.5382      1.00000
      3     -39.5334      1.00000
      4     -39.5330      1.00000
      5     -28.9997      1.00000
      6     -28.9982      1.00000
      7     -28.9934      1.00000
      8     -28.9919      1.00000
      9     -19.7215      1.00000
     10     -19.7197      1.00000
     11     -19.7128      1.00000
     12     -19.7101      1.00000
     13     -19.7011      1.00000
     14     -19.6938      1.00000
     15     -19.6821      1.00000
     16     -19.6785      1.00000
     17     -19.6505      1.00000
     18     -19.6483      1.00000
     19     -19.6158      1.00000
     20     -19.6126      1.00000
     21     -11.8069      1.00000
     22     -11.7999      1.00000
     23     -11.7941      1.00000
     24     -11.7893      1.00000
     25     -11.7728      1.00000
     26     -11.7682      1.00000
     27     -11.7165      1.00000
     28     -11.7090      1.00000
     29     -11.6911      1.00000
     30     -11.6746      1.00000
     31     -11.6540      1.00000
     32     -11.6476      1.00000
     33      -8.0484      1.00000
     34      -7.8593      1.00000
     35      -7.3755      1.00000
     36      -7.0560      1.00000
     37      -6.8897      1.00000
     38      -6.8021      1.00000
     39      -6.7418      1.00000
     40      -6.6895      1.00000
     41      -2.5241      1.00000
     42      -2.0408      1.00000
     43      -1.5743      1.00000
     44      -1.3794      1.00000
     45      -0.6209      1.00000
     46      -0.5512      1.00000
     47      -0.1002      1.00000
     48      -0.0770      1.00000
     49       0.1480      1.00000
     50       0.2533      1.00000
     51       0.5668      1.00000
     52       0.7482      1.00000
     53       0.7992      1.00000
     54       1.0459      1.00000
     55       1.1044      1.00000
     56       1.2575      1.00000
     57       1.4078      1.00000
     58       1.4574      1.00000
     59       1.6020      1.00000
     60       1.6654      1.00000
     61       1.7311      1.00000
     62       1.8833      1.00000
     63       1.9012      1.00000
     64       1.9428      1.00000
     65       4.5172      0.00000
     66       4.7649      0.00000
     67       4.9391      0.00000
     68       5.2676      0.00000
     69       5.3298      0.00000
     70       5.4196      0.00000
     71       5.5061      0.00000
     72       5.7234      0.00000
     73       5.8863      0.00000
     74       6.1443      0.00000
     75       6.1622      0.00000
     76       6.3224      0.00000
     77       6.4023      0.00000
     78       6.6114      0.00000
     79       6.6576      0.00000
     80       6.8213      0.00000

 k-point    74 :       0.5000   -0.2000    0.3333
  band No.  band energies     occupation 
      1     -39.5387      1.00000
      2     -39.5382      1.00000
      3     -39.5334      1.00000
      4     -39.5330      1.00000
      5     -28.9997      1.00000
      6     -28.9981      1.00000
      7     -28.9934      1.00000
      8     -28.9920      1.00000
      9     -19.7215      1.00000
     10     -19.7197      1.00000
     11     -19.7128      1.00000
     12     -19.7101      1.00000
     13     -19.7011      1.00000
     14     -19.6938      1.00000
     15     -19.6821      1.00000
     16     -19.6785      1.00000
     17     -19.6505      1.00000
     18     -19.6483      1.00000
     19     -19.6159      1.00000
     20     -19.6126      1.00000
     21     -11.8076      1.00000
     22     -11.8007      1.00000
     23     -11.7945      1.00000
     24     -11.7892      1.00000
     25     -11.7724      1.00000
     26     -11.7684      1.00000
     27     -11.7164      1.00000
     28     -11.7089      1.00000
     29     -11.6910      1.00000
     30     -11.6747      1.00000
     31     -11.6537      1.00000
     32     -11.6477      1.00000
     33      -8.0522      1.00000
     34      -7.8386      1.00000
     35      -7.3638      1.00000
     36      -7.0471      1.00000
     37      -6.8912      1.00000
     38      -6.8420      1.00000
     39      -6.7514      1.00000
     40      -6.6758      1.00000
     41      -2.5352      1.00000
     42      -2.0689      1.00000
     43      -1.6142      1.00000
     44      -1.4186      1.00000
     45      -0.4991      1.00000
     46      -0.4321      1.00000
     47      -0.1633      1.00000
     48      -0.0337      1.00000
     49       0.1767      1.00000
     50       0.2968      1.00000
     51       0.6297      1.00000
     52       0.6870      1.00000
     53       0.8299      1.00000
     54       0.9889      1.00000
     55       1.0577      1.00000
     56       1.0969      1.00000
     57       1.3812      1.00000
     58       1.4210      1.00000
     59       1.5555      1.00000
     60       1.6803      1.00000
     61       1.7529      1.00000
     62       1.9224      1.00000
     63       1.9535      1.00000
     64       1.9940      1.00000
     65       4.5836      0.00000
     66       4.7382      0.00000
     67       4.9589      0.00000
     68       5.1992      0.00000
     69       5.2543      0.00000
     70       5.3405      0.00000
     71       5.6084      0.00000
     72       5.7361      0.00000
     73       5.9643      0.00000
     74       6.0485      0.00000
     75       6.1036      0.00000
     76       6.2965      0.00000
     77       6.4121      0.00000
     78       6.6217      0.00000
     79       6.7062      0.00000
     80       6.7878      0.00000

 k-point    75 :      -0.3333   -0.2000    0.3333
  band No.  band energies     occupation 
      1     -39.5387      1.00000
      2     -39.5382      1.00000
      3     -39.5334      1.00000
      4     -39.5330      1.00000
      5     -28.9997      1.00000
      6     -28.9982      1.00000
      7     -28.9934      1.00000
      8     -28.9919      1.00000
      9     -19.7215      1.00000
     10     -19.7197      1.00000
     11     -19.7129      1.00000
     12     -19.7101      1.00000
     13     -19.7011      1.00000
     14     -19.6938      1.00000
     15     -19.6821      1.00000
     16     -19.6785      1.00000
     17     -19.6506      1.00000
     18     -19.6483      1.00000
     19     -19.6159      1.00000
     20     -19.6126      1.00000
     21     -11.8062      1.00000
     22     -11.7999      1.00000
     23     -11.7942      1.00000
     24     -11.7887      1.00000
     25     -11.7727      1.00000
     26     -11.7690      1.00000
     27     -11.7162      1.00000
     28     -11.7094      1.00000
     29     -11.6911      1.00000
     30     -11.6746      1.00000
     31     -11.6536      1.00000
     32     -11.6481      1.00000
     33      -8.1010      1.00000
     34      -7.8453      1.00000
     35      -7.3441      1.00000
     36      -7.0152      1.00000
     37      -6.8743      1.00000
     38      -6.8595      1.00000
     39      -6.7385      1.00000
     40      -6.6578      1.00000
     41      -2.5415      1.00000
     42      -2.0859      1.00000
     43      -1.6590      1.00000
     44      -1.4984      1.00000
     45      -0.5651      1.00000
     46      -0.4014      1.00000
     47      -0.2112      1.00000
     48       0.0089      1.00000
     49       0.1536      1.00000
     50       0.3630      1.00000
     51       0.5567      1.00000
     52       0.8133      1.00000
     53       0.8842      1.00000
     54       1.0155      1.00000
     55       1.0334      1.00000
     56       1.1144      1.00000
     57       1.3963      1.00000
     58       1.4623      1.00000
     59       1.5137      1.00000
     60       1.7070      1.00000
     61       1.7735      1.00000
     62       1.9211      1.00000
     63       1.9691      1.00000
     64       2.0595      1.00000
     65       4.6678      0.00000
     66       4.7712      0.00000
     67       4.8922      0.00000
     68       5.1370      0.00000
     69       5.2329      0.00000
     70       5.3706      0.00000
     71       5.7471      0.00000
     72       5.7727      0.00000
     73       5.8598      0.00000
     74       5.9559      0.00000
     75       6.1147      0.00000
     76       6.2207      0.00000
     77       6.3998      0.00000
     78       6.5315      0.00000
     79       6.6758      0.00000
     80       6.6868      0.00000

 k-point    76 :      -0.1667   -0.2000    0.3333
  band No.  band energies     occupation 
      1     -39.5387      1.00000
      2     -39.5382      1.00000
      3     -39.5334      1.00000
      4     -39.5330      1.00000
      5     -28.9997      1.00000
      6     -28.9982      1.00000
      7     -28.9933      1.00000
      8     -28.9919      1.00000
      9     -19.7215      1.00000
     10     -19.7197      1.00000
     11     -19.7128      1.00000
     12     -19.7101      1.00000
     13     -19.7011      1.00000
     14     -19.6938      1.00000
     15     -19.6820      1.00000
     16     -19.6784      1.00000
     17     -19.6506      1.00000
     18     -19.6483      1.00000
     19     -19.6158      1.00000
     20     -19.6126      1.00000
     21     -11.8032      1.00000
     22     -11.7986      1.00000
     23     -11.7940      1.00000
     24     -11.7884      1.00000
     25     -11.7732      1.00000
     26     -11.7692      1.00000
     27     -11.7162      1.00000
     28     -11.7101      1.00000
     29     -11.6914      1.00000
     30     -11.6744      1.00000
     31     -11.6537      1.00000
     32     -11.6484      1.00000
     33      -8.1415      1.00000
     34      -7.8715      1.00000
     35      -7.3404      1.00000
     36      -7.0015      1.00000
     37      -6.8607      1.00000
     38      -6.8417      1.00000
     39      -6.7054      1.00000
     40      -6.6455      1.00000
     41      -2.5337      1.00000
     42      -2.0836      1.00000
     43      -1.7088      1.00000
     44      -1.5070      1.00000
     45      -0.6505      1.00000
     46      -0.5506      1.00000
     47      -0.2246      1.00000
     48       0.0180      1.00000
     49       0.1642      1.00000
     50       0.3645      1.00000
     51       0.5561      1.00000
     52       0.8532      1.00000
     53       0.8786      1.00000
     54       0.9758      1.00000
     55       1.1900      1.00000
     56       1.2151      1.00000
     57       1.3490      1.00000
     58       1.4759      1.00000
     59       1.6291      1.00000
     60       1.7959      1.00000
     61       1.8394      1.00000
     62       1.8669      1.00000
     63       1.9368      1.00000
     64       2.0500      1.00000
     65       4.6407      0.00000
     66       4.7581      0.00000
     67       5.0136      0.00000
     68       5.1287      0.00000
     69       5.2980      0.00000
     70       5.4999      0.00000
     71       5.5936      0.00000
     72       5.6750      0.00000
     73       5.8698      0.00000
     74       5.9095      0.00000
     75       6.1885      0.00000
     76       6.2339      0.00000
     77       6.3481      0.00000
     78       6.5491      0.00000
     79       6.6135      0.00000
     80       6.6885      0.00000

 k-point    77 :      -0.0000   -0.0000    0.5000
  band No.  band energies     occupation 
      1     -39.5386      1.00000
      2     -39.5383      1.00000
      3     -39.5333      1.00000
      4     -39.5331      1.00000
      5     -28.9993      1.00000
      6     -28.9986      1.00000
      7     -28.9929      1.00000
      8     -28.9923      1.00000
      9     -19.7221      1.00000
     10     -19.7219      1.00000
     11     -19.7100      1.00000
     12     -19.7099      1.00000
     13     -19.6978      1.00000
     14     -19.6976      1.00000
     15     -19.6804      1.00000
     16     -19.6802      1.00000
     17     -19.6496      1.00000
     18     -19.6493      1.00000
     19     -19.6143      1.00000
     20     -19.6139      1.00000
     21     -11.7975      1.00000
     22     -11.7971      1.00000
     23     -11.7929      1.00000
     24     -11.7924      1.00000
     25     -11.7780      1.00000
     26     -11.7775      1.00000
     27     -11.7057      1.00000
     28     -11.7054      1.00000
     29     -11.6907      1.00000
     30     -11.6905      1.00000
     31     -11.6486      1.00000
     32     -11.6484      1.00000
     33      -7.9945      1.00000
     34      -7.9936      1.00000
     35      -7.1752      1.00000
     36      -7.1751      1.00000
     37      -6.8884      1.00000
     38      -6.8884      1.00000
     39      -6.6653      1.00000
     40      -6.6643      1.00000
     41      -2.1209      1.00000
     42      -2.1206      1.00000
     43      -1.6969      1.00000
     44      -1.6963      1.00000
     45      -0.7621      1.00000
     46      -0.7616      1.00000
     47      -0.0149      1.00000
     48      -0.0148      1.00000
     49       0.3943      1.00000
     50       0.3946      1.00000
     51       0.5863      1.00000
     52       0.5867      1.00000
     53       0.8857      1.00000
     54       0.8858      1.00000
     55       1.1624      1.00000
     56       1.1624      1.00000
     57       1.4110      1.00000
     58       1.4112      1.00000
     59       1.6551      1.00000
     60       1.6552      1.00000
     61       1.8578      1.00000
     62       1.8580      1.00000
     63       2.0222      1.00000
     64       2.0222      1.00000
     65       4.6877      0.00000
     66       4.6890      0.00000
     67       5.2063      0.00000
     68       5.2070      0.00000
     69       5.2844      0.00000
     70       5.2851      0.00000
     71       5.7217      0.00000
     72       5.7224      0.00000
     73       5.8837      0.00000
     74       5.8838      0.00000
     75       6.0945      0.00000
     76       6.0945      0.00000
     77       6.3876      0.00000
     78       6.3886      0.00000
     79       6.7365      0.00000
     80       6.7394      0.00000

 k-point    78 :       0.1667    0.0000    0.5000
  band No.  band energies     occupation 
      1     -39.5386      1.00000
      2     -39.5383      1.00000
      3     -39.5333      1.00000
      4     -39.5331      1.00000
      5     -28.9993      1.00000
      6     -28.9986      1.00000
      7     -28.9930      1.00000
      8     -28.9923      1.00000
      9     -19.7221      1.00000
     10     -19.7219      1.00000
     11     -19.7100      1.00000
     12     -19.7099      1.00000
     13     -19.6978      1.00000
     14     -19.6976      1.00000
     15     -19.6805      1.00000
     16     -19.6802      1.00000
     17     -19.6496      1.00000
     18     -19.6493      1.00000
     19     -19.6143      1.00000
     20     -19.6139      1.00000
     21     -11.7996      1.00000
     22     -11.7981      1.00000
     23     -11.7928      1.00000
     24     -11.7915      1.00000
     25     -11.7784      1.00000
     26     -11.7769      1.00000
     27     -11.7051      1.00000
     28     -11.7049      1.00000
     29     -11.6912      1.00000
     30     -11.6907      1.00000
     31     -11.6487      1.00000
     32     -11.6480      1.00000
     33      -8.0040      1.00000
     34      -7.9545      1.00000
     35      -7.1868      1.00000
     36      -7.1710      1.00000
     37      -6.9266      1.00000
     38      -6.8523      1.00000
     39      -6.6871      1.00000
     40      -6.6713      1.00000
     41      -2.1490      1.00000
     42      -2.1300      1.00000
     43      -1.6948      1.00000
     44      -1.6749      1.00000
     45      -0.7135      1.00000
     46      -0.6760      1.00000
     47      -0.0543      1.00000
     48       0.0200      1.00000
     49       0.3677      1.00000
     50       0.3756      1.00000
     51       0.5513      1.00000
     52       0.6123      1.00000
     53       0.8483      1.00000
     54       0.9568      1.00000
     55       1.1456      1.00000
     56       1.2280      1.00000
     57       1.2564      1.00000
     58       1.4148      1.00000
     59       1.6832      1.00000
     60       1.6914      1.00000
     61       1.8486      1.00000
     62       1.8912      1.00000
     63       1.9443      1.00000
     64       1.9753      1.00000
     65       4.6777      0.00000
     66       4.7022      0.00000
     67       5.1222      0.00000
     68       5.2007      0.00000
     69       5.2330      0.00000
     70       5.3662      0.00000
     71       5.6571      0.00000
     72       5.7122      0.00000
     73       5.8699      0.00000
     74       5.9428      0.00000
     75       6.0437      0.00000
     76       6.1460      0.00000
     77       6.3270      0.00000
     78       6.5871      0.00000
     79       6.7402      0.00000
     80       6.8681      0.00000

 k-point    79 :       0.3333   -0.0000    0.5000
  band No.  band energies     occupation 
      1     -39.5386      1.00000
      2     -39.5383      1.00000
      3     -39.5333      1.00000
      4     -39.5331      1.00000
      5     -28.9992      1.00000
      6     -28.9985      1.00000
      7     -28.9930      1.00000
      8     -28.9924      1.00000
      9     -19.7220      1.00000
     10     -19.7219      1.00000
     11     -19.7100      1.00000
     12     -19.7099      1.00000
     13     -19.6978      1.00000
     14     -19.6976      1.00000
     15     -19.6805      1.00000
     16     -19.6802      1.00000
     17     -19.6496      1.00000
     18     -19.6493      1.00000
     19     -19.6143      1.00000
     20     -19.6139      1.00000
     21     -11.8016      1.00000
     22     -11.8007      1.00000
     23     -11.7926      1.00000
     24     -11.7918      1.00000
     25     -11.7779      1.00000
     26     -11.7765      1.00000
     27     -11.7041      1.00000
     28     -11.7038      1.00000
     29     -11.6920      1.00000
     30     -11.6915      1.00000
     31     -11.6484      1.00000
     32     -11.6477      1.00000
     33      -7.9765      1.00000
     34      -7.9229      1.00000
     35      -7.1900      1.00000
     36      -7.1705      1.00000
     37      -6.9517      1.00000
     38      -6.8707      1.00000
     39      -6.7056      1.00000
     40      -6.6830      1.00000
     41      -2.1626      1.00000
     42      -2.1571      1.00000
     43      -1.7093      1.00000
     44      -1.6761      1.00000
     45      -0.5565      1.00000
     46      -0.5100      1.00000
     47      -0.0382      1.00000
     48       0.0117      1.00000
     49       0.3672      1.00000
     50       0.3785      1.00000
     51       0.5650      1.00000
     52       0.5975      1.00000
     53       0.8321      1.00000
     54       0.9151      1.00000
     55       1.0154      1.00000
     56       1.0849      1.00000
     57       1.3751      1.00000
     58       1.3897      1.00000
     59       1.5674      1.00000
     60       1.6540      1.00000
     61       1.8215      1.00000
     62       1.9300      1.00000
     63       1.9670      1.00000
     64       1.9816      1.00000
     65       4.6210      0.00000
     66       4.8522      0.00000
     67       4.8764      0.00000
     68       5.1293      0.00000
     69       5.1320      0.00000
     70       5.5231      0.00000
     71       5.6492      0.00000
     72       5.7970      0.00000
     73       5.8426      0.00000
     74       6.0662      0.00000
     75       6.1773      0.00000
     76       6.2545      0.00000
     77       6.2887      0.00000
     78       6.3875      0.00000
     79       6.6474      0.00000
     80       6.9051      0.00000

 k-point    80 :       0.5000    0.0000    0.5000
  band No.  band energies     occupation 
      1     -39.5386      1.00000
      2     -39.5383      1.00000
      3     -39.5333      1.00000
      4     -39.5331      1.00000
      5     -28.9992      1.00000
      6     -28.9985      1.00000
      7     -28.9931      1.00000
      8     -28.9924      1.00000
      9     -19.7220      1.00000
     10     -19.7219      1.00000
     11     -19.7100      1.00000
     12     -19.7099      1.00000
     13     -19.6978      1.00000
     14     -19.6976      1.00000
     15     -19.6805      1.00000
     16     -19.6803      1.00000
     17     -19.6495      1.00000
     18     -19.6492      1.00000
     19     -19.6143      1.00000
     20     -19.6140      1.00000
     21     -11.8024      1.00000
     22     -11.8019      1.00000
     23     -11.7929      1.00000
     24     -11.7921      1.00000
     25     -11.7771      1.00000
     26     -11.7767      1.00000
     27     -11.7036      1.00000
     28     -11.7033      1.00000
     29     -11.6923      1.00000
     30     -11.6921      1.00000
     31     -11.6480      1.00000
     32     -11.6478      1.00000
     33      -7.9358      1.00000
     34      -7.9348      1.00000
     35      -7.1763      1.00000
     36      -7.1762      1.00000
     37      -6.9347      1.00000
     38      -6.9344      1.00000
     39      -6.6939      1.00000
     40      -6.6933      1.00000
     41      -2.1641      1.00000
     42      -2.1638      1.00000
     43      -1.7072      1.00000
     44      -1.7068      1.00000
     45      -0.4448      1.00000
     46      -0.4447      1.00000
     47      -0.0028      1.00000
     48      -0.0027      1.00000
     49       0.4280      1.00000
     50       0.4282      1.00000
     51       0.6204      1.00000
     52       0.6206      1.00000
     53       0.7138      1.00000
     54       0.7139      1.00000
     55       1.0272      1.00000
     56       1.0277      1.00000
     57       1.3566      1.00000
     58       1.3568      1.00000
     59       1.5816      1.00000
     60       1.5820      1.00000
     61       1.8801      1.00000
     62       1.8803      1.00000
     63       2.0156      1.00000
     64       2.0159      1.00000
     65       4.6587      0.00000
     66       4.6589      0.00000
     67       5.0581      0.00000
     68       5.0582      0.00000
     69       5.2496      0.00000
     70       5.2497      0.00000
     71       5.8759      0.00000
     72       5.8762      0.00000
     73       5.9811      0.00000
     74       5.9816      0.00000
     75       6.1266      0.00000
     76       6.1266      0.00000
     77       6.4257      0.00000
     78       6.4263      0.00000
     79       6.5447      0.00000
     80       6.5448      0.00000

 k-point    81 :      -0.0000    0.2000    0.5000
  band No.  band energies     occupation 
      1     -39.5386      1.00000
      2     -39.5383      1.00000
      3     -39.5333      1.00000
      4     -39.5331      1.00000
      5     -28.9993      1.00000
      6     -28.9986      1.00000
      7     -28.9929      1.00000
      8     -28.9923      1.00000
      9     -19.7213      1.00000
     10     -19.7212      1.00000
     11     -19.7114      1.00000
     12     -19.7113      1.00000
     13     -19.6970      1.00000
     14     -19.6968      1.00000
     15     -19.6806      1.00000
     16     -19.6803      1.00000
     17     -19.6495      1.00000
     18     -19.6492      1.00000
     19     -19.6143      1.00000
     20     -19.6140      1.00000
     21     -11.7992      1.00000
     22     -11.7987      1.00000
     23     -11.7933      1.00000
     24     -11.7927      1.00000
     25     -11.7745      1.00000
     26     -11.7739      1.00000
     27     -11.7134      1.00000
     28     -11.7131      1.00000
     29     -11.6833      1.00000
     30     -11.6830      1.00000
     31     -11.6499      1.00000
     32     -11.6497      1.00000
     33      -7.9850      1.00000
     34      -7.9840      1.00000
     35      -7.1913      1.00000
     36      -7.1912      1.00000
     37      -6.8856      1.00000
     38      -6.8855      1.00000
     39      -6.6662      1.00000
     40      -6.6651      1.00000
     41      -2.1074      1.00000
     42      -2.1071      1.00000
     43      -1.6797      1.00000
     44      -1.6791      1.00000
     45      -0.7238      1.00000
     46      -0.7232      1.00000
     47      -0.0336      1.00000
     48      -0.0335      1.00000
     49       0.2592      1.00000
     50       0.2594      1.00000
     51       0.6403      1.00000
     52       0.6406      1.00000
     53       0.9069      1.00000
     54       0.9071      1.00000
     55       1.1275      1.00000
     56       1.1277      1.00000
     57       1.4795      1.00000
     58       1.4796      1.00000
     59       1.6123      1.00000
     60       1.6127      1.00000
     61       1.8769      1.00000
     62       1.8769      1.00000
     63       1.9932      1.00000
     64       1.9933      1.00000
     65       4.7137      0.00000
     66       4.7150      0.00000
     67       5.1394      0.00000
     68       5.1398      0.00000
     69       5.3919      0.00000
     70       5.3925      0.00000
     71       5.6395      0.00000
     72       5.6399      0.00000
     73       5.9395      0.00000
     74       5.9406      0.00000
     75       6.0341      0.00000
     76       6.0343      0.00000
     77       6.4814      0.00000
     78       6.4823      0.00000
     79       6.6712      0.00000
     80       6.6886      0.00000

 k-point    82 :       0.1667    0.2000    0.5000
  band No.  band energies     occupation 
      1     -39.5386      1.00000
      2     -39.5383      1.00000
      3     -39.5333      1.00000
      4     -39.5331      1.00000
      5     -28.9993      1.00000
      6     -28.9986      1.00000
      7     -28.9930      1.00000
      8     -28.9923      1.00000
      9     -19.7213      1.00000
     10     -19.7212      1.00000
     11     -19.7114      1.00000
     12     -19.7113      1.00000
     13     -19.6970      1.00000
     14     -19.6968      1.00000
     15     -19.6807      1.00000
     16     -19.6804      1.00000
     17     -19.6495      1.00000
     18     -19.6492      1.00000
     19     -19.6143      1.00000
     20     -19.6140      1.00000
     21     -11.8010      1.00000
     22     -11.8001      1.00000
     23     -11.7929      1.00000
     24     -11.7920      1.00000
     25     -11.7751      1.00000
     26     -11.7732      1.00000
     27     -11.7138      1.00000
     28     -11.7124      1.00000
     29     -11.6835      1.00000
     30     -11.6829      1.00000
     31     -11.6500      1.00000
     32     -11.6493      1.00000
     33      -7.9908      1.00000
     34      -7.9495      1.00000
     35      -7.1962      1.00000
     36      -7.1897      1.00000
     37      -6.9149      1.00000
     38      -6.8604      1.00000
     39      -6.6916      1.00000
     40      -6.6700      1.00000
     41      -2.1336      1.00000
     42      -2.1171      1.00000
     43      -1.6719      1.00000
     44      -1.6564      1.00000
     45      -0.6764      1.00000
     46      -0.6416      1.00000
     47      -0.0802      1.00000
     48       0.0011      1.00000
     49       0.2277      1.00000
     50       0.2511      1.00000
     51       0.5765      1.00000
     52       0.7159      1.00000
     53       0.8568      1.00000
     54       0.9781      1.00000
     55       1.0495      1.00000
     56       1.2064      1.00000
     57       1.3779      1.00000
     58       1.4558      1.00000
     59       1.6146      1.00000
     60       1.6655      1.00000
     61       1.8621      1.00000
     62       1.9095      1.00000
     63       1.9314      1.00000
     64       1.9682      1.00000
     65       4.6804      0.00000
     66       4.7516      0.00000
     67       5.0257      0.00000
     68       5.2123      0.00000
     69       5.3287      0.00000
     70       5.3583      0.00000
     71       5.5612      0.00000
     72       5.6969      0.00000
     73       5.8937      0.00000
     74       5.9593      0.00000
     75       6.0518      0.00000
     76       6.1785      0.00000
     77       6.4582      0.00000
     78       6.5293      0.00000
     79       6.6668      0.00000
     80       6.8194      0.00000

 k-point    83 :       0.3333    0.2000    0.5000
  band No.  band energies     occupation 
      1     -39.5386      1.00000
      2     -39.5383      1.00000
      3     -39.5333      1.00000
      4     -39.5331      1.00000
      5     -28.9992      1.00000
      6     -28.9985      1.00000
      7     -28.9930      1.00000
      8     -28.9924      1.00000
      9     -19.7213      1.00000
     10     -19.7212      1.00000
     11     -19.7114      1.00000
     12     -19.7113      1.00000
     13     -19.6970      1.00000
     14     -19.6968      1.00000
     15     -19.6807      1.00000
     16     -19.6804      1.00000
     17     -19.6495      1.00000
     18     -19.6492      1.00000
     19     -19.6143      1.00000
     20     -19.6140      1.00000
     21     -11.8031      1.00000
     22     -11.8026      1.00000
     23     -11.7927      1.00000
     24     -11.7920      1.00000
     25     -11.7747      1.00000
     26     -11.7729      1.00000
     27     -11.7135      1.00000
     28     -11.7122      1.00000
     29     -11.6835      1.00000
     30     -11.6830      1.00000
     31     -11.6498      1.00000
     32     -11.6491      1.00000
     33      -7.9634      1.00000
     34      -7.9186      1.00000
     35      -7.2004      1.00000
     36      -7.1889      1.00000
     37      -6.9347      1.00000
     38      -6.8639      1.00000
     39      -6.7246      1.00000
     40      -6.6867      1.00000
     41      -2.1466      1.00000
     42      -2.1370      1.00000
     43      -1.6840      1.00000
     44      -1.6562      1.00000
     45      -0.5185      1.00000
     46      -0.4761      1.00000
     47      -0.0733      1.00000
     48      -0.0215      1.00000
     49       0.2211      1.00000
     50       0.2402      1.00000
     51       0.5919      1.00000
     52       0.7144      1.00000
     53       0.8247      1.00000
     54       0.9829      1.00000
     55       1.0116      1.00000
     56       1.0493      1.00000
     57       1.3427      1.00000
     58       1.4166      1.00000
     59       1.5676      1.00000
     60       1.6892      1.00000
     61       1.8448      1.00000
     62       1.8835      1.00000
     63       1.9412      1.00000
     64       1.9945      1.00000
     65       4.6619      0.00000
     66       4.8607      0.00000
     67       4.8930      0.00000
     68       5.0715      0.00000
     69       5.1805      0.00000
     70       5.4697      0.00000
     71       5.5697      0.00000
     72       5.7571      0.00000
     73       5.8972      0.00000
     74       6.0591      0.00000
     75       6.2005      0.00000
     76       6.2540      0.00000
     77       6.3304      0.00000
     78       6.4844      0.00000
     79       6.5886      0.00000
     80       6.7202      0.00000

 k-point    84 :       0.5000    0.2000    0.5000
  band No.  band energies     occupation 
      1     -39.5386      1.00000
      2     -39.5383      1.00000
      3     -39.5333      1.00000
      4     -39.5331      1.00000
      5     -28.9992      1.00000
      6     -28.9985      1.00000
      7     -28.9931      1.00000
      8     -28.9924      1.00000
      9     -19.7213      1.00000
     10     -19.7212      1.00000
     11     -19.7114      1.00000
     12     -19.7113      1.00000
     13     -19.6970      1.00000
     14     -19.6968      1.00000
     15     -19.6807      1.00000
     16     -19.6805      1.00000
     17     -19.6495      1.00000
     18     -19.6492      1.00000
     19     -19.6143      1.00000
     20     -19.6140      1.00000
     21     -11.8040      1.00000
     22     -11.8035      1.00000
     23     -11.7930      1.00000
     24     -11.7923      1.00000
     25     -11.7738      1.00000
     26     -11.7733      1.00000
     27     -11.7128      1.00000
     28     -11.7126      1.00000
     29     -11.6834      1.00000
     30     -11.6831      1.00000
     31     -11.6494      1.00000
     32     -11.6492      1.00000
     33      -7.9268      1.00000
     34      -7.9258      1.00000
     35      -7.1943      1.00000
     36      -7.1942      1.00000
     37      -6.9136      1.00000
     38      -6.9134      1.00000
     39      -6.7114      1.00000
     40      -6.7107      1.00000
     41      -2.1430      1.00000
     42      -2.1426      1.00000
     43      -1.6862      1.00000
     44      -1.6857      1.00000
     45      -0.4071      1.00000
     46      -0.4070      1.00000
     47      -0.0413      1.00000
     48      -0.0410      1.00000
     49       0.2557      1.00000
     50       0.2559      1.00000
     51       0.6734      1.00000
     52       0.6736      1.00000
     53       0.7896      1.00000
     54       0.7896      1.00000
     55       1.0278      1.00000
     56       1.0285      1.00000
     57       1.3081      1.00000
     58       1.3084      1.00000
     59       1.6551      1.00000
     60       1.6554      1.00000
     61       1.8553      1.00000
     62       1.8556      1.00000
     63       1.9955      1.00000
     64       1.9956      1.00000
     65       4.7129      0.00000
     66       4.7131      0.00000
     67       5.0478      0.00000
     68       5.0482      0.00000
     69       5.2087      0.00000
     70       5.2089      0.00000
     71       5.8123      0.00000
     72       5.8129      0.00000
     73       5.9751      0.00000
     74       5.9752      0.00000
     75       6.1479      0.00000
     76       6.1483      0.00000
     77       6.4322      0.00000
     78       6.4331      0.00000
     79       6.6429      0.00000
     80       6.6440      0.00000

 k-point    85 :      -0.3333    0.2000    0.5000
  band No.  band energies     occupation 
      1     -39.5386      1.00000
      2     -39.5383      1.00000
      3     -39.5333      1.00000
      4     -39.5331      1.00000
      5     -28.9992      1.00000
      6     -28.9985      1.00000
      7     -28.9930      1.00000
      8     -28.9924      1.00000
      9     -19.7213      1.00000
     10     -19.7212      1.00000
     11     -19.7114      1.00000
     12     -19.7113      1.00000
     13     -19.6970      1.00000
     14     -19.6968      1.00000
     15     -19.6807      1.00000
     16     -19.6804      1.00000
     17     -19.6495      1.00000
     18     -19.6492      1.00000
     19     -19.6143      1.00000
     20     -19.6140      1.00000
     21     -11.8033      1.00000
     22     -11.8024      1.00000
     23     -11.7928      1.00000
     24     -11.7919      1.00000
     25     -11.7745      1.00000
     26     -11.7731      1.00000
     27     -11.7133      1.00000
     28     -11.7124      1.00000
     29     -11.6836      1.00000
     30     -11.6829      1.00000
     31     -11.6498      1.00000
     32     -11.6491      1.00000
     33      -7.9633      1.00000
     34      -7.9187      1.00000
     35      -7.2003      1.00000
     36      -7.1890      1.00000
     37      -6.9348      1.00000
     38      -6.8640      1.00000
     39      -6.7240      1.00000
     40      -6.6872      1.00000
     41      -2.1463      1.00000
     42      -2.1374      1.00000
     43      -1.6840      1.00000
     44      -1.6562      1.00000
     45      -0.5185      1.00000
     46      -0.4760      1.00000
     47      -0.0734      1.00000
     48      -0.0213      1.00000
     49       0.2210      1.00000
     50       0.2404      1.00000
     51       0.5918      1.00000
     52       0.7144      1.00000
     53       0.8246      1.00000
     54       0.9831      1.00000
     55       1.0119      1.00000
     56       1.0488      1.00000
     57       1.3433      1.00000
     58       1.4165      1.00000
     59       1.5673      1.00000
     60       1.6893      1.00000
     61       1.8446      1.00000
     62       1.8834      1.00000
     63       1.9413      1.00000
     64       1.9945      1.00000
     65       4.6618      0.00000
     66       4.8605      0.00000
     67       4.8929      0.00000
     68       5.0712      0.00000
     69       5.1809      0.00000
     70       5.4696      0.00000
     71       5.5700      0.00000
     72       5.7573      0.00000
     73       5.8976      0.00000
     74       6.0593      0.00000
     75       6.2006      0.00000
     76       6.2535      0.00000
     77       6.3307      0.00000
     78       6.4841      0.00000
     79       6.5880      0.00000
     80       6.7200      0.00000

 k-point    86 :      -0.1667    0.2000    0.5000
  band No.  band energies     occupation 
      1     -39.5386      1.00000
      2     -39.5383      1.00000
      3     -39.5333      1.00000
      4     -39.5331      1.00000
      5     -28.9993      1.00000
      6     -28.9986      1.00000
      7     -28.9930      1.00000
      8     -28.9923      1.00000
      9     -19.7213      1.00000
     10     -19.7212      1.00000
     11     -19.7114      1.00000
     12     -19.7113      1.00000
     13     -19.6970      1.00000
     14     -19.6968      1.00000
     15     -19.6806      1.00000
     16     -19.6804      1.00000
     17     -19.6495      1.00000
     18     -19.6492      1.00000
     19     -19.6143      1.00000
     20     -19.6140      1.00000
     21     -11.8012      1.00000
     22     -11.7998      1.00000
     23     -11.7930      1.00000
     24     -11.7920      1.00000
     25     -11.7749      1.00000
     26     -11.7734      1.00000
     27     -11.7136      1.00000
     28     -11.7126      1.00000
     29     -11.6835      1.00000
     30     -11.6828      1.00000
     31     -11.6500      1.00000
     32     -11.6493      1.00000
     33      -7.9907      1.00000
     34      -7.9496      1.00000
     35      -7.1961      1.00000
     36      -7.1897      1.00000
     37      -6.9148      1.00000
     38      -6.8606      1.00000
     39      -6.6910      1.00000
     40      -6.6705      1.00000
     41      -2.1333      1.00000
     42      -2.1175      1.00000
     43      -1.6719      1.00000
     44      -1.6563      1.00000
     45      -0.6764      1.00000
     46      -0.6416      1.00000
     47      -0.0803      1.00000
     48       0.0012      1.00000
     49       0.2280      1.00000
     50       0.2510      1.00000
     51       0.5766      1.00000
     52       0.7159      1.00000
     53       0.8566      1.00000
     54       0.9782      1.00000
     55       1.0493      1.00000
     56       1.2063      1.00000
     57       1.3778      1.00000
     58       1.4564      1.00000
     59       1.6143      1.00000
     60       1.6653      1.00000
     61       1.8622      1.00000
     62       1.9094      1.00000
     63       1.9316      1.00000
     64       1.9680      1.00000
     65       4.6794      0.00000
     66       4.7523      0.00000
     67       5.0255      0.00000
     68       5.2122      0.00000
     69       5.3289      0.00000
     70       5.3585      0.00000
     71       5.5615      0.00000
     72       5.6971      0.00000
     73       5.8938      0.00000
     74       5.9599      0.00000
     75       6.0510      0.00000
     76       6.1784      0.00000
     77       6.4587      0.00000
     78       6.5296      0.00000
     79       6.6653      0.00000
     80       6.8317      0.00000

 k-point    87 :      -0.0000    0.4000    0.5000
  band No.  band energies     occupation 
      1     -39.5386      1.00000
      2     -39.5383      1.00000
      3     -39.5333      1.00000
      4     -39.5331      1.00000
      5     -28.9993      1.00000
      6     -28.9986      1.00000
      7     -28.9929      1.00000
      8     -28.9923      1.00000
      9     -19.7197      1.00000
     10     -19.7195      1.00000
     11     -19.7140      1.00000
     12     -19.7138      1.00000
     13     -19.6959      1.00000
     14     -19.6957      1.00000
     15     -19.6809      1.00000
     16     -19.6807      1.00000
     17     -19.6494      1.00000
     18     -19.6491      1.00000
     19     -19.6143      1.00000
     20     -19.6140      1.00000
     21     -11.8015      1.00000
     22     -11.8010      1.00000
     23     -11.7937      1.00000
     24     -11.7929      1.00000
     25     -11.7691      1.00000
     26     -11.7685      1.00000
     27     -11.7221      1.00000
     28     -11.7218      1.00000
     29     -11.6750      1.00000
     30     -11.6746      1.00000
     31     -11.6527      1.00000
     32     -11.6524      1.00000
     33      -7.9687      1.00000
     34      -7.9677      1.00000
     35      -7.2184      1.00000
     36      -7.2182      1.00000
     37      -6.8793      1.00000
     38      -6.8791      1.00000
     39      -6.6689      1.00000
     40      -6.6678      1.00000
     41      -2.0845      1.00000
     42      -2.0840      1.00000
     43      -1.6531      1.00000
     44      -1.6525      1.00000
     45      -0.6426      1.00000
     46      -0.6420      1.00000
     47      -0.0527      1.00000
     48      -0.0524      1.00000
     49       0.0607      1.00000
     50       0.0611      1.00000
     51       0.6815      1.00000
     52       0.6819      1.00000
     53       0.9632      1.00000
     54       0.9635      1.00000
     55       1.0563      1.00000
     56       1.0565      1.00000
     57       1.5206      1.00000
     58       1.5208      1.00000
     59       1.6497      1.00000
     60       1.6503      1.00000
     61       1.8657      1.00000
     62       1.8659      1.00000
     63       1.9397      1.00000
     64       1.9399      1.00000
     65       4.7975      0.00000
     66       4.7988      0.00000
     67       5.0661      0.00000
     68       5.0667      0.00000
     69       5.4357      0.00000
     70       5.4368      0.00000
     71       5.5569      0.00000
     72       5.5572      0.00000
     73       5.8757      0.00000
     74       5.8758      0.00000
     75       6.2410      0.00000
     76       6.2413      0.00000
     77       6.3935      0.00000
     78       6.3945      0.00000
     79       6.5964      0.00000
     80       6.5969      0.00000

 k-point    88 :       0.1667    0.4000    0.5000
  band No.  band energies     occupation 
      1     -39.5386      1.00000
      2     -39.5383      1.00000
      3     -39.5333      1.00000
      4     -39.5331      1.00000
      5     -28.9993      1.00000
      6     -28.9986      1.00000
      7     -28.9930      1.00000
      8     -28.9923      1.00000
      9     -19.7197      1.00000
     10     -19.7195      1.00000
     11     -19.7140      1.00000
     12     -19.7138      1.00000
     13     -19.6959      1.00000
     14     -19.6957      1.00000
     15     -19.6810      1.00000
     16     -19.6807      1.00000
     17     -19.6494      1.00000
     18     -19.6491      1.00000
     19     -19.6143      1.00000
     20     -19.6140      1.00000
     21     -11.8030      1.00000
     22     -11.8026      1.00000
     23     -11.7930      1.00000
     24     -11.7923      1.00000
     25     -11.7693      1.00000
     26     -11.7680      1.00000
     27     -11.7225      1.00000
     28     -11.7215      1.00000
     29     -11.6749      1.00000
     30     -11.6744      1.00000
     31     -11.6528      1.00000
     32     -11.6523      1.00000
     33      -7.9632      1.00000
     34      -7.9464      1.00000
     35      -7.2169      1.00000
     36      -7.2155      1.00000
     37      -6.8929      1.00000
     38      -6.8744      1.00000
     39      -6.6907      1.00000
     40      -6.6782      1.00000
     41      -2.1050      1.00000
     42      -2.0978      1.00000
     43      -1.6339      1.00000
     44      -1.6284      1.00000
     45      -0.5909      1.00000
     46      -0.5716      1.00000
     47      -0.1077      1.00000
     48      -0.0116      1.00000
     49      -0.0019      1.00000
     50       0.0731      1.00000
     51       0.6612      1.00000
     52       0.7442      1.00000
     53       0.8526      1.00000
     54       0.9418      1.00000
     55       1.0893      1.00000
     56       1.1739      1.00000
     57       1.4468      1.00000
     58       1.4954      1.00000
     59       1.5781      1.00000
     60       1.6645      1.00000
     61       1.8523      1.00000
     62       1.8571      1.00000
     63       1.9543      1.00000
     64       1.9589      1.00000
     65       4.7567      0.00000
     66       4.8152      0.00000
     67       4.9410      0.00000
     68       5.0788      0.00000
     69       5.3944      0.00000
     70       5.4582      0.00000
     71       5.5053      0.00000
     72       5.5865      0.00000
     73       5.8919      0.00000
     74       5.9472      0.00000
     75       6.1838      0.00000
     76       6.3047      0.00000
     77       6.4688      0.00000
     78       6.5113      0.00000
     79       6.5442      0.00000
     80       6.6708      0.00000

 k-point    89 :       0.3333    0.4000    0.5000
  band No.  band energies     occupation 
      1     -39.5386      1.00000
      2     -39.5383      1.00000
      3     -39.5333      1.00000
      4     -39.5331      1.00000
      5     -28.9992      1.00000
      6     -28.9985      1.00000
      7     -28.9930      1.00000
      8     -28.9924      1.00000
      9     -19.7197      1.00000
     10     -19.7195      1.00000
     11     -19.7140      1.00000
     12     -19.7138      1.00000
     13     -19.6958      1.00000
     14     -19.6956      1.00000
     15     -19.6810      1.00000
     16     -19.6808      1.00000
     17     -19.6493      1.00000
     18     -19.6490      1.00000
     19     -19.6143      1.00000
     20     -19.6140      1.00000
     21     -11.8052      1.00000
     22     -11.8048      1.00000
     23     -11.7929      1.00000
     24     -11.7922      1.00000
     25     -11.7689      1.00000
     26     -11.7676      1.00000
     27     -11.7227      1.00000
     28     -11.7217      1.00000
     29     -11.6746      1.00000
     30     -11.6740      1.00000
     31     -11.6527      1.00000
     32     -11.6522      1.00000
     33      -7.9354      1.00000
     34      -7.9173      1.00000
     35      -7.2202      1.00000
     36      -7.2159      1.00000
     37      -6.8970      1.00000
     38      -6.8632      1.00000
     39      -6.7376      1.00000
     40      -6.7116      1.00000
     41      -2.1145      1.00000
     42      -2.1086      1.00000
     43      -1.6389      1.00000
     44      -1.6276      1.00000
     45      -0.4216      1.00000
     46      -0.3960      1.00000
     47      -0.1267      1.00000
     48      -0.0788      1.00000
     49       0.0107      1.00000
     50       0.0399      1.00000
     51       0.7059      1.00000
     52       0.7710      1.00000
     53       0.7998      1.00000
     54       0.8830      1.00000
     55       1.0772      1.00000
     56       1.0985      1.00000
     57       1.3700      1.00000
     58       1.4008      1.00000
     59       1.5961      1.00000
     60       1.6611      1.00000
     61       1.8565      1.00000
     62       1.8899      1.00000
     63       1.9151      1.00000
     64       1.9753      1.00000
     65       4.7759      0.00000
     66       4.8633      0.00000
     67       4.9077      0.00000
     68       4.9766      0.00000
     69       5.2578      0.00000
     70       5.3477      0.00000
     71       5.5366      0.00000
     72       5.6446      0.00000
     73       5.9844      0.00000
     74       6.0694      0.00000
     75       6.2006      0.00000
     76       6.2441      0.00000
     77       6.3793      0.00000
     78       6.4963      0.00000
     79       6.6186      0.00000
     80       6.7248      0.00000

 k-point    90 :       0.5000    0.4000    0.5000
  band No.  band energies     occupation 
      1     -39.5386      1.00000
      2     -39.5383      1.00000
      3     -39.5333      1.00000
      4     -39.5331      1.00000
      5     -28.9992      1.00000
      6     -28.9985      1.00000
      7     -28.9931      1.00000
      8     -28.9924      1.00000
      9     -19.7197      1.00000
     10     -19.7195      1.00000
     11     -19.7140      1.00000
     12     -19.7138      1.00000
     13     -19.6958      1.00000
     14     -19.6956      1.00000
     15     -19.6811      1.00000
     16     -19.6808      1.00000
     17     -19.6493      1.00000
     18     -19.6490      1.00000
     19     -19.6143      1.00000
     20     -19.6140      1.00000
     21     -11.8061      1.00000
     22     -11.8056      1.00000
     23     -11.7932      1.00000
     24     -11.7924      1.00000
     25     -11.7683      1.00000
     26     -11.7677      1.00000
     27     -11.7224      1.00000
     28     -11.7220      1.00000
     29     -11.6743      1.00000
     30     -11.6739      1.00000
     31     -11.6525      1.00000
     32     -11.6522      1.00000
     33      -7.9116      1.00000
     34      -7.9106      1.00000
     35      -7.2228      1.00000
     36      -7.2226      1.00000
     37      -6.8703      1.00000
     38      -6.8702      1.00000
     39      -6.7504      1.00000
     40      -6.7495      1.00000
     41      -2.1072      1.00000
     42      -2.1067      1.00000
     43      -1.6519      1.00000
     44      -1.6514      1.00000
     45      -0.3032      1.00000
     46      -0.3029      1.00000
     47      -0.1026      1.00000
     48      -0.1021      1.00000
     49       0.0194      1.00000
     50       0.0199      1.00000
     51       0.7417      1.00000
     52       0.7420      1.00000
     53       0.8354      1.00000
     54       0.8359      1.00000
     55       0.9872      1.00000
     56       0.9878      1.00000
     57       1.3521      1.00000
     58       1.3524      1.00000
     59       1.6594      1.00000
     60       1.6596      1.00000
     61       1.8732      1.00000
     62       1.8734      1.00000
     63       1.9450      1.00000
     64       1.9452      1.00000
     65       4.8417      0.00000
     66       4.8419      0.00000
     67       5.0008      0.00000
     68       5.0011      0.00000
     69       5.1514      0.00000
     70       5.1516      0.00000
     71       5.6582      0.00000
     72       5.6590      0.00000
     73       6.0507      0.00000
     74       6.0510      0.00000
     75       6.1286      0.00000
     76       6.1288      0.00000
     77       6.5260      0.00000
     78       6.5270      0.00000
     79       6.6436      0.00000
     80       6.6445      0.00000

 k-point    91 :      -0.3333    0.4000    0.5000
  band No.  band energies     occupation 
      1     -39.5386      1.00000
      2     -39.5383      1.00000
      3     -39.5333      1.00000
      4     -39.5331      1.00000
      5     -28.9992      1.00000
      6     -28.9985      1.00000
      7     -28.9930      1.00000
      8     -28.9924      1.00000
      9     -19.7197      1.00000
     10     -19.7195      1.00000
     11     -19.7140      1.00000
     12     -19.7138      1.00000
     13     -19.6958      1.00000
     14     -19.6956      1.00000
     15     -19.6810      1.00000
     16     -19.6808      1.00000
     17     -19.6493      1.00000
     18     -19.6490      1.00000
     19     -19.6143      1.00000
     20     -19.6140      1.00000
     21     -11.8053      1.00000
     22     -11.8047      1.00000
     23     -11.7930      1.00000
     24     -11.7922      1.00000
     25     -11.7687      1.00000
     26     -11.7679      1.00000
     27     -11.7224      1.00000
     28     -11.7219      1.00000
     29     -11.6745      1.00000
     30     -11.6741      1.00000
     31     -11.6526      1.00000
     32     -11.6522      1.00000
     33      -7.9352      1.00000
     34      -7.9175      1.00000
     35      -7.2200      1.00000
     36      -7.2161      1.00000
     37      -6.8970      1.00000
     38      -6.8633      1.00000
     39      -6.7369      1.00000
     40      -6.7122      1.00000
     41      -2.1141      1.00000
     42      -2.1091      1.00000
     43      -1.6388      1.00000
     44      -1.6276      1.00000
     45      -0.4217      1.00000
     46      -0.3959      1.00000
     47      -0.1269      1.00000
     48      -0.0785      1.00000
     49       0.0105      1.00000
     50       0.0401      1.00000
     51       0.7057      1.00000
     52       0.7709      1.00000
     53       0.8001      1.00000
     54       0.8831      1.00000
     55       1.0772      1.00000
     56       1.0984      1.00000
     57       1.3698      1.00000
     58       1.4012      1.00000
     59       1.5960      1.00000
     60       1.6610      1.00000
     61       1.8563      1.00000
     62       1.8900      1.00000
     63       1.9152      1.00000
     64       1.9753      1.00000
     65       4.7759      0.00000
     66       4.8632      0.00000
     67       4.9076      0.00000
     68       4.9762      0.00000
     69       5.2582      0.00000
     70       5.3476      0.00000
     71       5.5371      0.00000
     72       5.6446      0.00000
     73       5.9842      0.00000
     74       6.0697      0.00000
     75       6.2002      0.00000
     76       6.2444      0.00000
     77       6.3793      0.00000
     78       6.4960      0.00000
     79       6.6190      0.00000
     80       6.7245      0.00000

 k-point    92 :      -0.1667    0.4000    0.5000
  band No.  band energies     occupation 
      1     -39.5386      1.00000
      2     -39.5383      1.00000
      3     -39.5333      1.00000
      4     -39.5331      1.00000
      5     -28.9993      1.00000
      6     -28.9986      1.00000
      7     -28.9930      1.00000
      8     -28.9923      1.00000
      9     -19.7197      1.00000
     10     -19.7195      1.00000
     11     -19.7140      1.00000
     12     -19.7138      1.00000
     13     -19.6959      1.00000
     14     -19.6957      1.00000
     15     -19.6810      1.00000
     16     -19.6807      1.00000
     17     -19.6494      1.00000
     18     -19.6491      1.00000
     19     -19.6143      1.00000
     20     -19.6140      1.00000
     21     -11.8032      1.00000
     22     -11.8024      1.00000
     23     -11.7931      1.00000
     24     -11.7923      1.00000
     25     -11.7691      1.00000
     26     -11.7683      1.00000
     27     -11.7223      1.00000
     28     -11.7218      1.00000
     29     -11.6749      1.00000
     30     -11.6744      1.00000
     31     -11.6527      1.00000
     32     -11.6523      1.00000
     33      -7.9631      1.00000
     34      -7.9466      1.00000
     35      -7.2170      1.00000
     36      -7.2153      1.00000
     37      -6.8927      1.00000
     38      -6.8745      1.00000
     39      -6.6901      1.00000
     40      -6.6788      1.00000
     41      -2.1045      1.00000
     42      -2.0983      1.00000
     43      -1.6339      1.00000
     44      -1.6283      1.00000
     45      -0.5909      1.00000
     46      -0.5716      1.00000
     47      -0.1079      1.00000
     48      -0.0115      1.00000
     49      -0.0018      1.00000
     50       0.0730      1.00000
     51       0.6612      1.00000
     52       0.7443      1.00000
     53       0.8524      1.00000
     54       0.9418      1.00000
     55       1.0892      1.00000
     56       1.1739      1.00000
     57       1.4468      1.00000
     58       1.4953      1.00000
     59       1.5787      1.00000
     60       1.6640      1.00000
     61       1.8525      1.00000
     62       1.8571      1.00000
     63       1.9542      1.00000
     64       1.9590      1.00000
     65       4.7559      0.00000
     66       4.8158      0.00000
     67       4.9410      0.00000
     68       5.0785      0.00000
     69       5.3945      0.00000
     70       5.4587      0.00000
     71       5.5055      0.00000
     72       5.5864      0.00000
     73       5.8922      0.00000
     74       5.9471      0.00000
     75       6.1834      0.00000
     76       6.3049      0.00000
     77       6.4686      0.00000
     78       6.5111      0.00000
     79       6.5447      0.00000
     80       6.6703      0.00000

 spin component 2

 k-point     1 :       0.0000    0.0000    0.0000
  band No.  band energies     occupation 
      1     -39.5390      1.00000
      2     -39.5379      1.00000
      3     -39.5337      1.00000
      4     -39.5327      1.00000
      5     -29.0007      1.00000
      6     -28.9973      1.00000
      7     -28.9943      1.00000
      8     -28.9910      1.00000
      9     -19.7200      1.00000
     10     -19.7155      1.00000
     11     -19.7128      1.00000
     12     -19.7119      1.00000
     13     -19.7083      1.00000
     14     -19.6894      1.00000
     15     -19.6846      1.00000
     16     -19.6759      1.00000
     17     -19.6522      1.00000
     18     -19.6466      1.00000
     19     -19.6187      1.00000
     20     -19.6106      1.00000
     21     -11.8041      1.00000
     22     -11.8019      1.00000
     23     -11.7874      1.00000
     24     -11.7857      1.00000
     25     -11.7621      1.00000
     26     -11.7570      1.00000
     27     -11.7203      1.00000
     28     -11.7074      1.00000
     29     -11.7059      1.00000
     30     -11.6610      1.00000
     31     -11.6584      1.00000
     32     -11.6516      1.00000
     33      -8.3527      1.00000
     34      -7.7833      1.00000
     35      -7.5691      1.00000
     36      -6.8902      1.00000
     37      -6.7200      1.00000
     38      -6.7156      1.00000
     39      -6.6397      1.00000
     40      -6.5728      1.00000
     41      -3.0515      1.00000
     42      -2.4361      1.00000
     43      -1.6044      1.00000
     44      -1.1450      1.00000
     45      -0.6718      1.00000
     46      -0.3619      1.00000
     47      -0.2630      1.00000
     48      -0.2407      1.00000
     49      -0.2176      1.00000
     50       0.2718      1.00000
     51       0.6405      1.00000
     52       0.8747      1.00000
     53       1.1098      1.00000
     54       1.2374      1.00000
     55       1.2939      1.00000
     56       1.3812      1.00000
     57       1.5840      1.00000
     58       1.6112      1.00000
     59       1.7789      1.00000
     60       1.8095      1.00000
     61       1.9561      1.00000
     62       2.0217      1.00000
     63       2.0449      1.00000
     64       2.0537      1.00000
     65       4.4278      0.00000
     66       4.6206      0.00000
     67       4.9858      0.00000
     68       5.0190      0.00000
     69       5.2527      0.00000
     70       5.3941      0.00000
     71       5.4751      0.00000
     72       5.7072      0.00000
     73       5.9524      0.00000
     74       6.0771      0.00000
     75       6.1989      0.00000
     76       6.2535      0.00000
     77       6.3073      0.00000
     78       6.3567      0.00000
     79       6.4346      0.00000
     80       6.4745      0.00000

 k-point     2 :       0.1667   -0.0000   -0.0000
  band No.  band energies     occupation 
      1     -39.5390      1.00000
      2     -39.5379      1.00000
      3     -39.5337      1.00000
      4     -39.5327      1.00000
      5     -29.0007      1.00000
      6     -28.9972      1.00000
      7     -28.9943      1.00000
      8     -28.9910      1.00000
      9     -19.7200      1.00000
     10     -19.7155      1.00000
     11     -19.7128      1.00000
     12     -19.7119      1.00000
     13     -19.7083      1.00000
     14     -19.6894      1.00000
     15     -19.6847      1.00000
     16     -19.6759      1.00000
     17     -19.6522      1.00000
     18     -19.6466      1.00000
     19     -19.6188      1.00000
     20     -19.6106      1.00000
     21     -11.8073      1.00000
     22     -11.8007      1.00000
     23     -11.7880      1.00000
     24     -11.7858      1.00000
     25     -11.7621      1.00000
     26     -11.7566      1.00000
     27     -11.7207      1.00000
     28     -11.7070      1.00000
     29     -11.7054      1.00000
     30     -11.6610      1.00000
     31     -11.6582      1.00000
     32     -11.6518      1.00000
     33      -8.3241      1.00000
     34      -7.7692      1.00000
     35      -7.5713      1.00000
     36      -6.9118      1.00000
     37      -6.7398      1.00000
     38      -6.7373      1.00000
     39      -6.6373      1.00000
     40      -6.5813      1.00000
     41      -3.0494      1.00000
     42      -2.3970      1.00000
     43      -1.4913      1.00000
     44      -1.1568      1.00000
     45      -0.7184      1.00000
     46      -0.3749      1.00000
     47      -0.2814      1.00000
     48      -0.2304      1.00000
     49      -0.1331      1.00000
     50       0.2785      1.00000
     51       0.7292      1.00000
     52       0.8695      1.00000
     53       1.0279      1.00000
     54       1.2344      1.00000
     55       1.3118      1.00000
     56       1.3553      1.00000
     57       1.5312      1.00000
     58       1.5741      1.00000
     59       1.6607      1.00000
     60       1.7623      1.00000
     61       1.8824      1.00000
     62       1.9812      1.00000
     63       2.0075      1.00000
     64       2.1124      1.00000
     65       4.5656      0.00000
     66       4.6887      0.00000
     67       4.8222      0.00000
     68       5.0311      0.00000
     69       5.2721      0.00000
     70       5.4314      0.00000
     71       5.5534      0.00000
     72       5.7099      0.00000
     73       5.8971      0.00000
     74       6.1102      0.00000
     75       6.1684      0.00000
     76       6.1937      0.00000
     77       6.3910      0.00000
     78       6.4218      0.00000
     79       6.4960      0.00000
     80       6.7021      0.00000

 k-point     3 :       0.3333    0.0000   -0.0000
  band No.  band energies     occupation 
      1     -39.5390      1.00000
      2     -39.5379      1.00000
      3     -39.5337      1.00000
      4     -39.5327      1.00000
      5     -29.0006      1.00000
      6     -28.9972      1.00000
      7     -28.9944      1.00000
      8     -28.9910      1.00000
      9     -19.7200      1.00000
     10     -19.7155      1.00000
     11     -19.7127      1.00000
     12     -19.7119      1.00000
     13     -19.7083      1.00000
     14     -19.6894      1.00000
     15     -19.6847      1.00000
     16     -19.6760      1.00000
     17     -19.6522      1.00000
     18     -19.6466      1.00000
     19     -19.6187      1.00000
     20     -19.6106      1.00000
     21     -11.8108      1.00000
     22     -11.8011      1.00000
     23     -11.7894      1.00000
     24     -11.7860      1.00000
     25     -11.7618      1.00000
     26     -11.7559      1.00000
     27     -11.7214      1.00000
     28     -11.7061      1.00000
     29     -11.7044      1.00000
     30     -11.6610      1.00000
     31     -11.6580      1.00000
     32     -11.6521      1.00000
     33      -8.2601      1.00000
     34      -7.7392      1.00000
     35      -7.5843      1.00000
     36      -6.9532      1.00000
     37      -6.7866      1.00000
     38      -6.7788      1.00000
     39      -6.6327      1.00000
     40      -6.5931      1.00000
     41      -3.0448      1.00000
     42      -2.3186      1.00000
     43      -1.2357      1.00000
     44      -1.1789      1.00000
     45      -0.7702      1.00000
     46      -0.4280      1.00000
     47      -0.2512      1.00000
     48      -0.2466      1.00000
     49       0.0345      1.00000
     50       0.2939      1.00000
     51       0.8194      1.00000
     52       0.8363      1.00000
     53       0.9752      1.00000
     54       1.0890      1.00000
     55       1.2218      1.00000
     56       1.2935      1.00000
     57       1.3590      1.00000
     58       1.5537      1.00000
     59       1.6591      1.00000
     60       1.7368      1.00000
     61       1.7772      1.00000
     62       1.9091      1.00000
     63       1.9130      1.00000
     64       2.1652      1.00000
     65       4.4851      0.00000
     66       4.6601      0.00000
     67       4.9547      0.00000
     68       5.0370      0.00000
     69       5.4944      0.00000
     70       5.6166      0.00000
     71       5.6408      0.00000
     72       5.6763      0.00000
     73       5.8803      0.00000
     74       5.9310      0.00000
     75       6.1709      0.00000
     76       6.4030      0.00000
     77       6.4526      0.00000
     78       6.5756      0.00000
     79       6.5795      0.00000
     80       6.6977      0.00000

 k-point     4 :       0.5000   -0.0000   -0.0000
  band No.  band energies     occupation 
      1     -39.5390      1.00000
      2     -39.5379      1.00000
      3     -39.5337      1.00000
      4     -39.5327      1.00000
      5     -29.0006      1.00000
      6     -28.9972      1.00000
      7     -28.9944      1.00000
      8     -28.9911      1.00000
      9     -19.7200      1.00000
     10     -19.7155      1.00000
     11     -19.7127      1.00000
     12     -19.7119      1.00000
     13     -19.7084      1.00000
     14     -19.6894      1.00000
     15     -19.6848      1.00000
     16     -19.6760      1.00000
     17     -19.6521      1.00000
     18     -19.6467      1.00000
     19     -19.6187      1.00000
     20     -19.6106      1.00000
     21     -11.8121      1.00000
     22     -11.8018      1.00000
     23     -11.7900      1.00000
     24     -11.7861      1.00000
     25     -11.7616      1.00000
     26     -11.7555      1.00000
     27     -11.7217      1.00000
     28     -11.7057      1.00000
     29     -11.7039      1.00000
     30     -11.6610      1.00000
     31     -11.6578      1.00000
     32     -11.6523      1.00000
     33      -8.2235      1.00000
     34      -7.7231      1.00000
     35      -7.5971      1.00000
     36      -6.9714      1.00000
     37      -6.8104      1.00000
     38      -6.8023      1.00000
     39      -6.6304      1.00000
     40      -6.5970      1.00000
     41      -3.0425      1.00000
     42      -2.2794      1.00000
     43      -1.1918      1.00000
     44      -1.0863      1.00000
     45      -0.7833      1.00000
     46      -0.4326      1.00000
     47      -0.2527      1.00000
     48      -0.2282      1.00000
     49       0.0935      1.00000
     50       0.3044      1.00000
     51       0.7017      1.00000
     52       0.8281      1.00000
     53       0.9610      1.00000
     54       1.0648      1.00000
     55       1.1677      1.00000
     56       1.2936      1.00000
     57       1.3109      1.00000
     58       1.5538      1.00000
     59       1.6695      1.00000
     60       1.6921      1.00000
     61       1.7729      1.00000
     62       1.8329      1.00000
     63       1.8773      1.00000
     64       2.1946      1.00000
     65       4.3832      0.00000
     66       4.6957      0.00000
     67       4.8453      0.00000
     68       5.3504      0.00000
     69       5.4862      0.00000
     70       5.5420      0.00000
     71       5.6323      0.00000
     72       5.7041      0.00000
     73       6.0419      0.00000
     74       6.1455      0.00000
     75       6.2160      0.00000
     76       6.3601      0.00000
     77       6.3648      0.00000
     78       6.5800      0.00000
     79       6.6055      0.00000
     80       6.6395      0.00000

 k-point     5 :      -0.0000    0.2000   -0.0000
  band No.  band energies     occupation 
      1     -39.5390      1.00000
      2     -39.5380      1.00000
      3     -39.5336      1.00000
      4     -39.5327      1.00000
      5     -29.0005      1.00000
      6     -28.9978      1.00000
      7     -28.9937      1.00000
      8     -28.9912      1.00000
      9     -19.7202      1.00000
     10     -19.7160      1.00000
     11     -19.7145      1.00000
     12     -19.7097      1.00000
     13     -19.7069      1.00000
     14     -19.6924      1.00000
     15     -19.6822      1.00000
     16     -19.6762      1.00000
     17     -19.6519      1.00000
     18     -19.6475      1.00000
     19     -19.6178      1.00000
     20     -19.6113      1.00000
     21     -11.8037      1.00000
     22     -11.8018      1.00000
     23     -11.7875      1.00000
     24     -11.7860      1.00000
     25     -11.7625      1.00000
     26     -11.7581      1.00000
     27     -11.7194      1.00000
     28     -11.7123      1.00000
     29     -11.6981      1.00000
     30     -11.6671      1.00000
     31     -11.6551      1.00000
     32     -11.6518      1.00000
     33      -8.3168      1.00000
     34      -7.8980      1.00000
     35      -7.4498      1.00000
     36      -6.9446      1.00000
     37      -6.7119      1.00000
     38      -6.7106      1.00000
     39      -6.6376      1.00000
     40      -6.5849      1.00000
     41      -2.9882      1.00000
     42      -2.4925      1.00000
     43      -1.5810      1.00000
     44      -1.2349      1.00000
     45      -0.6157      1.00000
     46      -0.2825      1.00000
     47      -0.2477      1.00000
     48      -0.2034      1.00000
     49      -0.1455      1.00000
     50       0.2681      1.00000
     51       0.6109      1.00000
     52       0.8389      1.00000
     53       1.1205      1.00000
     54       1.1289      1.00000
     55       1.2000      1.00000
     56       1.4891      1.00000
     57       1.5527      1.00000
     58       1.6024      1.00000
     59       1.7552      1.00000
     60       1.8011      1.00000
     61       1.8118      1.00000
     62       1.9601      1.00000
     63       2.0551      1.00000
     64       2.0825      1.00000
     65       4.6218      0.00000
     66       4.6855      0.00000
     67       4.9919      0.00000
     68       5.1587      0.00000
     69       5.2327      0.00000
     70       5.3662      0.00000
     71       5.5643      0.00000
     72       5.5980      0.00000
     73       5.8096      0.00000
     74       6.1138      0.00000
     75       6.2291      0.00000
     76       6.2980      0.00000
     77       6.3969      0.00000
     78       6.4348      0.00000
     79       6.4653      0.00000
     80       6.5762      0.00000

 k-point     6 :       0.1667    0.2000    0.0000
  band No.  band energies     occupation 
      1     -39.5390      1.00000
      2     -39.5380      1.00000
      3     -39.5336      1.00000
      4     -39.5327      1.00000
      5     -29.0005      1.00000
      6     -28.9978      1.00000
      7     -28.9938      1.00000
      8     -28.9912      1.00000
      9     -19.7202      1.00000
     10     -19.7160      1.00000
     11     -19.7145      1.00000
     12     -19.7097      1.00000
     13     -19.7069      1.00000
     14     -19.6924      1.00000
     15     -19.6823      1.00000
     16     -19.6762      1.00000
     17     -19.6519      1.00000
     18     -19.6475      1.00000
     19     -19.6178      1.00000
     20     -19.6113      1.00000
     21     -11.8066      1.00000
     22     -11.8011      1.00000
     23     -11.7881      1.00000
     24     -11.7861      1.00000
     25     -11.7624      1.00000
     26     -11.7578      1.00000
     27     -11.7197      1.00000
     28     -11.7116      1.00000
     29     -11.6977      1.00000
     30     -11.6670      1.00000
     31     -11.6551      1.00000
     32     -11.6519      1.00000
     33      -8.2891      1.00000
     34      -7.8818      1.00000
     35      -7.4542      1.00000
     36      -6.9635      1.00000
     37      -6.7363      1.00000
     38      -6.7310      1.00000
     39      -6.6354      1.00000
     40      -6.5918      1.00000
     41      -2.9846      1.00000
     42      -2.4600      1.00000
     43      -1.4719      1.00000
     44      -1.2136      1.00000
     45      -0.6579      1.00000
     46      -0.3448      1.00000
     47      -0.2331      1.00000
     48      -0.1629      1.00000
     49      -0.1200      1.00000
     50       0.2707      1.00000
     51       0.6583      1.00000
     52       0.8443      1.00000
     53       1.0543      1.00000
     54       1.1760      1.00000
     55       1.1974      1.00000
     56       1.4588      1.00000
     57       1.5153      1.00000
     58       1.5533      1.00000
     59       1.6233      1.00000
     60       1.7580      1.00000
     61       1.8071      1.00000
     62       1.9378      1.00000
     63       2.0145      1.00000
     64       2.1010      1.00000
     65       4.7159      0.00000
     66       4.7399      0.00000
     67       4.8774      0.00000
     68       5.1028      0.00000
     69       5.2938      0.00000
     70       5.3765      0.00000
     71       5.5794      0.00000
     72       5.6649      0.00000
     73       5.8268      0.00000
     74       6.1200      0.00000
     75       6.2054      0.00000
     76       6.3263      0.00000
     77       6.3807      0.00000
     78       6.4644      0.00000
     79       6.5069      0.00000
     80       6.7280      0.00000

 k-point     7 :       0.3333    0.2000    0.0000
  band No.  band energies     occupation 
      1     -39.5390      1.00000
      2     -39.5380      1.00000
      3     -39.5336      1.00000
      4     -39.5327      1.00000
      5     -29.0004      1.00000
      6     -28.9978      1.00000
      7     -28.9938      1.00000
      8     -28.9912      1.00000
      9     -19.7202      1.00000
     10     -19.7160      1.00000
     11     -19.7145      1.00000
     12     -19.7097      1.00000
     13     -19.7069      1.00000
     14     -19.6924      1.00000
     15     -19.6823      1.00000
     16     -19.6763      1.00000
     17     -19.6519      1.00000
     18     -19.6475      1.00000
     19     -19.6178      1.00000
     20     -19.6112      1.00000
     21     -11.8100      1.00000
     22     -11.8020      1.00000
     23     -11.7891      1.00000
     24     -11.7864      1.00000
     25     -11.7621      1.00000
     26     -11.7572      1.00000
     27     -11.7200      1.00000
     28     -11.7105      1.00000
     29     -11.6970      1.00000
     30     -11.6667      1.00000
     31     -11.6550      1.00000
     32     -11.6522      1.00000
     33      -8.2271      1.00000
     34      -7.8478      1.00000
     35      -7.4705      1.00000
     36      -7.0031      1.00000
     37      -6.7840      1.00000
     38      -6.7751      1.00000
     39      -6.6312      1.00000
     40      -6.6002      1.00000
     41      -2.9775      1.00000
     42      -2.3968      1.00000
     43      -1.2244      1.00000
     44      -1.1654      1.00000
     45      -0.7248      1.00000
     46      -0.3989      1.00000
     47      -0.2473      1.00000
     48      -0.1748      1.00000
     49       0.0260      1.00000
     50       0.2598      1.00000
     51       0.6950      1.00000
     52       0.8281      1.00000
     53       1.0007      1.00000
     54       1.0987      1.00000
     55       1.2125      1.00000
     56       1.2790      1.00000
     57       1.3979      1.00000
     58       1.5119      1.00000
     59       1.6017      1.00000
     60       1.7107      1.00000
     61       1.7576      1.00000
     62       1.9120      1.00000
     63       1.9262      1.00000
     64       2.1292      1.00000
     65       4.5618      0.00000
     66       4.7621      0.00000
     67       4.9801      0.00000
     68       5.0923      0.00000
     69       5.4299      0.00000
     70       5.5090      0.00000
     71       5.5406      0.00000
     72       5.7699      0.00000
     73       5.9227      0.00000
     74       6.0129      0.00000
     75       6.1938      0.00000
     76       6.3921      0.00000
     77       6.4785      0.00000
     78       6.5778      0.00000
     79       6.6159      0.00000
     80       6.6359      0.00000

 k-point     8 :       0.5000    0.2000    0.0000
  band No.  band energies     occupation 
      1     -39.5390      1.00000
      2     -39.5380      1.00000
      3     -39.5336      1.00000
      4     -39.5327      1.00000
      5     -29.0004      1.00000
      6     -28.9977      1.00000
      7     -28.9938      1.00000
      8     -28.9913      1.00000
      9     -19.7202      1.00000
     10     -19.7160      1.00000
     11     -19.7145      1.00000
     12     -19.7097      1.00000
     13     -19.7070      1.00000
     14     -19.6924      1.00000
     15     -19.6823      1.00000
     16     -19.6763      1.00000
     17     -19.6519      1.00000
     18     -19.6475      1.00000
     19     -19.6178      1.00000
     20     -19.6112      1.00000
     21     -11.8113      1.00000
     22     -11.8029      1.00000
     23     -11.7897      1.00000
     24     -11.7865      1.00000
     25     -11.7620      1.00000
     26     -11.7569      1.00000
     27     -11.7202      1.00000
     28     -11.7100      1.00000
     29     -11.6967      1.00000
     30     -11.6666      1.00000
     31     -11.6550      1.00000
     32     -11.6523      1.00000
     33      -8.1918      1.00000
     34      -7.8304      1.00000
     35      -7.4838      1.00000
     36      -7.0232      1.00000
     37      -6.8069      1.00000
     38      -6.7984      1.00000
     39      -6.6291      1.00000
     40      -6.6026      1.00000
     41      -2.9739      1.00000
     42      -2.3663      1.00000
     43      -1.1408      1.00000
     44      -1.0783      1.00000
     45      -0.7505      1.00000
     46      -0.4057      1.00000
     47      -0.2563      1.00000
     48      -0.1711      1.00000
     49       0.0898      1.00000
     50       0.2438      1.00000
     51       0.6435      1.00000
     52       0.7971      1.00000
     53       0.9797      1.00000
     54       1.0767      1.00000
     55       1.1243      1.00000
     56       1.3003      1.00000
     57       1.3417      1.00000
     58       1.4878      1.00000
     59       1.6121      1.00000
     60       1.6680      1.00000
     61       1.7896      1.00000
     62       1.8567      1.00000
     63       1.8943      1.00000
     64       2.1497      1.00000
     65       4.4730      0.00000
     66       4.7668      0.00000
     67       4.8837      0.00000
     68       5.3165      0.00000
     69       5.4187      0.00000
     70       5.5180      0.00000
     71       5.7021      0.00000
     72       5.7427      0.00000
     73       5.9321      0.00000
     74       6.0361      0.00000
     75       6.1961      0.00000
     76       6.4114      0.00000
     77       6.4603      0.00000
     78       6.5098      0.00000
     79       6.6193      0.00000
     80       6.7534      0.00000

 k-point     9 :      -0.3333    0.2000    0.0000
  band No.  band energies     occupation 
      1     -39.5390      1.00000
      2     -39.5380      1.00000
      3     -39.5336      1.00000
      4     -39.5327      1.00000
      5     -29.0004      1.00000
      6     -28.9978      1.00000
      7     -28.9938      1.00000
      8     -28.9912      1.00000
      9     -19.7202      1.00000
     10     -19.7160      1.00000
     11     -19.7145      1.00000
     12     -19.7097      1.00000
     13     -19.7069      1.00000
     14     -19.6924      1.00000
     15     -19.6823      1.00000
     16     -19.6763      1.00000
     17     -19.6519      1.00000
     18     -19.6475      1.00000
     19     -19.6178      1.00000
     20     -19.6112      1.00000
     21     -11.8100      1.00000
     22     -11.8020      1.00000
     23     -11.7891      1.00000
     24     -11.7864      1.00000
     25     -11.7622      1.00000
     26     -11.7572      1.00000
     27     -11.7201      1.00000
     28     -11.7105      1.00000
     29     -11.6971      1.00000
     30     -11.6667      1.00000
     31     -11.6550      1.00000
     32     -11.6522      1.00000
     33      -8.2271      1.00000
     34      -7.8478      1.00000
     35      -7.4706      1.00000
     36      -7.0031      1.00000
     37      -6.7842      1.00000
     38      -6.7749      1.00000
     39      -6.6312      1.00000
     40      -6.6002      1.00000
     41      -2.9774      1.00000
     42      -2.3969      1.00000
     43      -1.2245      1.00000
     44      -1.1653      1.00000
     45      -0.7248      1.00000
     46      -0.3991      1.00000
     47      -0.2470      1.00000
     48      -0.1748      1.00000
     49       0.0258      1.00000
     50       0.2599      1.00000
     51       0.6949      1.00000
     52       0.8281      1.00000
     53       1.0008      1.00000
     54       1.0991      1.00000
     55       1.2120      1.00000
     56       1.2790      1.00000
     57       1.3977      1.00000
     58       1.5119      1.00000
     59       1.6018      1.00000
     60       1.7107      1.00000
     61       1.7576      1.00000
     62       1.9119      1.00000
     63       1.9261      1.00000
     64       2.1292      1.00000
     65       4.5618      0.00000
     66       4.7620      0.00000
     67       4.9797      0.00000
     68       5.0926      0.00000
     69       5.4303      0.00000
     70       5.5088      0.00000
     71       5.5407      0.00000
     72       5.7696      0.00000
     73       5.9228      0.00000
     74       6.0131      0.00000
     75       6.1938      0.00000
     76       6.3926      0.00000
     77       6.4794      0.00000
     78       6.5783      0.00000
     79       6.6156      0.00000
     80       6.6357      0.00000

 k-point    10 :      -0.1667    0.2000    0.0000
  band No.  band energies     occupation 
      1     -39.5390      1.00000
      2     -39.5380      1.00000
      3     -39.5336      1.00000
      4     -39.5327      1.00000
      5     -29.0005      1.00000
      6     -28.9978      1.00000
      7     -28.9938      1.00000
      8     -28.9912      1.00000
      9     -19.7202      1.00000
     10     -19.7160      1.00000
     11     -19.7145      1.00000
     12     -19.7097      1.00000
     13     -19.7069      1.00000
     14     -19.6924      1.00000
     15     -19.6823      1.00000
     16     -19.6762      1.00000
     17     -19.6519      1.00000
     18     -19.6475      1.00000
     19     -19.6178      1.00000
     20     -19.6113      1.00000
     21     -11.8066      1.00000
     22     -11.8011      1.00000
     23     -11.7880      1.00000
     24     -11.7861      1.00000
     25     -11.7624      1.00000
     26     -11.7578      1.00000
     27     -11.7197      1.00000
     28     -11.7116      1.00000
     29     -11.6977      1.00000
     30     -11.6670      1.00000
     31     -11.6551      1.00000
     32     -11.6519      1.00000
     33      -8.2891      1.00000
     34      -7.8817      1.00000
     35      -7.4542      1.00000
     36      -6.9635      1.00000
     37      -6.7362      1.00000
     38      -6.7311      1.00000
     39      -6.6354      1.00000
     40      -6.5918      1.00000
     41      -2.9846      1.00000
     42      -2.4601      1.00000
     43      -1.4720      1.00000
     44      -1.2136      1.00000
     45      -0.6579      1.00000
     46      -0.3449      1.00000
     47      -0.2325      1.00000
     48      -0.1632      1.00000
     49      -0.1202      1.00000
     50       0.2708      1.00000
     51       0.6583      1.00000
     52       0.8444      1.00000
     53       1.0544      1.00000
     54       1.1762      1.00000
     55       1.1975      1.00000
     56       1.4590      1.00000
     57       1.5148      1.00000
     58       1.5533      1.00000
     59       1.6230      1.00000
     60       1.7580      1.00000
     61       1.8076      1.00000
     62       1.9376      1.00000
     63       2.0145      1.00000
     64       2.1009      1.00000
     65       4.7160      0.00000
     66       4.7399      0.00000
     67       4.8775      0.00000
     68       5.1023      0.00000
     69       5.2939      0.00000
     70       5.3766      0.00000
     71       5.5792      0.00000
     72       5.6646      0.00000
     73       5.8273      0.00000
     74       6.1196      0.00000
     75       6.2054      0.00000
     76       6.3264      0.00000
     77       6.3812      0.00000
     78       6.4651      0.00000
     79       6.5066      0.00000
     80       6.7547      0.00000

 k-point    11 :      -0.0000    0.4000   -0.0000
  band No.  band energies     occupation 
      1     -39.5387      1.00000
      2     -39.5383      1.00000
      3     -39.5334      1.00000
      4     -39.5329      1.00000
      5     -28.9999      1.00000
      6     -28.9988      1.00000
      7     -28.9928      1.00000
      8     -28.9917      1.00000
      9     -19.7200      1.00000
     10     -19.7186      1.00000
     11     -19.7126      1.00000
     12     -19.7107      1.00000
     13     -19.7023      1.00000
     14     -19.6972      1.00000
     15     -19.6792      1.00000
     16     -19.6772      1.00000
     17     -19.6510      1.00000
     18     -19.6493      1.00000
     19     -19.6155      1.00000
     20     -19.6130      1.00000
     21     -11.8027      1.00000
     22     -11.8019      1.00000
     23     -11.7874      1.00000
     24     -11.7868      1.00000
     25     -11.7623      1.00000
     26     -11.7604      1.00000
     27     -11.7175      1.00000
     28     -11.7153      1.00000
     29     -11.6876      1.00000
     30     -11.6768      1.00000
     31     -11.6530      1.00000
     32     -11.6521      1.00000
     33      -8.2158      1.00000
     34      -8.0673      1.00000
     35      -7.2635      1.00000
     36      -7.0831      1.00000
     37      -6.6997      1.00000
     38      -6.6984      1.00000
     39      -6.6317      1.00000
     40      -6.6122      1.00000
     41      -2.8284      1.00000
     42      -2.6402      1.00000
     43      -1.5089      1.00000
     44      -1.3870      1.00000
     45      -0.5148      1.00000
     46      -0.3869      1.00000
     47      -0.0850      1.00000
     48      -0.0433      1.00000
     49       0.0436      1.00000
     50       0.2469      1.00000
     51       0.5355      1.00000
     52       0.6339      1.00000
     53       1.0515      1.00000
     54       1.0924      1.00000
     55       1.2591      1.00000
     56       1.4047      1.00000
     57       1.4890      1.00000
     58       1.5808      1.00000
     59       1.6951      1.00000
     60       1.7629      1.00000
     61       1.7717      1.00000
     62       1.8623      1.00000
     63       2.0769      1.00000
     64       2.0913      1.00000
     65       4.8362      0.00000
     66       4.9765      0.00000
     67       4.9949      0.00000
     68       5.1933      0.00000
     69       5.2551      0.00000
     70       5.3525      0.00000
     71       5.5774      0.00000
     72       5.6531      0.00000
     73       5.7626      0.00000
     74       5.9699      0.00000
     75       6.2806      0.00000
     76       6.3656      0.00000
     77       6.4049      0.00000
     78       6.4196      0.00000
     79       6.5309      0.00000
     80       6.7365      0.00000

 k-point    12 :       0.1667    0.4000   -0.0000
  band No.  band energies     occupation 
      1     -39.5387      1.00000
      2     -39.5383      1.00000
      3     -39.5334      1.00000
      4     -39.5329      1.00000
      5     -28.9999      1.00000
      6     -28.9988      1.00000
      7     -28.9928      1.00000
      8     -28.9917      1.00000
      9     -19.7200      1.00000
     10     -19.7186      1.00000
     11     -19.7126      1.00000
     12     -19.7107      1.00000
     13     -19.7022      1.00000
     14     -19.6972      1.00000
     15     -19.6792      1.00000
     16     -19.6772      1.00000
     17     -19.6509      1.00000
     18     -19.6493      1.00000
     19     -19.6155      1.00000
     20     -19.6130      1.00000
     21     -11.8047      1.00000
     22     -11.8025      1.00000
     23     -11.7878      1.00000
     24     -11.7868      1.00000
     25     -11.7622      1.00000
     26     -11.7603      1.00000
     27     -11.7173      1.00000
     28     -11.7148      1.00000
     29     -11.6873      1.00000
     30     -11.6765      1.00000
     31     -11.6530      1.00000
     32     -11.6522      1.00000
     33      -8.1905      1.00000
     34      -8.0461      1.00000
     35      -7.2731      1.00000
     36      -7.0976      1.00000
     37      -6.7260      1.00000
     38      -6.7222      1.00000
     39      -6.6302      1.00000
     40      -6.6147      1.00000
     41      -2.8195      1.00000
     42      -2.6208      1.00000
     43      -1.4139      1.00000
     44      -1.3209      1.00000
     45      -0.5344      1.00000
     46      -0.3994      1.00000
     47      -0.1120      1.00000
     48      -0.0617      1.00000
     49       0.0284      1.00000
     50       0.2140      1.00000
     51       0.5763      1.00000
     52       0.6841      1.00000
     53       1.0499      1.00000
     54       1.0757      1.00000
     55       1.2627      1.00000
     56       1.4027      1.00000
     57       1.4754      1.00000
     58       1.4841      1.00000
     59       1.6732      1.00000
     60       1.7259      1.00000
     61       1.7546      1.00000
     62       1.8308      1.00000
     63       2.0431      1.00000
     64       2.0743      1.00000
     65       4.8638      0.00000
     66       4.9504      0.00000
     67       5.0072      0.00000
     68       5.1432      0.00000
     69       5.2916      0.00000
     70       5.3176      0.00000
     71       5.5781      0.00000
     72       5.6071      0.00000
     73       5.8823      0.00000
     74       6.0274      0.00000
     75       6.2909      0.00000
     76       6.3723      0.00000
     77       6.3920      0.00000
     78       6.4601      0.00000
     79       6.5964      0.00000
     80       6.7678      0.00000

 k-point    13 :       0.3333    0.4000    0.0000
  band No.  band energies     occupation 
      1     -39.5387      1.00000
      2     -39.5383      1.00000
      3     -39.5334      1.00000
      4     -39.5329      1.00000
      5     -28.9998      1.00000
      6     -28.9987      1.00000
      7     -28.9928      1.00000
      8     -28.9918      1.00000
      9     -19.7200      1.00000
     10     -19.7186      1.00000
     11     -19.7126      1.00000
     12     -19.7107      1.00000
     13     -19.7022      1.00000
     14     -19.6972      1.00000
     15     -19.6793      1.00000
     16     -19.6772      1.00000
     17     -19.6509      1.00000
     18     -19.6492      1.00000
     19     -19.6155      1.00000
     20     -19.6130      1.00000
     21     -11.8077      1.00000
     22     -11.8045      1.00000
     23     -11.7884      1.00000
     24     -11.7872      1.00000
     25     -11.7620      1.00000
     26     -11.7599      1.00000
     27     -11.7170      1.00000
     28     -11.7139      1.00000
     29     -11.6868      1.00000
     30     -11.6761      1.00000
     31     -11.6531      1.00000
     32     -11.6524      1.00000
     33      -8.1347      1.00000
     34      -8.0003      1.00000
     35      -7.3000      1.00000
     36      -7.1326      1.00000
     37      -6.7755      1.00000
     38      -6.7705      1.00000
     39      -6.6270      1.00000
     40      -6.6160      1.00000
     41      -2.8027      1.00000
     42      -2.5846      1.00000
     43      -1.1970      1.00000
     44      -1.1691      1.00000
     45      -0.5896      1.00000
     46      -0.4390      1.00000
     47      -0.1458      1.00000
     48      -0.0592      1.00000
     49       0.0170      1.00000
     50       0.1474      1.00000
     51       0.6345      1.00000
     52       0.7208      1.00000
     53       1.0058      1.00000
     54       1.0417      1.00000
     55       1.2138      1.00000
     56       1.2453      1.00000
     57       1.4584      1.00000
     58       1.4768      1.00000
     59       1.5774      1.00000
     60       1.6819      1.00000
     61       1.7281      1.00000
     62       1.8409      1.00000
     63       1.9836      1.00000
     64       2.0536      1.00000
     65       4.7684      0.00000
     66       4.9245      0.00000
     67       5.0525      0.00000
     68       5.1412      0.00000
     69       5.2999      0.00000
     70       5.3420      0.00000
     71       5.4974      0.00000
     72       5.7019      0.00000
     73       5.9461      0.00000
     74       6.0532      0.00000
     75       6.3625      0.00000
     76       6.4015      0.00000
     77       6.5453      0.00000
     78       6.5631      0.00000
     79       6.6254      0.00000
     80       6.7706      0.00000

 k-point    14 :       0.5000    0.4000    0.0000
  band No.  band energies     occupation 
      1     -39.5387      1.00000
      2     -39.5383      1.00000
      3     -39.5334      1.00000
      4     -39.5329      1.00000
      5     -28.9998      1.00000
      6     -28.9987      1.00000
      7     -28.9929      1.00000
      8     -28.9918      1.00000
      9     -19.7200      1.00000
     10     -19.7186      1.00000
     11     -19.7126      1.00000
     12     -19.7107      1.00000
     13     -19.7023      1.00000
     14     -19.6972      1.00000
     15     -19.6793      1.00000
     16     -19.6773      1.00000
     17     -19.6509      1.00000
     18     -19.6492      1.00000
     19     -19.6155      1.00000
     20     -19.6130      1.00000
     21     -11.8089      1.00000
     22     -11.8056      1.00000
     23     -11.7888      1.00000
     24     -11.7875      1.00000
     25     -11.7618      1.00000
     26     -11.7598      1.00000
     27     -11.7168      1.00000
     28     -11.7134      1.00000
     29     -11.6865      1.00000
     30     -11.6758      1.00000
     31     -11.6532      1.00000
     32     -11.6525      1.00000
     33      -8.1034      1.00000
     34      -7.9753      1.00000
     35      -7.3184      1.00000
     36      -7.1537      1.00000
     37      -6.7983      1.00000
     38      -6.7936      1.00000
     39      -6.6253      1.00000
     40      -6.6158      1.00000
     41      -2.7947      1.00000
     42      -2.5675      1.00000
     43      -1.0796      1.00000
     44      -1.0674      1.00000
     45      -0.6253      1.00000
     46      -0.4622      1.00000
     47      -0.1640      1.00000
     48      -0.0394      1.00000
     49       0.0145      1.00000
     50       0.1192      1.00000
     51       0.6247      1.00000
     52       0.7151      1.00000
     53       1.0104      1.00000
     54       1.0734      1.00000
     55       1.0799      1.00000
     56       1.1382      1.00000
     57       1.4221      1.00000
     58       1.4638      1.00000
     59       1.5934      1.00000
     60       1.7174      1.00000
     61       1.7353      1.00000
     62       1.8400      1.00000
     63       1.9467      1.00000
     64       2.0434      1.00000
     65       4.7199      0.00000
     66       4.8693      0.00000
     67       5.0033      0.00000
     68       5.2308      0.00000
     69       5.2943      0.00000
     70       5.3106      0.00000
     71       5.6441      0.00000
     72       5.7911      0.00000
     73       5.9198      0.00000
     74       5.9995      0.00000
     75       6.3672      0.00000
     76       6.3768      0.00000
     77       6.4889      0.00000
     78       6.5235      0.00000
     79       6.6586      0.00000
     80       6.7444      0.00000

 k-point    15 :      -0.3333    0.4000    0.0000
  band No.  band energies     occupation 
      1     -39.5387      1.00000
      2     -39.5383      1.00000
      3     -39.5334      1.00000
      4     -39.5329      1.00000
      5     -28.9998      1.00000
      6     -28.9987      1.00000
      7     -28.9928      1.00000
      8     -28.9918      1.00000
      9     -19.7200      1.00000
     10     -19.7186      1.00000
     11     -19.7126      1.00000
     12     -19.7107      1.00000
     13     -19.7022      1.00000
     14     -19.6972      1.00000
     15     -19.6793      1.00000
     16     -19.6772      1.00000
     17     -19.6509      1.00000
     18     -19.6492      1.00000
     19     -19.6155      1.00000
     20     -19.6130      1.00000
     21     -11.8076      1.00000
     22     -11.8045      1.00000
     23     -11.7883      1.00000
     24     -11.7873      1.00000
     25     -11.7620      1.00000
     26     -11.7599      1.00000
     27     -11.7170      1.00000
     28     -11.7138      1.00000
     29     -11.6868      1.00000
     30     -11.6761      1.00000
     31     -11.6532      1.00000
     32     -11.6524      1.00000
     33      -8.1347      1.00000
     34      -8.0003      1.00000
     35      -7.3000      1.00000
     36      -7.1326      1.00000
     37      -6.7757      1.00000
     38      -6.7703      1.00000
     39      -6.6270      1.00000
     40      -6.6160      1.00000
     41      -2.8026      1.00000
     42      -2.5846      1.00000
     43      -1.1971      1.00000
     44      -1.1689      1.00000
     45      -0.5895      1.00000
     46      -0.4391      1.00000
     47      -0.1456      1.00000
     48      -0.0590      1.00000
     49       0.0168      1.00000
     50       0.1472      1.00000
     51       0.6345      1.00000
     52       0.7209      1.00000
     53       1.0058      1.00000
     54       1.0419      1.00000
     55       1.2136      1.00000
     56       1.2453      1.00000
     57       1.4588      1.00000
     58       1.4765      1.00000
     59       1.5770      1.00000
     60       1.6821      1.00000
     61       1.7282      1.00000
     62       1.8407      1.00000
     63       1.9837      1.00000
     64       2.0535      1.00000
     65       4.7685      0.00000
     66       4.9243      0.00000
     67       5.0521      0.00000
     68       5.1410      0.00000
     69       5.3004      0.00000
     70       5.3420      0.00000
     71       5.4976      0.00000
     72       5.7015      0.00000
     73       5.9463      0.00000
     74       6.0531      0.00000
     75       6.3629      0.00000
     76       6.4015      0.00000
     77       6.5454      0.00000
     78       6.5635      0.00000
     79       6.6250      0.00000
     80       6.7582      0.00000

 k-point    16 :      -0.1667    0.4000    0.0000
  band No.  band energies     occupation 
      1     -39.5387      1.00000
      2     -39.5383      1.00000
      3     -39.5334      1.00000
      4     -39.5329      1.00000
      5     -28.9999      1.00000
      6     -28.9988      1.00000
      7     -28.9928      1.00000
      8     -28.9917      1.00000
      9     -19.7200      1.00000
     10     -19.7186      1.00000
     11     -19.7126      1.00000
     12     -19.7107      1.00000
     13     -19.7022      1.00000
     14     -19.6972      1.00000
     15     -19.6792      1.00000
     16     -19.6772      1.00000
     17     -19.6509      1.00000
     18     -19.6493      1.00000
     19     -19.6155      1.00000
     20     -19.6130      1.00000
     21     -11.8047      1.00000
     22     -11.8025      1.00000
     23     -11.7876      1.00000
     24     -11.7870      1.00000
     25     -11.7622      1.00000
     26     -11.7602      1.00000
     27     -11.7174      1.00000
     28     -11.7148      1.00000
     29     -11.6873      1.00000
     30     -11.6765      1.00000
     31     -11.6531      1.00000
     32     -11.6522      1.00000
     33      -8.1905      1.00000
     34      -8.0461      1.00000
     35      -7.2732      1.00000
     36      -7.0976      1.00000
     37      -6.7260      1.00000
     38      -6.7222      1.00000
     39      -6.6302      1.00000
     40      -6.6148      1.00000
     41      -2.8194      1.00000
     42      -2.6209      1.00000
     43      -1.4140      1.00000
     44      -1.3209      1.00000
     45      -0.5344      1.00000
     46      -0.3995      1.00000
     47      -0.1118      1.00000
     48      -0.0617      1.00000
     49       0.0283      1.00000
     50       0.2139      1.00000
     51       0.5763      1.00000
     52       0.6842      1.00000
     53       1.0497      1.00000
     54       1.0760      1.00000
     55       1.2629      1.00000
     56       1.4022      1.00000
     57       1.4751      1.00000
     58       1.4844      1.00000
     59       1.6731      1.00000
     60       1.7258      1.00000
     61       1.7550      1.00000
     62       1.8307      1.00000
     63       2.0432      1.00000
     64       2.0741      1.00000
     65       4.8637      0.00000
     66       4.9510      0.00000
     67       5.0070      0.00000
     68       5.1425      0.00000
     69       5.2909      0.00000
     70       5.3186      0.00000
     71       5.5781      0.00000
     72       5.6073      0.00000
     73       5.8822      0.00000
     74       6.0272      0.00000
     75       6.2914      0.00000
     76       6.3723      0.00000
     77       6.3925      0.00000
     78       6.4603      0.00000
     79       6.5962      0.00000
     80       6.7665      0.00000

 k-point    17 :      -0.0000   -0.0000    0.1667
  band No.  band energies     occupation 
      1     -39.5390      1.00000
      2     -39.5380      1.00000
      3     -39.5337      1.00000
      4     -39.5327      1.00000
      5     -29.0005      1.00000
      6     -28.9975      1.00000
      7     -28.9941      1.00000
      8     -28.9912      1.00000
      9     -19.7206      1.00000
     10     -19.7181      1.00000
     11     -19.7122      1.00000
     12     -19.7092      1.00000
     13     -19.7077      1.00000
     14     -19.6904      1.00000
     15     -19.6840      1.00000
     16     -19.6765      1.00000
     17     -19.6519      1.00000
     18     -19.6470      1.00000
     19     -19.6180      1.00000
     20     -19.6110      1.00000
     21     -11.8032      1.00000
     22     -11.8006      1.00000
     23     -11.7900      1.00000
     24     -11.7861      1.00000
     25     -11.7656      1.00000
     26     -11.7636      1.00000
     27     -11.7147      1.00000
     28     -11.7075      1.00000
     29     -11.7048      1.00000
     30     -11.6645      1.00000
     31     -11.6586      1.00000
     32     -11.6493      1.00000
     33      -8.3021      1.00000
     34      -7.7963      1.00000
     35      -7.5211      1.00000
     36      -6.8949      1.00000
     37      -6.7433      1.00000
     38      -6.7292      1.00000
     39      -6.7066      1.00000
     40      -6.6048      1.00000
     41      -2.9188      1.00000
     42      -2.2888      1.00000
     43      -1.6258      1.00000
     44      -1.2506      1.00000
     45      -0.7144      1.00000
     46      -0.5813      1.00000
     47      -0.2574      1.00000
     48      -0.0826      1.00000
     49      -0.0578      1.00000
     50       0.3246      1.00000
     51       0.7267      1.00000
     52       0.8075      1.00000
     53       1.0429      1.00000
     54       1.1826      1.00000
     55       1.1897      1.00000
     56       1.3534      1.00000
     57       1.5293      1.00000
     58       1.6910      1.00000
     59       1.7672      1.00000
     60       1.7751      1.00000
     61       1.8908      1.00000
     62       1.9035      1.00000
     63       1.9538      1.00000
     64       2.0521      1.00000
     65       4.5861      0.00000
     66       4.6135      0.00000
     67       4.9165      0.00000
     68       4.9652      0.00000
     69       5.4307      0.00000
     70       5.5254      0.00000
     71       5.6370      0.00000
     72       5.7312      0.00000
     73       5.7503      0.00000
     74       6.1249      0.00000
     75       6.1514      0.00000
     76       6.1815      0.00000
     77       6.2315      0.00000
     78       6.3745      0.00000
     79       6.4517      0.00000
     80       6.5964      0.00000

 k-point    18 :       0.1667    0.0000    0.1667
  band No.  band energies     occupation 
      1     -39.5390      1.00000
      2     -39.5380      1.00000
      3     -39.5337      1.00000
      4     -39.5327      1.00000
      5     -29.0004      1.00000
      6     -28.9975      1.00000
      7     -28.9941      1.00000
      8     -28.9912      1.00000
      9     -19.7206      1.00000
     10     -19.7181      1.00000
     11     -19.7122      1.00000
     12     -19.7092      1.00000
     13     -19.7077      1.00000
     14     -19.6904      1.00000
     15     -19.6841      1.00000
     16     -19.6765      1.00000
     17     -19.6519      1.00000
     18     -19.6470      1.00000
     19     -19.6180      1.00000
     20     -19.6110      1.00000
     21     -11.8065      1.00000
     22     -11.7994      1.00000
     23     -11.7897      1.00000
     24     -11.7874      1.00000
     25     -11.7656      1.00000
     26     -11.7625      1.00000
     27     -11.7154      1.00000
     28     -11.7071      1.00000
     29     -11.7041      1.00000
     30     -11.6647      1.00000
     31     -11.6588      1.00000
     32     -11.6488      1.00000
     33      -8.2602      1.00000
     34      -7.7871      1.00000
     35      -7.5274      1.00000
     36      -6.9328      1.00000
     37      -6.7449      1.00000
     38      -6.7326      1.00000
     39      -6.7151      1.00000
     40      -6.6363      1.00000
     41      -2.9094      1.00000
     42      -2.2215      1.00000
     43      -1.4736      1.00000
     44      -1.2563      1.00000
     45      -0.8080      1.00000
     46      -0.5629      1.00000
     47      -0.1900      1.00000
     48      -0.1316      1.00000
     49      -0.0482      1.00000
     50       0.3404      1.00000
     51       0.7442      1.00000
     52       0.8240      1.00000
     53       1.0263      1.00000
     54       1.1759      1.00000
     55       1.1967      1.00000
     56       1.3479      1.00000
     57       1.3812      1.00000
     58       1.6399      1.00000
     59       1.6690      1.00000
     60       1.7497      1.00000
     61       1.8531      1.00000
     62       1.9109      1.00000
     63       1.9657      1.00000
     64       1.9686      1.00000
     65       4.5877      0.00000
     66       4.7523      0.00000
     67       4.7882      0.00000
     68       4.9024      0.00000
     69       5.4817      0.00000
     70       5.5703      0.00000
     71       5.7573      0.00000
     72       5.7855      0.00000
     73       5.9195      0.00000
     74       5.9693      0.00000
     75       6.1030      0.00000
     76       6.2878      0.00000
     77       6.2915      0.00000
     78       6.4057      0.00000
     79       6.5609      0.00000
     80       6.7533      0.00000

 k-point    19 :       0.3333    0.0000    0.1667
  band No.  band energies     occupation 
      1     -39.5390      1.00000
      2     -39.5380      1.00000
      3     -39.5337      1.00000
      4     -39.5327      1.00000
      5     -29.0004      1.00000
      6     -28.9974      1.00000
      7     -28.9942      1.00000
      8     -28.9913      1.00000
      9     -19.7206      1.00000
     10     -19.7181      1.00000
     11     -19.7122      1.00000
     12     -19.7092      1.00000
     13     -19.7077      1.00000
     14     -19.6904      1.00000
     15     -19.6841      1.00000
     16     -19.6766      1.00000
     17     -19.6518      1.00000
     18     -19.6470      1.00000
     19     -19.6180      1.00000
     20     -19.6110      1.00000
     21     -11.8097      1.00000
     22     -11.7999      1.00000
     23     -11.7916      1.00000
     24     -11.7870      1.00000
     25     -11.7653      1.00000
     26     -11.7621      1.00000
     27     -11.7159      1.00000
     28     -11.7062      1.00000
     29     -11.7033      1.00000
     30     -11.6650      1.00000
     31     -11.6587      1.00000
     32     -11.6486      1.00000
     33      -8.1988      1.00000
     34      -7.7608      1.00000
     35      -7.5431      1.00000
     36      -6.9675      1.00000
     37      -6.7833      1.00000
     38      -6.7755      1.00000
     39      -6.7120      1.00000
     40      -6.6406      1.00000
     41      -2.9094      1.00000
     42      -2.1695      1.00000
     43      -1.3296      1.00000
     44      -1.2147      1.00000
     45      -0.7891      1.00000
     46      -0.5506      1.00000
     47      -0.1448      1.00000
     48      -0.1329      1.00000
     49      -0.0194      1.00000
     50       0.3707      1.00000
     51       0.6937      1.00000
     52       0.7932      1.00000
     53       1.0544      1.00000
     54       1.1074      1.00000
     55       1.1113      1.00000
     56       1.2078      1.00000
     57       1.3487      1.00000
     58       1.5825      1.00000
     59       1.6849      1.00000
     60       1.7453      1.00000
     61       1.7696      1.00000
     62       1.8445      1.00000
     63       1.8995      1.00000
     64       2.0037      1.00000
     65       4.4197      0.00000
     66       4.7042      0.00000
     67       4.8412      0.00000
     68       5.1271      0.00000
     69       5.5271      0.00000
     70       5.6180      0.00000
     71       5.6848      0.00000
     72       5.8185      0.00000
     73       5.9424      0.00000
     74       6.0372      0.00000
     75       6.0505      0.00000
     76       6.4206      0.00000
     77       6.4366      0.00000
     78       6.6058      0.00000
     79       6.6985      0.00000
     80       6.7314      0.00000

 k-point    20 :       0.5000   -0.0000    0.1667
  band No.  band energies     occupation 
      1     -39.5390      1.00000
      2     -39.5380      1.00000
      3     -39.5337      1.00000
      4     -39.5327      1.00000
      5     -29.0004      1.00000
      6     -28.9974      1.00000
      7     -28.9942      1.00000
      8     -28.9913      1.00000
      9     -19.7206      1.00000
     10     -19.7181      1.00000
     11     -19.7122      1.00000
     12     -19.7092      1.00000
     13     -19.7077      1.00000
     14     -19.6904      1.00000
     15     -19.6842      1.00000
     16     -19.6766      1.00000
     17     -19.6518      1.00000
     18     -19.6470      1.00000
     19     -19.6180      1.00000
     20     -19.6110      1.00000
     21     -11.8107      1.00000
     22     -11.8004      1.00000
     23     -11.7926      1.00000
     24     -11.7864      1.00000
     25     -11.7651      1.00000
     26     -11.7626      1.00000
     27     -11.7158      1.00000
     28     -11.7057      1.00000
     29     -11.7030      1.00000
     30     -11.6651      1.00000
     31     -11.6585      1.00000
     32     -11.6489      1.00000
     33      -8.1840      1.00000
     34      -7.7429      1.00000
     35      -7.5447      1.00000
     36      -6.9734      1.00000
     37      -6.8218      1.00000
     38      -6.7869      1.00000
     39      -6.7145      1.00000
     40      -6.6212      1.00000
     41      -2.9165      1.00000
     42      -2.1913      1.00000
     43      -1.3476      1.00000
     44      -1.1871      1.00000
     45      -0.6955      1.00000
     46      -0.5261      1.00000
     47      -0.1887      1.00000
     48      -0.0927      1.00000
     49       0.0732      1.00000
     50       0.3954      1.00000
     51       0.7021      1.00000
     52       0.7176      1.00000
     53       0.9230      1.00000
     54       1.0661      1.00000
     55       1.0773      1.00000
     56       1.2394      1.00000
     57       1.3764      1.00000
     58       1.5397      1.00000
     59       1.6574      1.00000
     60       1.7219      1.00000
     61       1.7899      1.00000
     62       1.8172      1.00000
     63       1.9520      1.00000
     64       2.0122      1.00000
     65       4.4057      0.00000
     66       4.6852      0.00000
     67       4.8709      0.00000
     68       5.3478      0.00000
     69       5.4715      0.00000
     70       5.5016      0.00000
     71       5.5420      0.00000
     72       5.7503      0.00000
     73       5.9899      0.00000
     74       6.0602      0.00000
     75       6.0891      0.00000
     76       6.4485      0.00000
     77       6.4858      0.00000
     78       6.5382      0.00000
     79       6.7286      0.00000
     80       6.7424      0.00000

 k-point    21 :      -0.3333   -0.0000    0.1667
  band No.  band energies     occupation 
      1     -39.5390      1.00000
      2     -39.5380      1.00000
      3     -39.5337      1.00000
      4     -39.5327      1.00000
      5     -29.0004      1.00000
      6     -28.9974      1.00000
      7     -28.9942      1.00000
      8     -28.9913      1.00000
      9     -19.7206      1.00000
     10     -19.7181      1.00000
     11     -19.7122      1.00000
     12     -19.7092      1.00000
     13     -19.7077      1.00000
     14     -19.6904      1.00000
     15     -19.6841      1.00000
     16     -19.6766      1.00000
     17     -19.6518      1.00000
     18     -19.6470      1.00000
     19     -19.6181      1.00000
     20     -19.6110      1.00000
     21     -11.8092      1.00000
     22     -11.7996      1.00000
     23     -11.7924      1.00000
     24     -11.7856      1.00000
     25     -11.7652      1.00000
     26     -11.7637      1.00000
     27     -11.7152      1.00000
     28     -11.7060      1.00000
     29     -11.7035      1.00000
     30     -11.6649      1.00000
     31     -11.6583      1.00000
     32     -11.6494      1.00000
     33      -8.2343      1.00000
     34      -7.7534      1.00000
     35      -7.5272      1.00000
     36      -6.9367      1.00000
     37      -6.8146      1.00000
     38      -6.7635      1.00000
     39      -6.7232      1.00000
     40      -6.5998      1.00000
     41      -2.9248      1.00000
     42      -2.2579      1.00000
     43      -1.3956      1.00000
     44      -1.3063      1.00000
     45      -0.6067      1.00000
     46      -0.5805      1.00000
     47      -0.2513      1.00000
     48      -0.0543      1.00000
     49       0.0583      1.00000
     50       0.3916      1.00000
     51       0.7603      1.00000
     52       0.8636      1.00000
     53       0.9038      1.00000
     54       1.0736      1.00000
     55       1.1009      1.00000
     56       1.2654      1.00000
     57       1.3708      1.00000
     58       1.5425      1.00000
     59       1.7011      1.00000
     60       1.7035      1.00000
     61       1.8288      1.00000
     62       1.8293      1.00000
     63       2.0314      1.00000
     64       2.0560      1.00000
     65       4.5789      0.00000
     66       4.6022      0.00000
     67       4.9451      0.00000
     68       5.1441      0.00000
     69       5.3714      0.00000
     70       5.4758      0.00000
     71       5.6722      0.00000
     72       5.6873      0.00000
     73       5.8574      0.00000
     74       5.9351      0.00000
     75       6.0943      0.00000
     76       6.3896      0.00000
     77       6.4375      0.00000
     78       6.5672      0.00000
     79       6.6742      0.00000
     80       6.7471      0.00000

 k-point    22 :      -0.1667   -0.0000    0.1667
  band No.  band energies     occupation 
      1     -39.5390      1.00000
      2     -39.5380      1.00000
      3     -39.5337      1.00000
      4     -39.5327      1.00000
      5     -29.0004      1.00000
      6     -28.9975      1.00000
      7     -28.9941      1.00000
      8     -28.9912      1.00000
      9     -19.7206      1.00000
     10     -19.7181      1.00000
     11     -19.7123      1.00000
     12     -19.7092      1.00000
     13     -19.7077      1.00000
     14     -19.6904      1.00000
     15     -19.6841      1.00000
     16     -19.6765      1.00000
     17     -19.6519      1.00000
     18     -19.6470      1.00000
     19     -19.6180      1.00000
     20     -19.6110      1.00000
     21     -11.8057      1.00000
     22     -11.7996      1.00000
     23     -11.7913      1.00000
     24     -11.7851      1.00000
     25     -11.7654      1.00000
     26     -11.7642      1.00000
     27     -11.7147      1.00000
     28     -11.7069      1.00000
     29     -11.7045      1.00000
     30     -11.6646      1.00000
     31     -11.6583      1.00000
     32     -11.6496      1.00000
     33      -8.2904      1.00000
     34      -7.7803      1.00000
     35      -7.5202      1.00000
     36      -6.8920      1.00000
     37      -6.7750      1.00000
     38      -6.7319      1.00000
     39      -6.7268      1.00000
     40      -6.5902      1.00000
     41      -2.9272      1.00000
     42      -2.3037      1.00000
     43      -1.5815      1.00000
     44      -1.2830      1.00000
     45      -0.6003      1.00000
     46      -0.5998      1.00000
     47      -0.2681      1.00000
     48      -0.0896      1.00000
     49      -0.0278      1.00000
     50       0.3507      1.00000
     51       0.7740      1.00000
     52       0.8014      1.00000
     53       1.0592      1.00000
     54       1.1339      1.00000
     55       1.1922      1.00000
     56       1.2914      1.00000
     57       1.4579      1.00000
     58       1.6514      1.00000
     59       1.7058      1.00000
     60       1.8207      1.00000
     61       1.8376      1.00000
     62       1.8622      1.00000
     63       2.0026      1.00000
     64       2.1010      1.00000
     65       4.5844      0.00000
     66       4.6299      0.00000
     67       4.9408      0.00000
     68       5.0982      0.00000
     69       5.3631      0.00000
     70       5.3913      0.00000
     71       5.5003      0.00000
     72       5.7231      0.00000
     73       5.7846      0.00000
     74       6.1218      0.00000
     75       6.1732      0.00000
     76       6.2301      0.00000
     77       6.3146      0.00000
     78       6.5028      0.00000
     79       6.5826      0.00000
     80       6.6391      0.00000

 k-point    23 :       0.0000    0.2000    0.1667
  band No.  band energies     occupation 
      1     -39.5389      1.00000
      2     -39.5381      1.00000
      3     -39.5336      1.00000
      4     -39.5328      1.00000
      5     -29.0003      1.00000
      6     -28.9979      1.00000
      7     -28.9936      1.00000
      8     -28.9914      1.00000
      9     -19.7207      1.00000
     10     -19.7176      1.00000
     11     -19.7139      1.00000
     12     -19.7096      1.00000
     13     -19.7052      1.00000
     14     -19.6925      1.00000
     15     -19.6823      1.00000
     16     -19.6768      1.00000
     17     -19.6516      1.00000
     18     -19.6476      1.00000
     19     -19.6172      1.00000
     20     -19.6116      1.00000
     21     -11.8032      1.00000
     22     -11.8007      1.00000
     23     -11.7896      1.00000
     24     -11.7868      1.00000
     25     -11.7669      1.00000
     26     -11.7614      1.00000
     27     -11.7182      1.00000
     28     -11.7108      1.00000
     29     -11.6966      1.00000
     30     -11.6684      1.00000
     31     -11.6563      1.00000
     32     -11.6498      1.00000
     33      -8.2680      1.00000
     34      -7.8854      1.00000
     35      -7.4278      1.00000
     36      -6.9541      1.00000
     37      -6.7319      1.00000
     38      -6.7208      1.00000
     39      -6.7015      1.00000
     40      -6.6193      1.00000
     41      -2.8563      1.00000
     42      -2.3516      1.00000
     43      -1.5964      1.00000
     44      -1.3054      1.00000
     45      -0.6605      1.00000
     46      -0.5040      1.00000
     47      -0.2177      1.00000
     48      -0.1589      1.00000
     49       0.0478      1.00000
     50       0.2990      1.00000
     51       0.6734      1.00000
     52       0.7893      1.00000
     53       0.9957      1.00000
     54       1.1378      1.00000
     55       1.1917      1.00000
     56       1.4067      1.00000
     57       1.5194      1.00000
     58       1.6298      1.00000
     59       1.6738      1.00000
     60       1.7778      1.00000
     61       1.8317      1.00000
     62       1.9496      1.00000
     63       1.9548      1.00000
     64       2.0389      1.00000
     65       4.6430      0.00000
     66       4.7430      0.00000
     67       4.8963      0.00000
     68       5.1351      0.00000
     69       5.3927      0.00000
     70       5.4616      0.00000
     71       5.6162      0.00000
     72       5.6910      0.00000
     73       5.7889      0.00000
     74       6.0998      0.00000
     75       6.1181      0.00000
     76       6.1872      0.00000
     77       6.2662      0.00000
     78       6.4796      0.00000
     79       6.5723      0.00000
     80       6.6323      0.00000

 k-point    24 :       0.1667    0.2000    0.1667
  band No.  band energies     occupation 
      1     -39.5389      1.00000
      2     -39.5381      1.00000
      3     -39.5336      1.00000
      4     -39.5328      1.00000
      5     -29.0003      1.00000
      6     -28.9979      1.00000
      7     -28.9937      1.00000
      8     -28.9914      1.00000
      9     -19.7207      1.00000
     10     -19.7176      1.00000
     11     -19.7139      1.00000
     12     -19.7095      1.00000
     13     -19.7052      1.00000
     14     -19.6926      1.00000
     15     -19.6823      1.00000
     16     -19.6768      1.00000
     17     -19.6516      1.00000
     18     -19.6476      1.00000
     19     -19.6172      1.00000
     20     -19.6116      1.00000
     21     -11.8062      1.00000
     22     -11.8001      1.00000
     23     -11.7895      1.00000
     24     -11.7877      1.00000
     25     -11.7668      1.00000
     26     -11.7608      1.00000
     27     -11.7182      1.00000
     28     -11.7104      1.00000
     29     -11.6962      1.00000
     30     -11.6685      1.00000
     31     -11.6565      1.00000
     32     -11.6495      1.00000
     33      -8.2277      1.00000
     34      -7.8684      1.00000
     35      -7.4411      1.00000
     36      -6.9892      1.00000
     37      -6.7444      1.00000
     38      -6.7218      1.00000
     39      -6.7058      1.00000
     40      -6.6482      1.00000
     41      -2.8452      1.00000
     42      -2.2967      1.00000
     43      -1.4486      1.00000
     44      -1.2734      1.00000
     45      -0.7458      1.00000
     46      -0.5069      1.00000
     47      -0.2209      1.00000
     48      -0.1392      1.00000
     49       0.0500      1.00000
     50       0.2791      1.00000
     51       0.6620      1.00000
     52       0.8819      1.00000
     53       0.9946      1.00000
     54       1.0605      1.00000
     55       1.2231      1.00000
     56       1.3760      1.00000
     57       1.4125      1.00000
     58       1.5688      1.00000
     59       1.6635      1.00000
     60       1.7494      1.00000
     61       1.7802      1.00000
     62       1.8947      1.00000
     63       1.9498      1.00000
     64       1.9914      1.00000
     65       4.6455      0.00000
     66       4.8094      0.00000
     67       4.8791      0.00000
     68       5.0197      0.00000
     69       5.3654      0.00000
     70       5.5234      0.00000
     71       5.6900      0.00000
     72       5.8276      0.00000
     73       5.9144      0.00000
     74       6.0316      0.00000
     75       6.1311      0.00000
     76       6.1892      0.00000
     77       6.3606      0.00000
     78       6.4495      0.00000
     79       6.5794      0.00000
     80       6.7416      0.00000

 k-point    25 :       0.3333    0.2000    0.1667
  band No.  band energies     occupation 
      1     -39.5389      1.00000
      2     -39.5381      1.00000
      3     -39.5336      1.00000
      4     -39.5328      1.00000
      5     -29.0002      1.00000
      6     -28.9978      1.00000
      7     -28.9937      1.00000
      8     -28.9914      1.00000
      9     -19.7207      1.00000
     10     -19.7176      1.00000
     11     -19.7139      1.00000
     12     -19.7095      1.00000
     13     -19.7052      1.00000
     14     -19.6926      1.00000
     15     -19.6824      1.00000
     16     -19.6769      1.00000
     17     -19.6515      1.00000
     18     -19.6476      1.00000
     19     -19.6172      1.00000
     20     -19.6116      1.00000
     21     -11.8093      1.00000
     22     -11.8013      1.00000
     23     -11.7909      1.00000
     24     -11.7874      1.00000
     25     -11.7665      1.00000
     26     -11.7604      1.00000
     27     -11.7186      1.00000
     28     -11.7093      1.00000
     29     -11.6957      1.00000
     30     -11.6684      1.00000
     31     -11.6567      1.00000
     32     -11.6493      1.00000
     33      -8.1684      1.00000
     34      -7.8371      1.00000
     35      -7.4599      1.00000
     36      -7.0218      1.00000
     37      -6.7896      1.00000
     38      -6.7674      1.00000
     39      -6.6998      1.00000
     40      -6.6480      1.00000
     41      -2.8437      1.00000
     42      -2.2581      1.00000
     43      -1.2752      1.00000
     44      -1.2044      1.00000
     45      -0.7509      1.00000
     46      -0.4919      1.00000
     47      -0.2569      1.00000
     48      -0.0404      1.00000
     49       0.0232      1.00000
     50       0.2686      1.00000
     51       0.6248      1.00000
     52       0.8367      1.00000
     53       0.9856      1.00000
     54       1.0582      1.00000
     55       1.1236      1.00000
     56       1.2439      1.00000
     57       1.4310      1.00000
     58       1.5635      1.00000
     59       1.6230      1.00000
     60       1.6650      1.00000
     61       1.7815      1.00000
     62       1.8538      1.00000
     63       1.9064      1.00000
     64       1.9881      1.00000
     65       4.4918      0.00000
     66       4.7922      0.00000
     67       4.8874      0.00000
     68       5.1521      0.00000
     69       5.3995      0.00000
     70       5.5268      0.00000
     71       5.6427      0.00000
     72       5.8437      0.00000
     73       5.9491      0.00000
     74       6.0544      0.00000
     75       6.1778      0.00000
     76       6.3647      0.00000
     77       6.4924      0.00000
     78       6.5781      0.00000
     79       6.6525      0.00000
     80       6.6895      0.00000

 k-point    26 :       0.5000    0.2000    0.1667
  band No.  band energies     occupation 
      1     -39.5389      1.00000
      2     -39.5381      1.00000
      3     -39.5336      1.00000
      4     -39.5328      1.00000
      5     -29.0002      1.00000
      6     -28.9978      1.00000
      7     -28.9937      1.00000
      8     -28.9915      1.00000
      9     -19.7207      1.00000
     10     -19.7176      1.00000
     11     -19.7139      1.00000
     12     -19.7095      1.00000
     13     -19.7052      1.00000
     14     -19.6926      1.00000
     15     -19.6824      1.00000
     16     -19.6769      1.00000
     17     -19.6515      1.00000
     18     -19.6476      1.00000
     19     -19.6172      1.00000
     20     -19.6116      1.00000
     21     -11.8102      1.00000
     22     -11.8020      1.00000
     23     -11.7917      1.00000
     24     -11.7870      1.00000
     25     -11.7663      1.00000
     26     -11.7605      1.00000
     27     -11.7188      1.00000
     28     -11.7088      1.00000
     29     -11.6954      1.00000
     30     -11.6682      1.00000
     31     -11.6566      1.00000
     32     -11.6496      1.00000
     33      -8.1538      1.00000
     34      -7.8226      1.00000
     35      -7.4583      1.00000
     36      -7.0235      1.00000
     37      -6.8192      1.00000
     38      -6.7899      1.00000
     39      -6.7020      1.00000
     40      -6.6309      1.00000
     41      -2.8511      1.00000
     42      -2.2763      1.00000
     43      -1.2821      1.00000
     44      -1.1754      1.00000
     45      -0.6691      1.00000
     46      -0.4692      1.00000
     47      -0.2365      1.00000
     48      -0.0620      1.00000
     49       0.0707      1.00000
     50       0.3058      1.00000
     51       0.6182      1.00000
     52       0.7567      1.00000
     53       0.9436      1.00000
     54       1.0586      1.00000
     55       1.0773      1.00000
     56       1.1993      1.00000
     57       1.4319      1.00000
     58       1.5365      1.00000
     59       1.5933      1.00000
     60       1.6709      1.00000
     61       1.7914      1.00000
     62       1.8626      1.00000
     63       1.9473      1.00000
     64       1.9856      1.00000
     65       4.4919      0.00000
     66       4.7585      0.00000
     67       4.8954      0.00000
     68       5.3261      0.00000
     69       5.3764      0.00000
     70       5.4210      0.00000
     71       5.6558      0.00000
     72       5.6804      0.00000
     73       5.9392      0.00000
     74       5.9899      0.00000
     75       6.1745      0.00000
     76       6.4263      0.00000
     77       6.5283      0.00000
     78       6.5633      0.00000
     79       6.6701      0.00000
     80       6.7873      0.00000

 k-point    27 :      -0.3333    0.2000    0.1667
  band No.  band energies     occupation 
      1     -39.5389      1.00000
      2     -39.5381      1.00000
      3     -39.5336      1.00000
      4     -39.5328      1.00000
      5     -29.0002      1.00000
      6     -28.9979      1.00000
      7     -28.9937      1.00000
      8     -28.9914      1.00000
      9     -19.7207      1.00000
     10     -19.7176      1.00000
     11     -19.7139      1.00000
     12     -19.7096      1.00000
     13     -19.7052      1.00000
     14     -19.6925      1.00000
     15     -19.6824      1.00000
     16     -19.6769      1.00000
     17     -19.6515      1.00000
     18     -19.6476      1.00000
     19     -19.6173      1.00000
     20     -19.6116      1.00000
     21     -11.8087      1.00000
     22     -11.8011      1.00000
     23     -11.7915      1.00000
     24     -11.7864      1.00000
     25     -11.7665      1.00000
     26     -11.7611      1.00000
     27     -11.7188      1.00000
     28     -11.7092      1.00000
     29     -11.6957      1.00000
     30     -11.6682      1.00000
     31     -11.6563      1.00000
     32     -11.6499      1.00000
     33      -8.2022      1.00000
     34      -7.8411      1.00000
     35      -7.4347      1.00000
     36      -6.9863      1.00000
     37      -6.8071      1.00000
     38      -6.7673      1.00000
     39      -6.7106      1.00000
     40      -6.6146      1.00000
     41      -2.8608      1.00000
     42      -2.3280      1.00000
     43      -1.3678      1.00000
     44      -1.2968      1.00000
     45      -0.5955      1.00000
     46      -0.4888      1.00000
     47      -0.2284      1.00000
     48      -0.0902      1.00000
     49       0.0556      1.00000
     50       0.3551      1.00000
     51       0.6787      1.00000
     52       0.7455      1.00000
     53       0.9721      1.00000
     54       1.0601      1.00000
     55       1.1725      1.00000
     56       1.2562      1.00000
     57       1.3997      1.00000
     58       1.5494      1.00000
     59       1.6344      1.00000
     60       1.6584      1.00000
     61       1.7979      1.00000
     62       1.8913      1.00000
     63       1.9926      1.00000
     64       2.0398      1.00000
     65       4.6440      0.00000
     66       4.6986      0.00000
     67       4.9668      0.00000
     68       5.1637      0.00000
     69       5.3233      0.00000
     70       5.4487      0.00000
     71       5.5365      0.00000
     72       5.6851      0.00000
     73       5.9017      0.00000
     74       5.9630      0.00000
     75       6.1204      0.00000
     76       6.3647      0.00000
     77       6.5142      0.00000
     78       6.6137      0.00000
     79       6.6879      0.00000
     80       6.7685      0.00000

 k-point    28 :      -0.1667    0.2000    0.1667
  band No.  band energies     occupation 
      1     -39.5389      1.00000
      2     -39.5381      1.00000
      3     -39.5336      1.00000
      4     -39.5328      1.00000
      5     -29.0002      1.00000
      6     -28.9979      1.00000
      7     -28.9937      1.00000
      8     -28.9914      1.00000
      9     -19.7207      1.00000
     10     -19.7176      1.00000
     11     -19.7139      1.00000
     12     -19.7096      1.00000
     13     -19.7052      1.00000
     14     -19.6925      1.00000
     15     -19.6824      1.00000
     16     -19.6768      1.00000
     17     -19.6516      1.00000
     18     -19.6476      1.00000
     19     -19.6173      1.00000
     20     -19.6116      1.00000
     21     -11.8053      1.00000
     22     -11.8004      1.00000
     23     -11.7906      1.00000
     24     -11.7860      1.00000
     25     -11.7669      1.00000
     26     -11.7616      1.00000
     27     -11.7185      1.00000
     28     -11.7102      1.00000
     29     -11.6963      1.00000
     30     -11.6682      1.00000
     31     -11.6562      1.00000
     32     -11.6501      1.00000
     33      -8.2565      1.00000
     34      -7.8725      1.00000
     35      -7.4237      1.00000
     36      -6.9494      1.00000
     37      -6.7649      1.00000
     38      -6.7254      1.00000
     39      -6.7188      1.00000
     40      -6.6066      1.00000
     41      -2.8646      1.00000
     42      -2.3646      1.00000
     43      -1.5545      1.00000
     44      -1.3179      1.00000
     45      -0.6039      1.00000
     46      -0.4596      1.00000
     47      -0.2368      1.00000
     48      -0.1587      1.00000
     49       0.0359      1.00000
     50       0.3370      1.00000
     51       0.6927      1.00000
     52       0.7479      1.00000
     53       1.0218      1.00000
     54       1.0800      1.00000
     55       1.2354      1.00000
     56       1.3637      1.00000
     57       1.4617      1.00000
     58       1.6242      1.00000
     59       1.6513      1.00000
     60       1.7597      1.00000
     61       1.8036      1.00000
     62       1.9147      1.00000
     63       2.0050      1.00000
     64       2.0594      1.00000
     65       4.6475      0.00000
     66       4.7277      0.00000
     67       4.9286      0.00000
     68       5.1770      0.00000
     69       5.3522      0.00000
     70       5.3987      0.00000
     71       5.4881      0.00000
     72       5.6719      0.00000
     73       5.7824      0.00000
     74       6.1183      0.00000
     75       6.1225      0.00000
     76       6.3247      0.00000
     77       6.4494      0.00000
     78       6.5246      0.00000
     79       6.5961      0.00000
     80       6.6480      0.00000

 k-point    29 :       0.0000    0.4000    0.1667
  band No.  band energies     occupation 
      1     -39.5387      1.00000
      2     -39.5383      1.00000
      3     -39.5334      1.00000
      4     -39.5330      1.00000
      5     -28.9998      1.00000
      6     -28.9987      1.00000
      7     -28.9928      1.00000
      8     -28.9918      1.00000
      9     -19.7201      1.00000
     10     -19.7186      1.00000
     11     -19.7134      1.00000
     12     -19.7112      1.00000
     13     -19.7009      1.00000
     14     -19.6965      1.00000
     15     -19.6798      1.00000
     16     -19.6779      1.00000
     17     -19.6507      1.00000
     18     -19.6491      1.00000
     19     -19.6153      1.00000
     20     -19.6132      1.00000
     21     -11.8026      1.00000
     22     -11.8015      1.00000
     23     -11.7889      1.00000
     24     -11.7881      1.00000
     25     -11.7655      1.00000
     26     -11.7619      1.00000
     27     -11.7191      1.00000
     28     -11.7153      1.00000
     29     -11.6856      1.00000
     30     -11.6760      1.00000
     31     -11.6534      1.00000
     32     -11.6513      1.00000
     33      -8.1728      1.00000
     34      -8.0353      1.00000
     35      -7.2617      1.00000
     36      -7.0918      1.00000
     37      -6.7142      1.00000
     38      -6.7053      1.00000
     39      -6.6898      1.00000
     40      -6.6544      1.00000
     41      -2.6976      1.00000
     42      -2.5073      1.00000
     43      -1.5213      1.00000
     44      -1.4163      1.00000
     45      -0.5448      1.00000
     46      -0.4282      1.00000
     47      -0.1947      1.00000
     48      -0.1022      1.00000
     49       0.1444      1.00000
     50       0.2814      1.00000
     51       0.5572      1.00000
     52       0.6049      1.00000
     53       1.0442      1.00000
     54       1.1449      1.00000
     55       1.2169      1.00000
     56       1.3532      1.00000
     57       1.4320      1.00000
     58       1.4934      1.00000
     59       1.7076      1.00000
     60       1.7714      1.00000
     61       1.8194      1.00000
     62       1.8795      1.00000
     63       1.9810      1.00000
     64       2.0226      1.00000
     65       4.7862      0.00000
     66       4.8672      0.00000
     67       5.0379      0.00000
     68       5.2211      0.00000
     69       5.3665      0.00000
     70       5.4091      0.00000
     71       5.5890      0.00000
     72       5.6289      0.00000
     73       5.8609      0.00000
     74       5.9888      0.00000
     75       6.1304      0.00000
     76       6.1521      0.00000
     77       6.4439      0.00000
     78       6.4761      0.00000
     79       6.6067      0.00000
     80       6.7294      0.00000

 k-point    30 :       0.1667    0.4000    0.1667
  band No.  band energies     occupation 
      1     -39.5387      1.00000
      2     -39.5383      1.00000
      3     -39.5334      1.00000
      4     -39.5330      1.00000
      5     -28.9998      1.00000
      6     -28.9987      1.00000
      7     -28.9929      1.00000
      8     -28.9919      1.00000
      9     -19.7201      1.00000
     10     -19.7186      1.00000
     11     -19.7134      1.00000
     12     -19.7112      1.00000
     13     -19.7009      1.00000
     14     -19.6965      1.00000
     15     -19.6798      1.00000
     16     -19.6779      1.00000
     17     -19.6507      1.00000
     18     -19.6491      1.00000
     19     -19.6153      1.00000
     20     -19.6132      1.00000
     21     -11.8049      1.00000
     22     -11.8024      1.00000
     23     -11.7889      1.00000
     24     -11.7882      1.00000
     25     -11.7654      1.00000
     26     -11.7617      1.00000
     27     -11.7186      1.00000
     28     -11.7146      1.00000
     29     -11.6854      1.00000
     30     -11.6760      1.00000
     31     -11.6536      1.00000
     32     -11.6513      1.00000
     33      -8.1370      1.00000
     34      -8.0076      1.00000
     35      -7.2846      1.00000
     36      -7.1220      1.00000
     37      -6.7320      1.00000
     38      -6.7166      1.00000
     39      -6.6909      1.00000
     40      -6.6725      1.00000
     41      -2.6794      1.00000
     42      -2.4740      1.00000
     43      -1.3925      1.00000
     44      -1.3266      1.00000
     45      -0.5993      1.00000
     46      -0.4551      1.00000
     47      -0.2461      1.00000
     48      -0.0986      1.00000
     49       0.1423      1.00000
     50       0.2284      1.00000
     51       0.5795      1.00000
     52       0.6793      1.00000
     53       1.0925      1.00000
     54       1.1070      1.00000
     55       1.1532      1.00000
     56       1.2862      1.00000
     57       1.4376      1.00000
     58       1.4696      1.00000
     59       1.7171      1.00000
     60       1.7276      1.00000
     61       1.7744      1.00000
     62       1.8279      1.00000
     63       1.9355      1.00000
     64       1.9723      1.00000
     65       4.8013      0.00000
     66       4.8814      0.00000
     67       5.0017      0.00000
     68       5.1262      0.00000
     69       5.3141      0.00000
     70       5.4721      0.00000
     71       5.6390      0.00000
     72       5.7548      0.00000
     73       5.9802      0.00000
     74       6.0766      0.00000
     75       6.1205      0.00000
     76       6.1429      0.00000
     77       6.3809      0.00000
     78       6.4558      0.00000
     79       6.6416      0.00000
     80       6.7038      0.00000

 k-point    31 :       0.3333    0.4000    0.1667
  band No.  band energies     occupation 
      1     -39.5387      1.00000
      2     -39.5383      1.00000
      3     -39.5334      1.00000
      4     -39.5330      1.00000
      5     -28.9997      1.00000
      6     -28.9987      1.00000
      7     -28.9929      1.00000
      8     -28.9919      1.00000
      9     -19.7201      1.00000
     10     -19.7186      1.00000
     11     -19.7134      1.00000
     12     -19.7112      1.00000
     13     -19.7009      1.00000
     14     -19.6965      1.00000
     15     -19.6798      1.00000
     16     -19.6779      1.00000
     17     -19.6506      1.00000
     18     -19.6491      1.00000
     19     -19.6153      1.00000
     20     -19.6132      1.00000
     21     -11.8076      1.00000
     22     -11.8045      1.00000
     23     -11.7895      1.00000
     24     -11.7882      1.00000
     25     -11.7651      1.00000
     26     -11.7614      1.00000
     27     -11.7185      1.00000
     28     -11.7139      1.00000
     29     -11.6849      1.00000
     30     -11.6755      1.00000
     31     -11.6537      1.00000
     32     -11.6513      1.00000
     33      -8.0841      1.00000
     34      -7.9648      1.00000
     35      -7.3100      1.00000
     36      -7.1520      1.00000
     37      -6.7833      1.00000
     38      -6.7695      1.00000
     39      -6.6814      1.00000
     40      -6.6637      1.00000
     41      -2.6723      1.00000
     42      -2.4547      1.00000
     43      -1.2097      1.00000
     44      -1.1916      1.00000
     45      -0.6183      1.00000
     46      -0.4384      1.00000
     47      -0.3005      1.00000
     48      -0.0875      1.00000
     49       0.1336      1.00000
     50       0.1767      1.00000
     51       0.5570      1.00000
     52       0.6482      1.00000
     53       1.0268      1.00000
     54       1.0491      1.00000
     55       1.1838      1.00000
     56       1.2391      1.00000
     57       1.4523      1.00000
     58       1.4918      1.00000
     59       1.5952      1.00000
     60       1.6744      1.00000
     61       1.7179      1.00000
     62       1.8520      1.00000
     63       1.9108      1.00000
     64       1.9610      1.00000
     65       4.6948      0.00000
     66       4.8985      0.00000
     67       4.9506      0.00000
     68       5.1411      0.00000
     69       5.2184      0.00000
     70       5.4059      0.00000
     71       5.6296      0.00000
     72       5.8188      0.00000
     73       6.0163      0.00000
     74       6.1076      0.00000
     75       6.2365      0.00000
     76       6.3693      0.00000
     77       6.4659      0.00000
     78       6.5264      0.00000
     79       6.6212      0.00000
     80       6.6715      0.00000

 k-point    32 :       0.5000    0.4000    0.1667
  band No.  band energies     occupation 
      1     -39.5387      1.00000
      2     -39.5383      1.00000
      3     -39.5334      1.00000
      4     -39.5330      1.00000
      5     -28.9997      1.00000
      6     -28.9986      1.00000
      7     -28.9929      1.00000
      8     -28.9920      1.00000
      9     -19.7201      1.00000
     10     -19.7186      1.00000
     11     -19.7134      1.00000
     12     -19.7112      1.00000
     13     -19.7009      1.00000
     14     -19.6965      1.00000
     15     -19.6799      1.00000
     16     -19.6780      1.00000
     17     -19.6506      1.00000
     18     -19.6491      1.00000
     19     -19.6153      1.00000
     20     -19.6132      1.00000
     21     -11.8085      1.00000
     22     -11.8054      1.00000
     23     -11.7900      1.00000
     24     -11.7883      1.00000
     25     -11.7648      1.00000
     26     -11.7611      1.00000
     27     -11.7188      1.00000
     28     -11.7139      1.00000
     29     -11.6845      1.00000
     30     -11.6752      1.00000
     31     -11.6537      1.00000
     32     -11.6514      1.00000
     33      -8.0702      1.00000
     34      -7.9513      1.00000
     35      -7.3074      1.00000
     36      -7.1502      1.00000
     37      -6.8082      1.00000
     38      -6.7945      1.00000
     39      -6.6810      1.00000
     40      -6.6548      1.00000
     41      -2.6811      1.00000
     42      -2.4672      1.00000
     43      -1.1892      1.00000
     44      -1.1615      1.00000
     45      -0.5603      1.00000
     46      -0.3876      1.00000
     47      -0.3048      1.00000
     48      -0.1077      1.00000
     49       0.0963      1.00000
     50       0.2153      1.00000
     51       0.5630      1.00000
     52       0.6468      1.00000
     53       1.0268      1.00000
     54       1.0539      1.00000
     55       1.0797      1.00000
     56       1.1398      1.00000
     57       1.4575      1.00000
     58       1.5071      1.00000
     59       1.5931      1.00000
     60       1.6866      1.00000
     61       1.7157      1.00000
     62       1.8553      1.00000
     63       1.9420      1.00000
     64       1.9689      1.00000
     65       4.7265      0.00000
     66       4.8672      0.00000
     67       4.9745      0.00000
     68       5.1987      0.00000
     69       5.2695      0.00000
     70       5.2909      0.00000
     71       5.4978      0.00000
     72       5.6501      0.00000
     73       5.9810      0.00000
     74       6.0395      0.00000
     75       6.3897      0.00000
     76       6.4228      0.00000
     77       6.4838      0.00000
     78       6.5619      0.00000
     79       6.6343      0.00000
     80       6.7106      0.00000

 k-point    33 :      -0.3333    0.4000    0.1667
  band No.  band energies     occupation 
      1     -39.5387      1.00000
      2     -39.5383      1.00000
      3     -39.5334      1.00000
      4     -39.5330      1.00000
      5     -28.9997      1.00000
      6     -28.9987      1.00000
      7     -28.9929      1.00000
      8     -28.9919      1.00000
      9     -19.7201      1.00000
     10     -19.7186      1.00000
     11     -19.7134      1.00000
     12     -19.7112      1.00000
     13     -19.7009      1.00000
     14     -19.6965      1.00000
     15     -19.6798      1.00000
     16     -19.6779      1.00000
     17     -19.6506      1.00000
     18     -19.6491      1.00000
     19     -19.6153      1.00000
     20     -19.6132      1.00000
     21     -11.8070      1.00000
     22     -11.8042      1.00000
     23     -11.7898      1.00000
     24     -11.7880      1.00000
     25     -11.7649      1.00000
     26     -11.7613      1.00000
     27     -11.7193      1.00000
     28     -11.7145      1.00000
     29     -11.6847      1.00000
     30     -11.6752      1.00000
     31     -11.6536      1.00000
     32     -11.6514      1.00000
     33      -8.1123      1.00000
     34      -7.9830      1.00000
     35      -7.2755      1.00000
     36      -7.1136      1.00000
     37      -6.7881      1.00000
     38      -6.7715      1.00000
     39      -6.6872      1.00000
     40      -6.6506      1.00000
     41      -2.6967      1.00000
     42      -2.4966      1.00000
     43      -1.3224      1.00000
     44      -1.2945      1.00000
     45      -0.4851      1.00000
     46      -0.3515      1.00000
     47      -0.2532      1.00000
     48      -0.1491      1.00000
     49       0.0859      1.00000
     50       0.2451      1.00000
     51       0.5589      1.00000
     52       0.6555      1.00000
     53       1.0329      1.00000
     54       1.0379      1.00000
     55       1.1995      1.00000
     56       1.2229      1.00000
     57       1.4958      1.00000
     58       1.5668      1.00000
     59       1.5745      1.00000
     60       1.6710      1.00000
     61       1.7062      1.00000
     62       1.8396      1.00000
     63       1.9869      1.00000
     64       2.0140      1.00000
     65       4.8054      0.00000
     66       4.9032      0.00000
     67       5.0024      0.00000
     68       5.2154      0.00000
     69       5.2239      0.00000
     70       5.3415      0.00000
     71       5.4165      0.00000
     72       5.4880      0.00000
     73       5.9146      0.00000
     74       6.0417      0.00000
     75       6.3054      0.00000
     76       6.3685      0.00000
     77       6.5276      0.00000
     78       6.5685      0.00000
     79       6.6910      0.00000
     80       6.7809      0.00000

 k-point    34 :      -0.1667    0.4000    0.1667
  band No.  band energies     occupation 
      1     -39.5387      1.00000
      2     -39.5383      1.00000
      3     -39.5334      1.00000
      4     -39.5330      1.00000
      5     -28.9998      1.00000
      6     -28.9987      1.00000
      7     -28.9929      1.00000
      8     -28.9919      1.00000
      9     -19.7201      1.00000
     10     -19.7186      1.00000
     11     -19.7134      1.00000
     12     -19.7112      1.00000
     13     -19.7009      1.00000
     14     -19.6965      1.00000
     15     -19.6798      1.00000
     16     -19.6779      1.00000
     17     -19.6506      1.00000
     18     -19.6491      1.00000
     19     -19.6153      1.00000
     20     -19.6132      1.00000
     21     -11.8041      1.00000
     22     -11.8023      1.00000
     23     -11.7893      1.00000
     24     -11.7877      1.00000
     25     -11.7652      1.00000
     26     -11.7617      1.00000
     27     -11.7195      1.00000
     28     -11.7152      1.00000
     29     -11.6853      1.00000
     30     -11.6757      1.00000
     31     -11.6534      1.00000
     32     -11.6514      1.00000
     33      -8.1615      1.00000
     34      -8.0240      1.00000
     35      -7.2558      1.00000
     36      -7.0858      1.00000
     37      -6.7440      1.00000
     38      -6.7265      1.00000
     39      -6.6908      1.00000
     40      -6.6468      1.00000
     41      -2.7060      1.00000
     42      -2.5173      1.00000
     43      -1.4877      1.00000
     44      -1.4003      1.00000
     45      -0.4959      1.00000
     46      -0.3360      1.00000
     47      -0.2377      1.00000
     48      -0.1344      1.00000
     49       0.1172      1.00000
     50       0.2913      1.00000
     51       0.5177      1.00000
     52       0.5957      1.00000
     53       1.0483      1.00000
     54       1.1098      1.00000
     55       1.2523      1.00000
     56       1.3480      1.00000
     57       1.4539      1.00000
     58       1.5414      1.00000
     59       1.6969      1.00000
     60       1.7364      1.00000
     61       1.7532      1.00000
     62       1.8479      1.00000
     63       2.0105      1.00000
     64       2.0299      1.00000
     65       4.7753      0.00000
     66       4.8691      0.00000
     67       5.0100      0.00000
     68       5.2152      0.00000
     69       5.3441      0.00000
     70       5.3571      0.00000
     71       5.4517      0.00000
     72       5.5566      0.00000
     73       5.8784      0.00000
     74       6.0059      0.00000
     75       6.1790      0.00000
     76       6.3030      0.00000
     77       6.5410      0.00000
     78       6.5925      0.00000
     79       6.6281      0.00000
     80       6.6906      0.00000

 k-point    35 :      -0.0000   -0.4000    0.1667
  band No.  band energies     occupation 
      1     -39.5387      1.00000
      2     -39.5383      1.00000
      3     -39.5334      1.00000
      4     -39.5330      1.00000
      5     -28.9998      1.00000
      6     -28.9987      1.00000
      7     -28.9928      1.00000
      8     -28.9918      1.00000
      9     -19.7202      1.00000
     10     -19.7185      1.00000
     11     -19.7135      1.00000
     12     -19.7112      1.00000
     13     -19.7008      1.00000
     14     -19.6965      1.00000
     15     -19.6798      1.00000
     16     -19.6778      1.00000
     17     -19.6506      1.00000
     18     -19.6491      1.00000
     19     -19.6153      1.00000
     20     -19.6132      1.00000
     21     -11.8027      1.00000
     22     -11.8014      1.00000
     23     -11.7890      1.00000
     24     -11.7880      1.00000
     25     -11.7648      1.00000
     26     -11.7625      1.00000
     27     -11.7188      1.00000
     28     -11.7156      1.00000
     29     -11.6858      1.00000
     30     -11.6757      1.00000
     31     -11.6537      1.00000
     32     -11.6512      1.00000
     33      -8.1728      1.00000
     34      -8.0352      1.00000
     35      -7.2617      1.00000
     36      -7.0918      1.00000
     37      -6.7144      1.00000
     38      -6.7053      1.00000
     39      -6.6897      1.00000
     40      -6.6545      1.00000
     41      -2.6976      1.00000
     42      -2.5074      1.00000
     43      -1.5216      1.00000
     44      -1.4160      1.00000
     45      -0.5450      1.00000
     46      -0.4278      1.00000
     47      -0.1949      1.00000
     48      -0.1020      1.00000
     49       0.1440      1.00000
     50       0.2815      1.00000
     51       0.5573      1.00000
     52       0.6049      1.00000
     53       1.0438      1.00000
     54       1.1453      1.00000
     55       1.2172      1.00000
     56       1.3529      1.00000
     57       1.4325      1.00000
     58       1.4929      1.00000
     59       1.7073      1.00000
     60       1.7714      1.00000
     61       1.8192      1.00000
     62       1.8801      1.00000
     63       1.9813      1.00000
     64       2.0222      1.00000
     65       4.7865      0.00000
     66       4.8666      0.00000
     67       5.0386      0.00000
     68       5.2203      0.00000
     69       5.3668      0.00000
     70       5.4094      0.00000
     71       5.5888      0.00000
     72       5.6292      0.00000
     73       5.8611      0.00000
     74       5.9888      0.00000
     75       6.1307      0.00000
     76       6.1518      0.00000
     77       6.4432      0.00000
     78       6.4763      0.00000
     79       6.6056      0.00000
     80       6.7162      0.00000

 k-point    36 :       0.1667   -0.4000    0.1667
  band No.  band energies     occupation 
      1     -39.5387      1.00000
      2     -39.5383      1.00000
      3     -39.5334      1.00000
      4     -39.5330      1.00000
      5     -28.9998      1.00000
      6     -28.9987      1.00000
      7     -28.9929      1.00000
      8     -28.9919      1.00000
      9     -19.7202      1.00000
     10     -19.7185      1.00000
     11     -19.7135      1.00000
     12     -19.7112      1.00000
     13     -19.7009      1.00000
     14     -19.6965      1.00000
     15     -19.6798      1.00000
     16     -19.6778      1.00000
     17     -19.6506      1.00000
     18     -19.6491      1.00000
     19     -19.6153      1.00000
     20     -19.6132      1.00000
     21     -11.8049      1.00000
     22     -11.8023      1.00000
     23     -11.7890      1.00000
     24     -11.7881      1.00000
     25     -11.7649      1.00000
     26     -11.7624      1.00000
     27     -11.7183      1.00000
     28     -11.7149      1.00000
     29     -11.6856      1.00000
     30     -11.6757      1.00000
     31     -11.6539      1.00000
     32     -11.6511      1.00000
     33      -8.1371      1.00000
     34      -8.0075      1.00000
     35      -7.2846      1.00000
     36      -7.1220      1.00000
     37      -6.7327      1.00000
     38      -6.7156      1.00000
     39      -6.6908      1.00000
     40      -6.6727      1.00000
     41      -2.6793      1.00000
     42      -2.4740      1.00000
     43      -1.3930      1.00000
     44      -1.3262      1.00000
     45      -0.5993      1.00000
     46      -0.4548      1.00000
     47      -0.2462      1.00000
     48      -0.0984      1.00000
     49       0.1418      1.00000
     50       0.2285      1.00000
     51       0.5797      1.00000
     52       0.6794      1.00000
     53       1.0930      1.00000
     54       1.1067      1.00000
     55       1.1531      1.00000
     56       1.2864      1.00000
     57       1.4380      1.00000
     58       1.4692      1.00000
     59       1.7168      1.00000
     60       1.7282      1.00000
     61       1.7739      1.00000
     62       1.8281      1.00000
     63       1.9358      1.00000
     64       1.9721      1.00000
     65       4.8005      0.00000
     66       4.8821      0.00000
     67       5.0022      0.00000
     68       5.1256      0.00000
     69       5.3137      0.00000
     70       5.4725      0.00000
     71       5.6392      0.00000
     72       5.7546      0.00000
     73       5.9804      0.00000
     74       6.0767      0.00000
     75       6.1203      0.00000
     76       6.1434      0.00000
     77       6.3799      0.00000
     78       6.4565      0.00000
     79       6.6412      0.00000
     80       6.7045      0.00000

 k-point    37 :       0.3333   -0.4000    0.1667
  band No.  band energies     occupation 
      1     -39.5387      1.00000
      2     -39.5383      1.00000
      3     -39.5334      1.00000
      4     -39.5330      1.00000
      5     -28.9997      1.00000
      6     -28.9987      1.00000
      7     -28.9929      1.00000
      8     -28.9919      1.00000
      9     -19.7202      1.00000
     10     -19.7185      1.00000
     11     -19.7135      1.00000
     12     -19.7112      1.00000
     13     -19.7009      1.00000
     14     -19.6965      1.00000
     15     -19.6799      1.00000
     16     -19.6779      1.00000
     17     -19.6506      1.00000
     18     -19.6491      1.00000
     19     -19.6153      1.00000
     20     -19.6132      1.00000
     21     -11.8077      1.00000
     22     -11.8045      1.00000
     23     -11.7896      1.00000
     24     -11.7881      1.00000
     25     -11.7646      1.00000
     26     -11.7620      1.00000
     27     -11.7181      1.00000
     28     -11.7142      1.00000
     29     -11.6851      1.00000
     30     -11.6752      1.00000
     31     -11.6540      1.00000
     32     -11.6511      1.00000
     33      -8.0842      1.00000
     34      -7.9648      1.00000
     35      -7.3100      1.00000
     36      -7.1520      1.00000
     37      -6.7841      1.00000
     38      -6.7685      1.00000
     39      -6.6814      1.00000
     40      -6.6638      1.00000
     41      -2.6723      1.00000
     42      -2.4548      1.00000
     43      -1.2103      1.00000
     44      -1.1910      1.00000
     45      -0.6182      1.00000
     46      -0.4384      1.00000
     47      -0.3006      1.00000
     48      -0.0875      1.00000
     49       0.1335      1.00000
     50       0.1765      1.00000
     51       0.5573      1.00000
     52       0.6482      1.00000
     53       1.0268      1.00000
     54       1.0492      1.00000
     55       1.1833      1.00000
     56       1.2398      1.00000
     57       1.4519      1.00000
     58       1.4920      1.00000
     59       1.5953      1.00000
     60       1.6742      1.00000
     61       1.7176      1.00000
     62       1.8522      1.00000
     63       1.9108      1.00000
     64       1.9610      1.00000
     65       4.6947      0.00000
     66       4.8987      0.00000
     67       4.9503      0.00000
     68       5.1410      0.00000
     69       5.2189      0.00000
     70       5.4056      0.00000
     71       5.6301      0.00000
     72       5.8182      0.00000
     73       6.0162      0.00000
     74       6.1079      0.00000
     75       6.2364      0.00000
     76       6.3693      0.00000
     77       6.4658      0.00000
     78       6.5264      0.00000
     79       6.6207      0.00000
     80       6.6727      0.00000

 k-point    38 :       0.5000   -0.4000    0.1667
  band No.  band energies     occupation 
      1     -39.5387      1.00000
      2     -39.5383      1.00000
      3     -39.5334      1.00000
      4     -39.5330      1.00000
      5     -28.9997      1.00000
      6     -28.9986      1.00000
      7     -28.9929      1.00000
      8     -28.9919      1.00000
      9     -19.7202      1.00000
     10     -19.7185      1.00000
     11     -19.7135      1.00000
     12     -19.7112      1.00000
     13     -19.7009      1.00000
     14     -19.6965      1.00000
     15     -19.6799      1.00000
     16     -19.6779      1.00000
     17     -19.6506      1.00000
     18     -19.6491      1.00000
     19     -19.6153      1.00000
     20     -19.6132      1.00000
     21     -11.8086      1.00000
     22     -11.8053      1.00000
     23     -11.7901      1.00000
     24     -11.7882      1.00000
     25     -11.7643      1.00000
     26     -11.7618      1.00000
     27     -11.7185      1.00000
     28     -11.7142      1.00000
     29     -11.6847      1.00000
     30     -11.6749      1.00000
     31     -11.6540      1.00000
     32     -11.6512      1.00000
     33      -8.0703      1.00000
     34      -7.9513      1.00000
     35      -7.3074      1.00000
     36      -7.1503      1.00000
     37      -6.8089      1.00000
     38      -6.7937      1.00000
     39      -6.6810      1.00000
     40      -6.6549      1.00000
     41      -2.6811      1.00000
     42      -2.4672      1.00000
     43      -1.1894      1.00000
     44      -1.1612      1.00000
     45      -0.5602      1.00000
     46      -0.3877      1.00000
     47      -0.3047      1.00000
     48      -0.1077      1.00000
     49       0.0961      1.00000
     50       0.2154      1.00000
     51       0.5633      1.00000
     52       0.6467      1.00000
     53       1.0270      1.00000
     54       1.0538      1.00000
     55       1.0798      1.00000
     56       1.1396      1.00000
     57       1.4573      1.00000
     58       1.5074      1.00000
     59       1.5929      1.00000
     60       1.6865      1.00000
     61       1.7156      1.00000
     62       1.8556      1.00000
     63       1.9420      1.00000
     64       1.9689      1.00000
     65       4.7266      0.00000
     66       4.8670      0.00000
     67       4.9743      0.00000
     68       5.1991      0.00000
     69       5.2696      0.00000
     70       5.2903      0.00000
     71       5.4981      0.00000
     72       5.6499      0.00000
     73       5.9808      0.00000
     74       6.0396      0.00000
     75       6.3899      0.00000
     76       6.4234      0.00000
     77       6.4837      0.00000
     78       6.5616      0.00000
     79       6.6347      0.00000
     80       6.7098      0.00000

 k-point    39 :      -0.3333   -0.4000    0.1667
  band No.  band energies     occupation 
      1     -39.5387      1.00000
      2     -39.5383      1.00000
      3     -39.5334      1.00000
      4     -39.5330      1.00000
      5     -28.9997      1.00000
      6     -28.9987      1.00000
      7     -28.9929      1.00000
      8     -28.9919      1.00000
      9     -19.7202      1.00000
     10     -19.7185      1.00000
     11     -19.7135      1.00000
     12     -19.7112      1.00000
     13     -19.7009      1.00000
     14     -19.6965      1.00000
     15     -19.6799      1.00000
     16     -19.6779      1.00000
     17     -19.6506      1.00000
     18     -19.6491      1.00000
     19     -19.6153      1.00000
     20     -19.6132      1.00000
     21     -11.8071      1.00000
     22     -11.8041      1.00000
     23     -11.7899      1.00000
     24     -11.7879      1.00000
     25     -11.7643      1.00000
     26     -11.7620      1.00000
     27     -11.7190      1.00000
     28     -11.7148      1.00000
     29     -11.6849      1.00000
     30     -11.6749      1.00000
     31     -11.6539      1.00000
     32     -11.6512      1.00000
     33      -8.1124      1.00000
     34      -7.9829      1.00000
     35      -7.2754      1.00000
     36      -7.1137      1.00000
     37      -6.7886      1.00000
     38      -6.7710      1.00000
     39      -6.6872      1.00000
     40      -6.6507      1.00000
     41      -2.6967      1.00000
     42      -2.4966      1.00000
     43      -1.3227      1.00000
     44      -1.2943      1.00000
     45      -0.4850      1.00000
     46      -0.3518      1.00000
     47      -0.2528      1.00000
     48      -0.1490      1.00000
     49       0.0854      1.00000
     50       0.2453      1.00000
     51       0.5589      1.00000
     52       0.6556      1.00000
     53       1.0331      1.00000
     54       1.0376      1.00000
     55       1.2004      1.00000
     56       1.2222      1.00000
     57       1.4960      1.00000
     58       1.5666      1.00000
     59       1.5746      1.00000
     60       1.6706      1.00000
     61       1.7059      1.00000
     62       1.8402      1.00000
     63       1.9870      1.00000
     64       2.0140      1.00000
     65       4.8048      0.00000
     66       4.9038      0.00000
     67       5.0029      0.00000
     68       5.2151      0.00000
     69       5.2239      0.00000
     70       5.3415      0.00000
     71       5.4159      0.00000
     72       5.4884      0.00000
     73       5.9141      0.00000
     74       6.0420      0.00000
     75       6.3061      0.00000
     76       6.3688      0.00000
     77       6.5274      0.00000
     78       6.5678      0.00000
     79       6.6854      0.00000
     80       6.7874      0.00000

 k-point    40 :      -0.1667   -0.4000    0.1667
  band No.  band energies     occupation 
      1     -39.5387      1.00000
      2     -39.5383      1.00000
      3     -39.5334      1.00000
      4     -39.5330      1.00000
      5     -28.9998      1.00000
      6     -28.9987      1.00000
      7     -28.9929      1.00000
      8     -28.9919      1.00000
      9     -19.7202      1.00000
     10     -19.7185      1.00000
     11     -19.7135      1.00000
     12     -19.7112      1.00000
     13     -19.7009      1.00000
     14     -19.6965      1.00000
     15     -19.6798      1.00000
     16     -19.6778      1.00000
     17     -19.6506      1.00000
     18     -19.6491      1.00000
     19     -19.6153      1.00000
     20     -19.6132      1.00000
     21     -11.8043      1.00000
     22     -11.8021      1.00000
     23     -11.7894      1.00000
     24     -11.7876      1.00000
     25     -11.7646      1.00000
     26     -11.7624      1.00000
     27     -11.7192      1.00000
     28     -11.7155      1.00000
     29     -11.6855      1.00000
     30     -11.6754      1.00000
     31     -11.6537      1.00000
     32     -11.6512      1.00000
     33      -8.1616      1.00000
     34      -8.0239      1.00000
     35      -7.2558      1.00000
     36      -7.0859      1.00000
     37      -6.7442      1.00000
     38      -6.7264      1.00000
     39      -6.6908      1.00000
     40      -6.6468      1.00000
     41      -2.7060      1.00000
     42      -2.5173      1.00000
     43      -1.4879      1.00000
     44      -1.4001      1.00000
     45      -0.4960      1.00000
     46      -0.3357      1.00000
     47      -0.2379      1.00000
     48      -0.1343      1.00000
     49       0.1168      1.00000
     50       0.2915      1.00000
     51       0.5176      1.00000
     52       0.5958      1.00000
     53       1.0480      1.00000
     54       1.1100      1.00000
     55       1.2525      1.00000
     56       1.3482      1.00000
     57       1.4542      1.00000
     58       1.5411      1.00000
     59       1.6964      1.00000
     60       1.7362      1.00000
     61       1.7533      1.00000
     62       1.8485      1.00000
     63       2.0108      1.00000
     64       2.0297      1.00000
     65       4.7756      0.00000
     66       4.8686      0.00000
     67       5.0105      0.00000
     68       5.2152      0.00000
     69       5.3443      0.00000
     70       5.3570      0.00000
     71       5.4517      0.00000
     72       5.5564      0.00000
     73       5.8783      0.00000
     74       6.0061      0.00000
     75       6.1793      0.00000
     76       6.3023      0.00000
     77       6.5417      0.00000
     78       6.5918      0.00000
     79       6.6284      0.00000
     80       6.6906      0.00000

 k-point    41 :      -0.0000   -0.2000    0.1667
  band No.  band energies     occupation 
      1     -39.5389      1.00000
      2     -39.5381      1.00000
      3     -39.5336      1.00000
      4     -39.5328      1.00000
      5     -29.0003      1.00000
      6     -28.9979      1.00000
      7     -28.9936      1.00000
      8     -28.9913      1.00000
      9     -19.7207      1.00000
     10     -19.7174      1.00000
     11     -19.7141      1.00000
     12     -19.7095      1.00000
     13     -19.7051      1.00000
     14     -19.6925      1.00000
     15     -19.6824      1.00000
     16     -19.6768      1.00000
     17     -19.6516      1.00000
     18     -19.6477      1.00000
     19     -19.6172      1.00000
     20     -19.6116      1.00000
     21     -11.8033      1.00000
     22     -11.8007      1.00000
     23     -11.7896      1.00000
     24     -11.7867      1.00000
     25     -11.7664      1.00000
     26     -11.7621      1.00000
     27     -11.7178      1.00000
     28     -11.7111      1.00000
     29     -11.6967      1.00000
     30     -11.6681      1.00000
     31     -11.6566      1.00000
     32     -11.6497      1.00000
     33      -8.2681      1.00000
     34      -7.8853      1.00000
     35      -7.4278      1.00000
     36      -6.9541      1.00000
     37      -6.7321      1.00000
     38      -6.7206      1.00000
     39      -6.7014      1.00000
     40      -6.6193      1.00000
     41      -2.8563      1.00000
     42      -2.3516      1.00000
     43      -1.5967      1.00000
     44      -1.3052      1.00000
     45      -0.6606      1.00000
     46      -0.5036      1.00000
     47      -0.2174      1.00000
     48      -0.1596      1.00000
     49       0.0476      1.00000
     50       0.2988      1.00000
     51       0.6734      1.00000
     52       0.7896      1.00000
     53       0.9955      1.00000
     54       1.1381      1.00000
     55       1.1916      1.00000
     56       1.4069      1.00000
     57       1.5194      1.00000
     58       1.6293      1.00000
     59       1.6736      1.00000
     60       1.7778      1.00000
     61       1.8321      1.00000
     62       1.9498      1.00000
     63       1.9550      1.00000
     64       2.0387      1.00000
     65       4.6435      0.00000
     66       4.7422      0.00000
     67       4.8962      0.00000
     68       5.1352      0.00000
     69       5.3924      0.00000
     70       5.4621      0.00000
     71       5.6161      0.00000
     72       5.6914      0.00000
     73       5.7890      0.00000
     74       6.1004      0.00000
     75       6.1180      0.00000
     76       6.1867      0.00000
     77       6.2651      0.00000
     78       6.4795      0.00000
     79       6.5726      0.00000
     80       6.6334      0.00000

 k-point    42 :       0.1667   -0.2000    0.1667
  band No.  band energies     occupation 
      1     -39.5389      1.00000
      2     -39.5381      1.00000
      3     -39.5336      1.00000
      4     -39.5328      1.00000
      5     -29.0003      1.00000
      6     -28.9979      1.00000
      7     -28.9937      1.00000
      8     -28.9914      1.00000
      9     -19.7207      1.00000
     10     -19.7174      1.00000
     11     -19.7141      1.00000
     12     -19.7095      1.00000
     13     -19.7051      1.00000
     14     -19.6926      1.00000
     15     -19.6824      1.00000
     16     -19.6768      1.00000
     17     -19.6516      1.00000
     18     -19.6477      1.00000
     19     -19.6172      1.00000
     20     -19.6116      1.00000
     21     -11.8063      1.00000
     22     -11.8001      1.00000
     23     -11.7895      1.00000
     24     -11.7876      1.00000
     25     -11.7663      1.00000
     26     -11.7614      1.00000
     27     -11.7179      1.00000
     28     -11.7106      1.00000
     29     -11.6964      1.00000
     30     -11.6682      1.00000
     31     -11.6568      1.00000
     32     -11.6494      1.00000
     33      -8.2277      1.00000
     34      -7.8684      1.00000
     35      -7.4412      1.00000
     36      -6.9892      1.00000
     37      -6.7450      1.00000
     38      -6.7209      1.00000
     39      -6.7060      1.00000
     40      -6.6483      1.00000
     41      -2.8451      1.00000
     42      -2.2968      1.00000
     43      -1.4489      1.00000
     44      -1.2732      1.00000
     45      -0.7457      1.00000
     46      -0.5067      1.00000
     47      -0.2212      1.00000
     48      -0.1389      1.00000
     49       0.0496      1.00000
     50       0.2790      1.00000
     51       0.6622      1.00000
     52       0.8822      1.00000
     53       0.9945      1.00000
     54       1.0607      1.00000
     55       1.2229      1.00000
     56       1.3764      1.00000
     57       1.4123      1.00000
     58       1.5687      1.00000
     59       1.6631      1.00000
     60       1.7501      1.00000
     61       1.7800      1.00000
     62       1.8944      1.00000
     63       1.9502      1.00000
     64       1.9912      1.00000
     65       4.6453      0.00000
     66       4.8096      0.00000
     67       4.8792      0.00000
     68       5.0196      0.00000
     69       5.3648      0.00000
     70       5.5237      0.00000
     71       5.6903      0.00000
     72       5.8271      0.00000
     73       5.9145      0.00000
     74       6.0324      0.00000
     75       6.1311      0.00000
     76       6.1896      0.00000
     77       6.3596      0.00000
     78       6.4494      0.00000
     79       6.5799      0.00000
     80       6.7436      0.00000

 k-point    43 :       0.3333   -0.2000    0.1667
  band No.  band energies     occupation 
      1     -39.5389      1.00000
      2     -39.5381      1.00000
      3     -39.5336      1.00000
      4     -39.5328      1.00000
      5     -29.0002      1.00000
      6     -28.9978      1.00000
      7     -28.9937      1.00000
      8     -28.9914      1.00000
      9     -19.7207      1.00000
     10     -19.7174      1.00000
     11     -19.7141      1.00000
     12     -19.7095      1.00000
     13     -19.7051      1.00000
     14     -19.6926      1.00000
     15     -19.6825      1.00000
     16     -19.6769      1.00000
     17     -19.6515      1.00000
     18     -19.6477      1.00000
     19     -19.6172      1.00000
     20     -19.6116      1.00000
     21     -11.8093      1.00000
     22     -11.8012      1.00000
     23     -11.7910      1.00000
     24     -11.7873      1.00000
     25     -11.7660      1.00000
     26     -11.7610      1.00000
     27     -11.7182      1.00000
     28     -11.7095      1.00000
     29     -11.6958      1.00000
     30     -11.6681      1.00000
     31     -11.6570      1.00000
     32     -11.6493      1.00000
     33      -8.1684      1.00000
     34      -7.8371      1.00000
     35      -7.4599      1.00000
     36      -7.0218      1.00000
     37      -6.7904      1.00000
     38      -6.7665      1.00000
     39      -6.6998      1.00000
     40      -6.6481      1.00000
     41      -2.8437      1.00000
     42      -2.2582      1.00000
     43      -1.2756      1.00000
     44      -1.2041      1.00000
     45      -0.7508      1.00000
     46      -0.4918      1.00000
     47      -0.2570      1.00000
     48      -0.0400      1.00000
     49       0.0228      1.00000
     50       0.2683      1.00000
     51       0.6251      1.00000
     52       0.8367      1.00000
     53       0.9858      1.00000
     54       1.0583      1.00000
     55       1.1232      1.00000
     56       1.2442      1.00000
     57       1.4307      1.00000
     58       1.5631      1.00000
     59       1.6234      1.00000
     60       1.6650      1.00000
     61       1.7814      1.00000
     62       1.8536      1.00000
     63       1.9065      1.00000
     64       1.9882      1.00000
     65       4.4919      0.00000
     66       4.7919      0.00000
     67       4.8872      0.00000
     68       5.1527      0.00000
     69       5.3993      0.00000
     70       5.5264      0.00000
     71       5.6429      0.00000
     72       5.8442      0.00000
     73       5.9487      0.00000
     74       6.0540      0.00000
     75       6.1780      0.00000
     76       6.3649      0.00000
     77       6.4922      0.00000
     78       6.5782      0.00000
     79       6.6520      0.00000
     80       6.6889      0.00000

 k-point    44 :       0.5000   -0.2000    0.1667
  band No.  band energies     occupation 
      1     -39.5389      1.00000
      2     -39.5381      1.00000
      3     -39.5336      1.00000
      4     -39.5328      1.00000
      5     -29.0002      1.00000
      6     -28.9978      1.00000
      7     -28.9937      1.00000
      8     -28.9915      1.00000
      9     -19.7207      1.00000
     10     -19.7174      1.00000
     11     -19.7141      1.00000
     12     -19.7095      1.00000
     13     -19.7051      1.00000
     14     -19.6926      1.00000
     15     -19.6825      1.00000
     16     -19.6769      1.00000
     17     -19.6515      1.00000
     18     -19.6477      1.00000
     19     -19.6172      1.00000
     20     -19.6116      1.00000
     21     -11.8103      1.00000
     22     -11.8019      1.00000
     23     -11.7918      1.00000
     24     -11.7869      1.00000
     25     -11.7658      1.00000
     26     -11.7611      1.00000
     27     -11.7185      1.00000
     28     -11.7090      1.00000
     29     -11.6955      1.00000
     30     -11.6679      1.00000
     31     -11.6569      1.00000
     32     -11.6495      1.00000
     33      -8.1539      1.00000
     34      -7.8225      1.00000
     35      -7.4583      1.00000
     36      -7.0236      1.00000
     37      -6.8197      1.00000
     38      -6.7892      1.00000
     39      -6.7021      1.00000
     40      -6.6310      1.00000
     41      -2.8511      1.00000
     42      -2.2763      1.00000
     43      -1.2822      1.00000
     44      -1.1753      1.00000
     45      -0.6691      1.00000
     46      -0.4692      1.00000
     47      -0.2364      1.00000
     48      -0.0624      1.00000
     49       0.0709      1.00000
     50       0.3055      1.00000
     51       0.6185      1.00000
     52       0.7569      1.00000
     53       0.9440      1.00000
     54       1.0578      1.00000
     55       1.0775      1.00000
     56       1.1993      1.00000
     57       1.4318      1.00000
     58       1.5362      1.00000
     59       1.5934      1.00000
     60       1.6710      1.00000
     61       1.7914      1.00000
     62       1.8628      1.00000
     63       1.9474      1.00000
     64       1.9856      1.00000
     65       4.4920      0.00000
     66       4.7584      0.00000
     67       4.8952      0.00000
     68       5.3268      0.00000
     69       5.3766      0.00000
     70       5.4203      0.00000
     71       5.6558      0.00000
     72       5.6800      0.00000
     73       5.9390      0.00000
     74       5.9903      0.00000
     75       6.1744      0.00000
     76       6.4265      0.00000
     77       6.5281      0.00000
     78       6.5637      0.00000
     79       6.6704      0.00000
     80       6.7885      0.00000

 k-point    45 :      -0.3333   -0.2000    0.1667
  band No.  band energies     occupation 
      1     -39.5389      1.00000
      2     -39.5381      1.00000
      3     -39.5336      1.00000
      4     -39.5328      1.00000
      5     -29.0002      1.00000
      6     -28.9978      1.00000
      7     -28.9937      1.00000
      8     -28.9914      1.00000
      9     -19.7207      1.00000
     10     -19.7174      1.00000
     11     -19.7141      1.00000
     12     -19.7095      1.00000
     13     -19.7051      1.00000
     14     -19.6925      1.00000
     15     -19.6824      1.00000
     16     -19.6769      1.00000
     17     -19.6515      1.00000
     18     -19.6476      1.00000
     19     -19.6173      1.00000
     20     -19.6116      1.00000
     21     -11.8088      1.00000
     22     -11.8010      1.00000
     23     -11.7915      1.00000
     24     -11.7863      1.00000
     25     -11.7660      1.00000
     26     -11.7618      1.00000
     27     -11.7184      1.00000
     28     -11.7094      1.00000
     29     -11.6958      1.00000
     30     -11.6678      1.00000
     31     -11.6567      1.00000
     32     -11.6498      1.00000
     33      -8.2022      1.00000
     34      -7.8410      1.00000
     35      -7.4347      1.00000
     36      -6.9863      1.00000
     37      -6.8075      1.00000
     38      -6.7669      1.00000
     39      -6.7106      1.00000
     40      -6.6147      1.00000
     41      -2.8608      1.00000
     42      -2.3279      1.00000
     43      -1.3680      1.00000
     44      -1.2967      1.00000
     45      -0.5956      1.00000
     46      -0.4887      1.00000
     47      -0.2283      1.00000
     48      -0.0902      1.00000
     49       0.0554      1.00000
     50       0.3549      1.00000
     51       0.6788      1.00000
     52       0.7458      1.00000
     53       0.9720      1.00000
     54       1.0599      1.00000
     55       1.1728      1.00000
     56       1.2561      1.00000
     57       1.4000      1.00000
     58       1.5490      1.00000
     59       1.6345      1.00000
     60       1.6583      1.00000
     61       1.7978      1.00000
     62       1.8916      1.00000
     63       1.9930      1.00000
     64       2.0398      1.00000
     65       4.6439      0.00000
     66       4.6986      0.00000
     67       4.9672      0.00000
     68       5.1638      0.00000
     69       5.3230      0.00000
     70       5.4484      0.00000
     71       5.5367      0.00000
     72       5.6856      0.00000
     73       5.9011      0.00000
     74       5.9627      0.00000
     75       6.1203      0.00000
     76       6.3655      0.00000
     77       6.5145      0.00000
     78       6.6125      0.00000
     79       6.6871      0.00000
     80       6.7693      0.00000

 k-point    46 :      -0.1667   -0.2000    0.1667
  band No.  band energies     occupation 
      1     -39.5389      1.00000
      2     -39.5381      1.00000
      3     -39.5336      1.00000
      4     -39.5328      1.00000
      5     -29.0002      1.00000
      6     -28.9979      1.00000
      7     -28.9937      1.00000
      8     -28.9914      1.00000
      9     -19.7207      1.00000
     10     -19.7174      1.00000
     11     -19.7141      1.00000
     12     -19.7095      1.00000
     13     -19.7051      1.00000
     14     -19.6925      1.00000
     15     -19.6824      1.00000
     16     -19.6768      1.00000
     17     -19.6515      1.00000
     18     -19.6476      1.00000
     19     -19.6172      1.00000
     20     -19.6116      1.00000
     21     -11.8054      1.00000
     22     -11.8003      1.00000
     23     -11.7907      1.00000
     24     -11.7859      1.00000
     25     -11.7663      1.00000
     26     -11.7623      1.00000
     27     -11.7181      1.00000
     28     -11.7104      1.00000
     29     -11.6964      1.00000
     30     -11.6679      1.00000
     31     -11.6565      1.00000
     32     -11.6500      1.00000
     33      -8.2566      1.00000
     34      -7.8724      1.00000
     35      -7.4237      1.00000
     36      -6.9495      1.00000
     37      -6.7651      1.00000
     38      -6.7252      1.00000
     39      -6.7188      1.00000
     40      -6.6065      1.00000
     41      -2.8646      1.00000
     42      -2.3645      1.00000
     43      -1.5547      1.00000
     44      -1.3178      1.00000
     45      -0.6040      1.00000
     46      -0.4593      1.00000
     47      -0.2366      1.00000
     48      -0.1589      1.00000
     49       0.0357      1.00000
     50       0.3368      1.00000
     51       0.6925      1.00000
     52       0.7481      1.00000
     53       1.0215      1.00000
     54       1.0801      1.00000
     55       1.2355      1.00000
     56       1.3640      1.00000
     57       1.4620      1.00000
     58       1.6240      1.00000
     59       1.6512      1.00000
     60       1.7594      1.00000
     61       1.8035      1.00000
     62       1.9149      1.00000
     63       2.0055      1.00000
     64       2.0593      1.00000
     65       4.6476      0.00000
     66       4.7275      0.00000
     67       4.9285      0.00000
     68       5.1771      0.00000
     69       5.3527      0.00000
     70       5.3989      0.00000
     71       5.4876      0.00000
     72       5.6721      0.00000
     73       5.7821      0.00000
     74       6.1178      0.00000
     75       6.1228      0.00000
     76       6.3246      0.00000
     77       6.4486      0.00000
     78       6.5248      0.00000
     79       6.5988      0.00000
     80       6.6628      0.00000

 k-point    47 :      -0.0000   -0.0000    0.3333
  band No.  band energies     occupation 
      1     -39.5388      1.00000
      2     -39.5382      1.00000
      3     -39.5335      1.00000
      4     -39.5329      1.00000
      5     -28.9999      1.00000
      6     -28.9981      1.00000
      7     -28.9935      1.00000
      8     -28.9917      1.00000
      9     -19.7216      1.00000
     10     -19.7208      1.00000
     11     -19.7111      1.00000
     12     -19.7091      1.00000
     13     -19.7029      1.00000
     14     -19.6933      1.00000
     15     -19.6824      1.00000
     16     -19.6781      1.00000
     17     -19.6509      1.00000
     18     -19.6480      1.00000
     19     -19.6162      1.00000
     20     -19.6122      1.00000
     21     -11.8006      1.00000
     22     -11.7971      1.00000
     23     -11.7940      1.00000
     24     -11.7886      1.00000
     25     -11.7739      1.00000
     26     -11.7730      1.00000
     27     -11.7069      1.00000
     28     -11.7061      1.00000
     29     -11.7017      1.00000
     30     -11.6769      1.00000
     31     -11.6531      1.00000
     32     -11.6473      1.00000
     33      -8.1662      1.00000
     34      -7.8577      1.00000
     35      -7.3829      1.00000
     36      -6.9392      1.00000
     37      -6.9025      1.00000
     38      -6.8182      1.00000
     39      -6.6857      1.00000
     40      -6.6462      1.00000
     41      -2.5681      1.00000
     42      -1.9680      1.00000
     43      -1.7532      1.00000
     44      -1.4935      1.00000
     45      -0.7539      1.00000
     46      -0.7299      1.00000
     47      -0.2263      1.00000
     48       0.0909      1.00000
     49       0.1885      1.00000
     50       0.4346      1.00000
     51       0.6813      1.00000
     52       0.6941      1.00000
     53       0.8797      1.00000
     54       1.0099      1.00000
     55       1.1665      1.00000
     56       1.2849      1.00000
     57       1.3801      1.00000
     58       1.4840      1.00000
     59       1.7210      1.00000
     60       1.7401      1.00000
     61       1.8312      1.00000
     62       1.8601      1.00000
     63       1.9616      1.00000
     64       2.0494      1.00000
     65       4.6394      0.00000
     66       4.6812      0.00000
     67       5.0095      0.00000
     68       5.0393      0.00000
     69       5.4500      0.00000
     70       5.4892      0.00000
     71       5.7547      0.00000
     72       5.7868      0.00000
     73       5.9267      0.00000
     74       5.9405      0.00000
     75       5.9894      0.00000
     76       6.1494      0.00000
     77       6.2642      0.00000
     78       6.3994      0.00000
     79       6.5516      0.00000
     80       6.6288      0.00000

 k-point    48 :       0.1667    0.0000    0.3333
  band No.  band energies     occupation 
      1     -39.5388      1.00000
      2     -39.5382      1.00000
      3     -39.5335      1.00000
      4     -39.5329      1.00000
      5     -28.9998      1.00000
      6     -28.9980      1.00000
      7     -28.9935      1.00000
      8     -28.9918      1.00000
      9     -19.7216      1.00000
     10     -19.7208      1.00000
     11     -19.7111      1.00000
     12     -19.7091      1.00000
     13     -19.7029      1.00000
     14     -19.6933      1.00000
     15     -19.6825      1.00000
     16     -19.6781      1.00000
     17     -19.6509      1.00000
     18     -19.6480      1.00000
     19     -19.6162      1.00000
     20     -19.6122      1.00000
     21     -11.8035      1.00000
     22     -11.7960      1.00000
     23     -11.7942      1.00000
     24     -11.7894      1.00000
     25     -11.7734      1.00000
     26     -11.7726      1.00000
     27     -11.7066      1.00000
     28     -11.7063      1.00000
     29     -11.7014      1.00000
     30     -11.6770      1.00000
     31     -11.6534      1.00000
     32     -11.6468      1.00000
     33      -8.1196      1.00000
     34      -7.8605      1.00000
     35      -7.3931      1.00000
     36      -6.9456      1.00000
     37      -6.9335      1.00000
     38      -6.7905      1.00000
     39      -6.7062      1.00000
     40      -6.6773      1.00000
     41      -2.5658      1.00000
     42      -1.9282      1.00000
     43      -1.6764      1.00000
     44      -1.4642      1.00000
     45      -0.7761      1.00000
     46      -0.7013      1.00000
     47      -0.1645      1.00000
     48       0.0299      1.00000
     49       0.1670      1.00000
     50       0.4755      1.00000
     51       0.6042      1.00000
     52       0.6436      1.00000
     53       0.8689      1.00000
     54       1.0956      1.00000
     55       1.1782      1.00000
     56       1.2120      1.00000
     57       1.4053      1.00000
     58       1.5044      1.00000
     59       1.6759      1.00000
     60       1.7075      1.00000
     61       1.8238      1.00000
     62       1.8364      1.00000
     63       1.8801      1.00000
     64       1.9936      1.00000
     65       4.5679      0.00000
     66       4.6519      0.00000
     67       4.9979      0.00000
     68       5.1073      0.00000
     69       5.4729      0.00000
     70       5.5441      0.00000
     71       5.7302      0.00000
     72       5.7723      0.00000
     73       5.9007      0.00000
     74       5.9235      0.00000
     75       6.0383      0.00000
     76       6.2120      0.00000
     77       6.3781      0.00000
     78       6.4807      0.00000
     79       6.6685      0.00000
     80       6.7097      0.00000

 k-point    49 :       0.3333   -0.0000    0.3333
  band No.  band energies     occupation 
      1     -39.5388      1.00000
      2     -39.5382      1.00000
      3     -39.5335      1.00000
      4     -39.5329      1.00000
      5     -28.9998      1.00000
      6     -28.9980      1.00000
      7     -28.9936      1.00000
      8     -28.9918      1.00000
      9     -19.7216      1.00000
     10     -19.7208      1.00000
     11     -19.7111      1.00000
     12     -19.7091      1.00000
     13     -19.7029      1.00000
     14     -19.6933      1.00000
     15     -19.6825      1.00000
     16     -19.6782      1.00000
     17     -19.6508      1.00000
     18     -19.6480      1.00000
     19     -19.6163      1.00000
     20     -19.6122      1.00000
     21     -11.8062      1.00000
     22     -11.7965      1.00000
     23     -11.7961      1.00000
     24     -11.7892      1.00000
     25     -11.7731      1.00000
     26     -11.7723      1.00000
     27     -11.7062      1.00000
     28     -11.7055      1.00000
     29     -11.7014      1.00000
     30     -11.6777      1.00000
     31     -11.6532      1.00000
     32     -11.6464      1.00000
     33      -8.0712      1.00000
     34      -7.8387      1.00000
     35      -7.4055      1.00000
     36      -6.9741      1.00000
     37      -6.9353      1.00000
     38      -6.8053      1.00000
     39      -6.7332      1.00000
     40      -6.6890      1.00000
     41      -2.5790      1.00000
     42      -1.9289      1.00000
     43      -1.6951      1.00000
     44      -1.3913      1.00000
     45      -0.6430      1.00000
     46      -0.5911      1.00000
     47      -0.1122      1.00000
     48       0.0101      1.00000
     49       0.1109      1.00000
     50       0.4783      1.00000
     51       0.5738      1.00000
     52       0.6040      1.00000
     53       0.8578      1.00000
     54       1.0369      1.00000
     55       1.1111      1.00000
     56       1.2587      1.00000
     57       1.4102      1.00000
     58       1.4149      1.00000
     59       1.6441      1.00000
     60       1.6620      1.00000
     61       1.7540      1.00000
     62       1.8608      1.00000
     63       1.9072      1.00000
     64       1.9494      1.00000
     65       4.4753      0.00000
     66       4.7029      0.00000
     67       4.8937      0.00000
     68       5.2721      0.00000
     69       5.4412      0.00000
     70       5.4611      0.00000
     71       5.6650      0.00000
     72       5.7431      0.00000
     73       5.7852      0.00000
     74       6.0559      0.00000
     75       6.1673      0.00000
     76       6.2808      0.00000
     77       6.4114      0.00000
     78       6.5231      0.00000
     79       6.7394      0.00000
     80       6.7435      0.00000

 k-point    50 :       0.5000    0.0000    0.3333
  band No.  band energies     occupation 
      1     -39.5388      1.00000
      2     -39.5382      1.00000
      3     -39.5335      1.00000
      4     -39.5329      1.00000
      5     -28.9998      1.00000
      6     -28.9979      1.00000
      7     -28.9936      1.00000
      8     -28.9919      1.00000
      9     -19.7216      1.00000
     10     -19.7208      1.00000
     11     -19.7111      1.00000
     12     -19.7091      1.00000
     13     -19.7029      1.00000
     14     -19.6933      1.00000
     15     -19.6826      1.00000
     16     -19.6782      1.00000
     17     -19.6508      1.00000
     18     -19.6480      1.00000
     19     -19.6163      1.00000
     20     -19.6122      1.00000
     21     -11.8070      1.00000
     22     -11.7973      1.00000
     23     -11.7967      1.00000
     24     -11.7888      1.00000
     25     -11.7731      1.00000
     26     -11.7724      1.00000
     27     -11.7056      1.00000
     28     -11.7049      1.00000
     29     -11.7017      1.00000
     30     -11.6782      1.00000
     31     -11.6527      1.00000
     32     -11.6466      1.00000
     33      -8.0764      1.00000
     34      -7.8123      1.00000
     35      -7.3958      1.00000
     36      -6.9669      1.00000
     37      -6.9360      1.00000
     38      -6.8649      1.00000
     39      -6.7379      1.00000
     40      -6.6609      1.00000
     41      -2.5907      1.00000
     42      -1.9738      1.00000
     43      -1.7196      1.00000
     44      -1.4307      1.00000
     45      -0.5318      1.00000
     46      -0.4662      1.00000
     47      -0.1756      1.00000
     48       0.0428      1.00000
     49       0.2057      1.00000
     50       0.4841      1.00000
     51       0.6040      1.00000
     52       0.7075      1.00000
     53       0.7584      1.00000
     54       0.9358      1.00000
     55       1.0194      1.00000
     56       1.1740      1.00000
     57       1.3765      1.00000
     58       1.4217      1.00000
     59       1.5652      1.00000
     60       1.6521      1.00000
     61       1.7234      1.00000
     62       1.9176      1.00000
     63       2.0018      1.00000
     64       2.0133      1.00000
     65       4.5180      0.00000
     66       4.6682      0.00000
     67       4.9596      0.00000
     68       5.1993      0.00000
     69       5.3123      0.00000
     70       5.3961      0.00000
     71       5.6646      0.00000
     72       5.8328      0.00000
     73       5.9398      0.00000
     74       6.0192      0.00000
     75       6.0722      0.00000
     76       6.3021      0.00000
     77       6.4973      0.00000
     78       6.5042      0.00000
     79       6.6494      0.00000
     80       6.7129      0.00000

 k-point    51 :      -0.3333    0.0000    0.3333
  band No.  band energies     occupation 
      1     -39.5388      1.00000
      2     -39.5382      1.00000
      3     -39.5335      1.00000
      4     -39.5329      1.00000
      5     -28.9998      1.00000
      6     -28.9980      1.00000
      7     -28.9936      1.00000
      8     -28.9918      1.00000
      9     -19.7216      1.00000
     10     -19.7208      1.00000
     11     -19.7111      1.00000
     12     -19.7091      1.00000
     13     -19.7029      1.00000
     14     -19.6933      1.00000
     15     -19.6825      1.00000
     16     -19.6782      1.00000
     17     -19.6508      1.00000
     18     -19.6480      1.00000
     19     -19.6163      1.00000
     20     -19.6122      1.00000
     21     -11.8055      1.00000
     22     -11.7970      1.00000
     23     -11.7962      1.00000
     24     -11.7880      1.00000
     25     -11.7742      1.00000
     26     -11.7724      1.00000
     27     -11.7053      1.00000
     28     -11.7050      1.00000
     29     -11.7022      1.00000
     30     -11.6781      1.00000
     31     -11.6525      1.00000
     32     -11.6471      1.00000
     33      -8.1280      1.00000
     34      -7.8092      1.00000
     35      -7.3818      1.00000
     36      -6.9395      1.00000
     37      -6.9116      1.00000
     38      -6.8861      1.00000
     39      -6.7296      1.00000
     40      -6.6388      1.00000
     41      -2.5974      1.00000
     42      -2.0024      1.00000
     43      -1.7414      1.00000
     44      -1.5066      1.00000
     45      -0.6130      1.00000
     46      -0.4446      1.00000
     47      -0.2186      1.00000
     48       0.0887      1.00000
     49       0.1859      1.00000
     50       0.4676      1.00000
     51       0.6478      1.00000
     52       0.8289      1.00000
     53       0.8358      1.00000
     54       0.9640      1.00000
     55       0.9982      1.00000
     56       1.1113      1.00000
     57       1.3884      1.00000
     58       1.4049      1.00000
     59       1.6114      1.00000
     60       1.6665      1.00000
     61       1.7396      1.00000
     62       1.9329      1.00000
     63       2.0115      1.00000
     64       2.0862      1.00000
     65       4.5980      0.00000
     66       4.7264      0.00000
     67       4.8825      0.00000
     68       5.1587      0.00000
     69       5.2278      0.00000
     70       5.4223      0.00000
     71       5.7773      0.00000
     72       5.8252      0.00000
     73       5.9332      0.00000
     74       5.9479      0.00000
     75       6.0548      0.00000
     76       6.2882      0.00000
     77       6.4417      0.00000
     78       6.4517      0.00000
     79       6.5588      0.00000
     80       6.7112      0.00000

 k-point    52 :      -0.1667    0.0000    0.3333
  band No.  band energies     occupation 
      1     -39.5388      1.00000
      2     -39.5382      1.00000
      3     -39.5335      1.00000
      4     -39.5329      1.00000
      5     -28.9998      1.00000
      6     -28.9980      1.00000
      7     -28.9935      1.00000
      8     -28.9918      1.00000
      9     -19.7216      1.00000
     10     -19.7208      1.00000
     11     -19.7111      1.00000
     12     -19.7091      1.00000
     13     -19.7029      1.00000
     14     -19.6933      1.00000
     15     -19.6825      1.00000
     16     -19.6781      1.00000
     17     -19.6509      1.00000
     18     -19.6480      1.00000
     19     -19.6163      1.00000
     20     -19.6123      1.00000
     21     -11.8022      1.00000
     22     -11.7965      1.00000
     23     -11.7956      1.00000
     24     -11.7875      1.00000
     25     -11.7748      1.00000
     26     -11.7726      1.00000
     27     -11.7063      1.00000
     28     -11.7053      1.00000
     29     -11.7022      1.00000
     30     -11.6774      1.00000
     31     -11.6527      1.00000
     32     -11.6475      1.00000
     33      -8.1697      1.00000
     34      -7.8329      1.00000
     35      -7.3802      1.00000
     36      -6.9457      1.00000
     37      -6.8760      1.00000
     38      -6.8548      1.00000
     39      -6.7049      1.00000
     40      -6.6339      1.00000
     41      -2.5883      1.00000
     42      -1.9964      1.00000
     43      -1.7874      1.00000
     44      -1.5043      1.00000
     45      -0.6980      1.00000
     46      -0.5991      1.00000
     47      -0.2392      1.00000
     48       0.1202      1.00000
     49       0.1460      1.00000
     50       0.4247      1.00000
     51       0.7074      1.00000
     52       0.7376      1.00000
     53       0.9042      1.00000
     54       0.9880      1.00000
     55       1.1938      1.00000
     56       1.2299      1.00000
     57       1.2521      1.00000
     58       1.4584      1.00000
     59       1.7578      1.00000
     60       1.7766      1.00000
     61       1.8116      1.00000
     62       1.8761      1.00000
     63       1.9194      1.00000
     64       2.0799      1.00000
     65       4.6521      0.00000
     66       4.6607      0.00000
     67       5.0481      0.00000
     68       5.1690      0.00000
     69       5.2040      0.00000
     70       5.4748      0.00000
     71       5.6715      0.00000
     72       5.7648      0.00000
     73       5.8368      0.00000
     74       5.8941      0.00000
     75       6.1208      0.00000
     76       6.2273      0.00000
     77       6.3745      0.00000
     78       6.4549      0.00000
     79       6.5805      0.00000
     80       6.6978      0.00000

 k-point    53 :      -0.0000    0.2000    0.3333
  band No.  band energies     occupation 
      1     -39.5387      1.00000
      2     -39.5382      1.00000
      3     -39.5334      1.00000
      4     -39.5330      1.00000
      5     -28.9998      1.00000
      6     -28.9983      1.00000
      7     -28.9933      1.00000
      8     -28.9919      1.00000
      9     -19.7214      1.00000
     10     -19.7199      1.00000
     11     -19.7127      1.00000
     12     -19.7101      1.00000
     13     -19.7011      1.00000
     14     -19.6938      1.00000
     15     -19.6819      1.00000
     16     -19.6785      1.00000
     17     -19.6506      1.00000
     18     -19.6482      1.00000
     19     -19.6158      1.00000
     20     -19.6126      1.00000
     21     -11.8016      1.00000
     22     -11.7981      1.00000
     23     -11.7935      1.00000
     24     -11.7894      1.00000
     25     -11.7737      1.00000
     26     -11.7684      1.00000
     27     -11.7165      1.00000
     28     -11.7101      1.00000
     29     -11.6913      1.00000
     30     -11.6746      1.00000
     31     -11.6538      1.00000
     32     -11.6484      1.00000
     33      -8.1389      1.00000
     34      -7.8901      1.00000
     35      -7.3486      1.00000
     36      -7.0149      1.00000
     37      -6.8626      1.00000
     38      -6.8169      1.00000
     39      -6.6832      1.00000
     40      -6.6530      1.00000
     41      -2.5141      1.00000
     42      -2.0578      1.00000
     43      -1.6798      1.00000
     44      -1.4962      1.00000
     45      -0.7096      1.00000
     46      -0.6807      1.00000
     47      -0.2026      1.00000
     48       0.0107      1.00000
     49       0.1899      1.00000
     50       0.3700      1.00000
     51       0.5432      1.00000
     52       0.8109      1.00000
     53       0.9275      1.00000
     54       0.9451      1.00000
     55       1.1813      1.00000
     56       1.2494      1.00000
     57       1.3873      1.00000
     58       1.5310      1.00000
     59       1.6624      1.00000
     60       1.7289      1.00000
     61       1.8247      1.00000
     62       1.8982      1.00000
     63       1.9414      1.00000
     64       2.0206      1.00000
     65       4.6515      0.00000
     66       4.7313      0.00000
     67       5.0604      0.00000
     68       5.1120      0.00000
     69       5.3544      0.00000
     70       5.5879      0.00000
     71       5.6102      0.00000
     72       5.7504      0.00000
     73       5.8485      0.00000
     74       5.9657      0.00000
     75       6.0336      0.00000
     76       6.2022      0.00000
     77       6.3136      0.00000
     78       6.4266      0.00000
     79       6.5778      0.00000
     80       6.6544      0.00000

 k-point    54 :       0.1667    0.2000    0.3333
  band No.  band energies     occupation 
      1     -39.5387      1.00000
      2     -39.5382      1.00000
      3     -39.5334      1.00000
      4     -39.5330      1.00000
      5     -28.9997      1.00000
      6     -28.9982      1.00000
      7     -28.9933      1.00000
      8     -28.9919      1.00000
      9     -19.7214      1.00000
     10     -19.7199      1.00000
     11     -19.7127      1.00000
     12     -19.7101      1.00000
     13     -19.7011      1.00000
     14     -19.6938      1.00000
     15     -19.6820      1.00000
     16     -19.6785      1.00000
     17     -19.6506      1.00000
     18     -19.6482      1.00000
     19     -19.6158      1.00000
     20     -19.6126      1.00000
     21     -11.8043      1.00000
     22     -11.7982      1.00000
     23     -11.7933      1.00000
     24     -11.7897      1.00000
     25     -11.7736      1.00000
     26     -11.7679      1.00000
     27     -11.7167      1.00000
     28     -11.7095      1.00000
     29     -11.6912      1.00000
     30     -11.6747      1.00000
     31     -11.6540      1.00000
     32     -11.6479      1.00000
     33      -8.0948      1.00000
     34      -7.8844      1.00000
     35      -7.3633      1.00000
     36      -7.0404      1.00000
     37      -6.8734      1.00000
     38      -6.7974      1.00000
     39      -6.7017      1.00000
     40      -6.6804      1.00000
     41      -2.5113      1.00000
     42      -2.0311      1.00000
     43      -1.5846      1.00000
     44      -1.4556      1.00000
     45      -0.7380      1.00000
     46      -0.6595      1.00000
     47      -0.1392      1.00000
     48      -0.0504      1.00000
     49       0.1829      1.00000
     50       0.3203      1.00000
     51       0.5402      1.00000
     52       0.7678      1.00000
     53       0.8661      1.00000
     54       1.0449      1.00000
     55       1.1236      1.00000
     56       1.3168      1.00000
     57       1.3996      1.00000
     58       1.5515      1.00000
     59       1.5979      1.00000
     60       1.6694      1.00000
     61       1.8271      1.00000
     62       1.8616      1.00000
     63       1.8759      1.00000
     64       1.9755      1.00000
     65       4.5882      0.00000
     66       4.7212      0.00000
     67       5.0725      0.00000
     68       5.1459      0.00000
     69       5.3075      0.00000
     70       5.5779      0.00000
     71       5.5946      0.00000
     72       5.7913      0.00000
     73       5.8892      0.00000
     74       5.9726      0.00000
     75       6.0615      0.00000
     76       6.2549      0.00000
     77       6.3346      0.00000
     78       6.4997      0.00000
     79       6.6397      0.00000
     80       6.7786      0.00000

 k-point    55 :       0.3333    0.2000    0.3333
  band No.  band energies     occupation 
      1     -39.5387      1.00000
      2     -39.5382      1.00000
      3     -39.5334      1.00000
      4     -39.5330      1.00000
      5     -28.9997      1.00000
      6     -28.9982      1.00000
      7     -28.9934      1.00000
      8     -28.9920      1.00000
      9     -19.7214      1.00000
     10     -19.7198      1.00000
     11     -19.7127      1.00000
     12     -19.7101      1.00000
     13     -19.7012      1.00000
     14     -19.6938      1.00000
     15     -19.6821      1.00000
     16     -19.6785      1.00000
     17     -19.6506      1.00000
     18     -19.6482      1.00000
     19     -19.6159      1.00000
     20     -19.6126      1.00000
     21     -11.8068      1.00000
     22     -11.8001      1.00000
     23     -11.7939      1.00000
     24     -11.7894      1.00000
     25     -11.7732      1.00000
     26     -11.7676      1.00000
     27     -11.7168      1.00000
     28     -11.7088      1.00000
     29     -11.6909      1.00000
     30     -11.6749      1.00000
     31     -11.6538      1.00000
     32     -11.6477      1.00000
     33      -8.0483      1.00000
     34      -7.8594      1.00000
     35      -7.3755      1.00000
     36      -7.0559      1.00000
     37      -6.8896      1.00000
     38      -6.8018      1.00000
     39      -6.7428      1.00000
     40      -6.6890      1.00000
     41      -2.5242      1.00000
     42      -2.0406      1.00000
     43      -1.5743      1.00000
     44      -1.3794      1.00000
     45      -0.6209      1.00000
     46      -0.5514      1.00000
     47      -0.1002      1.00000
     48      -0.0767      1.00000
     49       0.1480      1.00000
     50       0.2532      1.00000
     51       0.5668      1.00000
     52       0.7482      1.00000
     53       0.7992      1.00000
     54       1.0457      1.00000
     55       1.1049      1.00000
     56       1.2568      1.00000
     57       1.4078      1.00000
     58       1.4576      1.00000
     59       1.6021      1.00000
     60       1.6654      1.00000
     61       1.7314      1.00000
     62       1.8831      1.00000
     63       1.9011      1.00000
     64       1.9428      1.00000
     65       4.5173      0.00000
     66       4.7650      0.00000
     67       4.9393      0.00000
     68       5.2672      0.00000
     69       5.3300      0.00000
     70       5.4195      0.00000
     71       5.5064      0.00000
     72       5.7233      0.00000
     73       5.8860      0.00000
     74       6.1438      0.00000
     75       6.1628      0.00000
     76       6.3226      0.00000
     77       6.4023      0.00000
     78       6.6115      0.00000
     79       6.6571      0.00000
     80       6.8200      0.00000

 k-point    56 :       0.5000    0.2000    0.3333
  band No.  band energies     occupation 
      1     -39.5387      1.00000
      2     -39.5382      1.00000
      3     -39.5334      1.00000
      4     -39.5330      1.00000
      5     -28.9996      1.00000
      6     -28.9981      1.00000
      7     -28.9934      1.00000
      8     -28.9920      1.00000
      9     -19.7214      1.00000
     10     -19.7198      1.00000
     11     -19.7127      1.00000
     12     -19.7101      1.00000
     13     -19.7011      1.00000
     14     -19.6938      1.00000
     15     -19.6821      1.00000
     16     -19.6786      1.00000
     17     -19.6506      1.00000
     18     -19.6482      1.00000
     19     -19.6159      1.00000
     20     -19.6126      1.00000
     21     -11.8075      1.00000
     22     -11.8009      1.00000
     23     -11.7944      1.00000
     24     -11.7894      1.00000
     25     -11.7728      1.00000
     26     -11.7679      1.00000
     27     -11.7167      1.00000
     28     -11.7087      1.00000
     29     -11.6908      1.00000
     30     -11.6750      1.00000
     31     -11.6535      1.00000
     32     -11.6478      1.00000
     33      -8.0521      1.00000
     34      -7.8387      1.00000
     35      -7.3638      1.00000
     36      -7.0470      1.00000
     37      -6.8909      1.00000
     38      -6.8420      1.00000
     39      -6.7519      1.00000
     40      -6.6756      1.00000
     41      -2.5353      1.00000
     42      -2.0689      1.00000
     43      -1.6142      1.00000
     44      -1.4186      1.00000
     45      -0.4990      1.00000
     46      -0.4323      1.00000
     47      -0.1633      1.00000
     48      -0.0336      1.00000
     49       0.1768      1.00000
     50       0.2966      1.00000
     51       0.6296      1.00000
     52       0.6869      1.00000
     53       0.8300      1.00000
     54       0.9891      1.00000
     55       1.0577      1.00000
     56       1.0970      1.00000
     57       1.3810      1.00000
     58       1.4209      1.00000
     59       1.5554      1.00000
     60       1.6805      1.00000
     61       1.7530      1.00000
     62       1.9224      1.00000
     63       1.9532      1.00000
     64       1.9939      1.00000
     65       4.5835      0.00000
     66       4.7384      0.00000
     67       4.9592      0.00000
     68       5.1992      0.00000
     69       5.2542      0.00000
     70       5.3402      0.00000
     71       5.6088      0.00000
     72       5.7361      0.00000
     73       5.9641      0.00000
     74       6.0486      0.00000
     75       6.1038      0.00000
     76       6.2965      0.00000
     77       6.4127      0.00000
     78       6.6212      0.00000
     79       6.7163      0.00000
     80       6.7662      0.00000

 k-point    57 :      -0.3333    0.2000    0.3333
  band No.  band energies     occupation 
      1     -39.5387      1.00000
      2     -39.5382      1.00000
      3     -39.5334      1.00000
      4     -39.5330      1.00000
      5     -28.9997      1.00000
      6     -28.9982      1.00000
      7     -28.9934      1.00000
      8     -28.9919      1.00000
      9     -19.7214      1.00000
     10     -19.7198      1.00000
     11     -19.7127      1.00000
     12     -19.7101      1.00000
     13     -19.7011      1.00000
     14     -19.6938      1.00000
     15     -19.6820      1.00000
     16     -19.6785      1.00000
     17     -19.6506      1.00000
     18     -19.6482      1.00000
     19     -19.6159      1.00000
     20     -19.6126      1.00000
     21     -11.8060      1.00000
     22     -11.8002      1.00000
     23     -11.7941      1.00000
     24     -11.7889      1.00000
     25     -11.7732      1.00000
     26     -11.7684      1.00000
     27     -11.7165      1.00000
     28     -11.7092      1.00000
     29     -11.6909      1.00000
     30     -11.6749      1.00000
     31     -11.6534      1.00000
     32     -11.6482      1.00000
     33      -8.1009      1.00000
     34      -7.8454      1.00000
     35      -7.3441      1.00000
     36      -7.0151      1.00000
     37      -6.8743      1.00000
     38      -6.8595      1.00000
     39      -6.7385      1.00000
     40      -6.6578      1.00000
     41      -2.5416      1.00000
     42      -2.0859      1.00000
     43      -1.6589      1.00000
     44      -1.4984      1.00000
     45      -0.5651      1.00000
     46      -0.4015      1.00000
     47      -0.2113      1.00000
     48       0.0089      1.00000
     49       0.1539      1.00000
     50       0.3629      1.00000
     51       0.5567      1.00000
     52       0.8133      1.00000
     53       0.8846      1.00000
     54       1.0154      1.00000
     55       1.0334      1.00000
     56       1.1142      1.00000
     57       1.3963      1.00000
     58       1.4620      1.00000
     59       1.5140      1.00000
     60       1.7070      1.00000
     61       1.7736      1.00000
     62       1.9211      1.00000
     63       1.9688      1.00000
     64       2.0594      1.00000
     65       4.6680      0.00000
     66       4.7710      0.00000
     67       4.8918      0.00000
     68       5.1369      0.00000
     69       5.2333      0.00000
     70       5.3706      0.00000
     71       5.7473      0.00000
     72       5.7723      0.00000
     73       5.8602      0.00000
     74       5.9563      0.00000
     75       6.1149      0.00000
     76       6.2201      0.00000
     77       6.4004      0.00000
     78       6.5318      0.00000
     79       6.6764      0.00000
     80       6.6864      0.00000

 k-point    58 :      -0.1667    0.2000    0.3333
  band No.  band energies     occupation 
      1     -39.5387      1.00000
      2     -39.5382      1.00000
      3     -39.5334      1.00000
      4     -39.5330      1.00000
      5     -28.9997      1.00000
      6     -28.9982      1.00000
      7     -28.9933      1.00000
      8     -28.9919      1.00000
      9     -19.7214      1.00000
     10     -19.7199      1.00000
     11     -19.7127      1.00000
     12     -19.7101      1.00000
     13     -19.7011      1.00000
     14     -19.6938      1.00000
     15     -19.6820      1.00000
     16     -19.6785      1.00000
     17     -19.6506      1.00000
     18     -19.6482      1.00000
     19     -19.6159      1.00000
     20     -19.6126      1.00000
     21     -11.8030      1.00000
     22     -11.7989      1.00000
     23     -11.7939      1.00000
     24     -11.7886      1.00000
     25     -11.7737      1.00000
     26     -11.7687      1.00000
     27     -11.7164      1.00000
     28     -11.7099      1.00000
     29     -11.6912      1.00000
     30     -11.6747      1.00000
     31     -11.6535      1.00000
     32     -11.6485      1.00000
     33      -8.1414      1.00000
     34      -7.8716      1.00000
     35      -7.3403      1.00000
     36      -7.0014      1.00000
     37      -6.8609      1.00000
     38      -6.8416      1.00000
     39      -6.7053      1.00000
     40      -6.6456      1.00000
     41      -2.5338      1.00000
     42      -2.0836      1.00000
     43      -1.7085      1.00000
     44      -1.5072      1.00000
     45      -0.6504      1.00000
     46      -0.5508      1.00000
     47      -0.2247      1.00000
     48       0.0183      1.00000
     49       0.1643      1.00000
     50       0.3647      1.00000
     51       0.5559      1.00000
     52       0.8536      1.00000
     53       0.8786      1.00000
     54       0.9757      1.00000
     55       1.1895      1.00000
     56       1.2150      1.00000
     57       1.3488      1.00000
     58       1.4761      1.00000
     59       1.6290      1.00000
     60       1.7959      1.00000
     61       1.8396      1.00000
     62       1.8668      1.00000
     63       1.9366      1.00000
     64       2.0499      1.00000
     65       4.6401      0.00000
     66       4.7587      0.00000
     67       5.0136      0.00000
     68       5.1287      0.00000
     69       5.2980      0.00000
     70       5.4999      0.00000
     71       5.5940      0.00000
     72       5.6746      0.00000
     73       5.8701      0.00000
     74       5.9095      0.00000
     75       6.1886      0.00000
     76       6.2335      0.00000
     77       6.3480      0.00000
     78       6.5495      0.00000
     79       6.6143      0.00000
     80       6.6909      0.00000

 k-point    59 :      -0.0000    0.4000    0.3333
  band No.  band energies     occupation 
      1     -39.5386      1.00000
      2     -39.5383      1.00000
      3     -39.5333      1.00000
      4     -39.5330      1.00000
      5     -28.9995      1.00000
      6     -28.9987      1.00000
      7     -28.9929      1.00000
      8     -28.9921      1.00000
      9     -19.7202      1.00000
     10     -19.7189      1.00000
     11     -19.7143      1.00000
     12     -19.7125      1.00000
     13     -19.6981      1.00000
     14     -19.6954      1.00000
     15     -19.6808      1.00000
     16     -19.6795      1.00000
     17     -19.6500      1.00000
     18     -19.6489      1.00000
     19     -19.6148      1.00000
     20     -19.6135      1.00000
     21     -11.8022      1.00000
     22     -11.8008      1.00000
     23     -11.7924      1.00000
     24     -11.7909      1.00000
     25     -11.7691      1.00000
     26     -11.7655      1.00000
     27     -11.7220      1.00000
     28     -11.7182      1.00000
     29     -11.6801      1.00000
     30     -11.6739      1.00000
     31     -11.6537      1.00000
     32     -11.6512      1.00000
     33      -8.0656      1.00000
     34      -7.9710      1.00000
     35      -7.2572      1.00000
     36      -7.1350      1.00000
     37      -6.8313      1.00000
     38      -6.8173      1.00000
     39      -6.6781      1.00000
     40      -6.6679      1.00000
     41      -2.3774      1.00000
     42      -2.2119      1.00000
     43      -1.5854      1.00000
     44      -1.5226      1.00000
     45      -0.6093      1.00000
     46      -0.5821      1.00000
     47      -0.1377      1.00000
     48      -0.0802      1.00000
     49       0.0799      1.00000
     50       0.1951      1.00000
     51       0.5774      1.00000
     52       0.7341      1.00000
     53       0.9646      1.00000
     54       1.0300      1.00000
     55       1.1487      1.00000
     56       1.1972      1.00000
     57       1.4163      1.00000
     58       1.4830      1.00000
     59       1.6901      1.00000
     60       1.7670      1.00000
     61       1.8311      1.00000
     62       1.8785      1.00000
     63       1.9093      1.00000
     64       1.9539      1.00000
     65       4.7492      0.00000
     66       4.8074      0.00000
     67       5.1072      0.00000
     68       5.1617      0.00000
     69       5.3122      0.00000
     70       5.4039      0.00000
     71       5.6742      0.00000
     72       5.7075      0.00000
     73       5.8244      0.00000
     74       5.8895      0.00000
     75       6.1067      0.00000
     76       6.2197      0.00000
     77       6.4049      0.00000
     78       6.5571      0.00000
     79       6.5833      0.00000
     80       6.7143      0.00000

 k-point    60 :       0.1667    0.4000    0.3333
  band No.  band energies     occupation 
      1     -39.5386      1.00000
      2     -39.5383      1.00000
      3     -39.5333      1.00000
      4     -39.5330      1.00000
      5     -28.9995      1.00000
      6     -28.9986      1.00000
      7     -28.9929      1.00000
      8     -28.9922      1.00000
      9     -19.7202      1.00000
     10     -19.7189      1.00000
     11     -19.7143      1.00000
     12     -19.7125      1.00000
     13     -19.6981      1.00000
     14     -19.6954      1.00000
     15     -19.6808      1.00000
     16     -19.6795      1.00000
     17     -19.6499      1.00000
     18     -19.6489      1.00000
     19     -19.6148      1.00000
     20     -19.6135      1.00000
     21     -11.8044      1.00000
     22     -11.8022      1.00000
     23     -11.7919      1.00000
     24     -11.7905      1.00000
     25     -11.7692      1.00000
     26     -11.7652      1.00000
     27     -11.7219      1.00000
     28     -11.7176      1.00000
     29     -11.6799      1.00000
     30     -11.6739      1.00000
     31     -11.6538      1.00000
     32     -11.6510      1.00000
     33      -8.0294      1.00000
     34      -7.9487      1.00000
     35      -7.2801      1.00000
     36      -7.1628      1.00000
     37      -6.8358      1.00000
     38      -6.8120      1.00000
     39      -6.6956      1.00000
     40      -6.6865      1.00000
     41      -2.3719      1.00000
     42      -2.1989      1.00000
     43      -1.4851      1.00000
     44      -1.4497      1.00000
     45      -0.6329      1.00000
     46      -0.5806      1.00000
     47      -0.1576      1.00000
     48      -0.0893      1.00000
     49       0.0641      1.00000
     50       0.1941      1.00000
     51       0.5409      1.00000
     52       0.6863      1.00000
     53       0.9481      1.00000
     54       1.0139      1.00000
     55       1.1701      1.00000
     56       1.2970      1.00000
     57       1.4201      1.00000
     58       1.4858      1.00000
     59       1.6342      1.00000
     60       1.6646      1.00000
     61       1.8034      1.00000
     62       1.8586      1.00000
     63       1.8928      1.00000
     64       1.9268      1.00000
     65       4.7234      0.00000
     66       4.8187      0.00000
     67       5.0115      0.00000
     68       5.1008      0.00000
     69       5.3117      0.00000
     70       5.4444      0.00000
     71       5.6255      0.00000
     72       5.7269      0.00000
     73       5.9400      0.00000
     74       5.9963      0.00000
     75       6.1063      0.00000
     76       6.2201      0.00000
     77       6.4232      0.00000
     78       6.4451      0.00000
     79       6.6913      0.00000
     80       6.7633      0.00000

 k-point    61 :       0.3333    0.4000    0.3333
  band No.  band energies     occupation 
      1     -39.5386      1.00000
      2     -39.5383      1.00000
      3     -39.5333      1.00000
      4     -39.5330      1.00000
      5     -28.9994      1.00000
      6     -28.9986      1.00000
      7     -28.9930      1.00000
      8     -28.9922      1.00000
      9     -19.7202      1.00000
     10     -19.7189      1.00000
     11     -19.7143      1.00000
     12     -19.7125      1.00000
     13     -19.6981      1.00000
     14     -19.6954      1.00000
     15     -19.6809      1.00000
     16     -19.6795      1.00000
     17     -19.6499      1.00000
     18     -19.6489      1.00000
     19     -19.6148      1.00000
     20     -19.6135      1.00000
     21     -11.8068      1.00000
     22     -11.8045      1.00000
     23     -11.7920      1.00000
     24     -11.7903      1.00000
     25     -11.7688      1.00000
     26     -11.7649      1.00000
     27     -11.7221      1.00000
     28     -11.7174      1.00000
     29     -11.6795      1.00000
     30     -11.6735      1.00000
     31     -11.6538      1.00000
     32     -11.6509      1.00000
     33      -7.9885      1.00000
     34      -7.9159      1.00000
     35      -7.2925      1.00000
     36      -7.1762      1.00000
     37      -6.8529      1.00000
     38      -6.8179      1.00000
     39      -6.7319      1.00000
     40      -6.7028      1.00000
     41      -2.3842      1.00000
     42      -2.2108      1.00000
     43      -1.4290      1.00000
     44      -1.3720      1.00000
     45      -0.5380      1.00000
     46      -0.4719      1.00000
     47      -0.2103      1.00000
     48      -0.1220      1.00000
     49       0.0847      1.00000
     50       0.1699      1.00000
     51       0.5178      1.00000
     52       0.5997      1.00000
     53       0.9686      1.00000
     54       1.0490      1.00000
     55       1.1338      1.00000
     56       1.2383      1.00000
     57       1.4300      1.00000
     58       1.4697      1.00000
     59       1.5361      1.00000
     60       1.5915      1.00000
     61       1.7828      1.00000
     62       1.8589      1.00000
     63       1.9257      1.00000
     64       1.9389      1.00000
     65       4.6748      0.00000
     66       4.8448      0.00000
     67       4.9375      0.00000
     68       5.0728      0.00000
     69       5.2657      0.00000
     70       5.3762      0.00000
     71       5.4932      0.00000
     72       5.6457      0.00000
     73       6.0300      0.00000
     74       6.1268      0.00000
     75       6.2449      0.00000
     76       6.3414      0.00000
     77       6.4659      0.00000
     78       6.5572      0.00000
     79       6.6358      0.00000
     80       6.7362      0.00000

 k-point    62 :       0.5000    0.4000    0.3333
  band No.  band energies     occupation 
      1     -39.5386      1.00000
      2     -39.5383      1.00000
      3     -39.5333      1.00000
      4     -39.5330      1.00000
      5     -28.9994      1.00000
      6     -28.9985      1.00000
      7     -28.9930      1.00000
      8     -28.9922      1.00000
      9     -19.7202      1.00000
     10     -19.7189      1.00000
     11     -19.7143      1.00000
     12     -19.7125      1.00000
     13     -19.6981      1.00000
     14     -19.6954      1.00000
     15     -19.6809      1.00000
     16     -19.6796      1.00000
     17     -19.6499      1.00000
     18     -19.6489      1.00000
     19     -19.6148      1.00000
     20     -19.6136      1.00000
     21     -11.8074      1.00000
     22     -11.8052      1.00000
     23     -11.7924      1.00000
     24     -11.7906      1.00000
     25     -11.7684      1.00000
     26     -11.7647      1.00000
     27     -11.7223      1.00000
     28     -11.7178      1.00000
     29     -11.6792      1.00000
     30     -11.6732      1.00000
     31     -11.6537      1.00000
     32     -11.6509      1.00000
     33      -7.9877      1.00000
     34      -7.9063      1.00000
     35      -7.2782      1.00000
     36      -7.1628      1.00000
     37      -6.8520      1.00000
     38      -6.8143      1.00000
     39      -6.7630      1.00000
     40      -6.7152      1.00000
     41      -2.3952      1.00000
     42      -2.2264      1.00000
     43      -1.4744      1.00000
     44      -1.4129      1.00000
     45      -0.3992      1.00000
     46      -0.3264      1.00000
     47      -0.2064      1.00000
     48      -0.1621      1.00000
     49       0.0640      1.00000
     50       0.1549      1.00000
     51       0.5698      1.00000
     52       0.6445      1.00000
     53       0.9811      1.00000
     54       1.0065      1.00000
     55       1.0381      1.00000
     56       1.1012      1.00000
     57       1.3994      1.00000
     58       1.4057      1.00000
     59       1.5622      1.00000
     60       1.6853      1.00000
     61       1.7842      1.00000
     62       1.8754      1.00000
     63       1.9468      1.00000
     64       1.9549      1.00000
     65       4.7692      0.00000
     66       4.8617      0.00000
     67       4.9704      0.00000
     68       5.1318      0.00000
     69       5.1719      0.00000
     70       5.1806      0.00000
     71       5.5092      0.00000
     72       5.6251      0.00000
     73       6.0350      0.00000
     74       6.0666      0.00000
     75       6.2498      0.00000
     76       6.3123      0.00000
     77       6.3712      0.00000
     78       6.5223      0.00000
     79       6.6803      0.00000
     80       6.7651      0.00000

 k-point    63 :      -0.3333    0.4000    0.3333
  band No.  band energies     occupation 
      1     -39.5386      1.00000
      2     -39.5383      1.00000
      3     -39.5333      1.00000
      4     -39.5330      1.00000
      5     -28.9994      1.00000
      6     -28.9986      1.00000
      7     -28.9930      1.00000
      8     -28.9922      1.00000
      9     -19.7202      1.00000
     10     -19.7189      1.00000
     11     -19.7143      1.00000
     12     -19.7125      1.00000
     13     -19.6981      1.00000
     14     -19.6954      1.00000
     15     -19.6809      1.00000
     16     -19.6795      1.00000
     17     -19.6499      1.00000
     18     -19.6489      1.00000
     19     -19.6149      1.00000
     20     -19.6136      1.00000
     21     -11.8060      1.00000
     22     -11.8040      1.00000
     23     -11.7923      1.00000
     24     -11.7904      1.00000
     25     -11.7684      1.00000
     26     -11.7651      1.00000
     27     -11.7225      1.00000
     28     -11.7183      1.00000
     29     -11.6794      1.00000
     30     -11.6732      1.00000
     31     -11.6537      1.00000
     32     -11.6510      1.00000
     33      -8.0278      1.00000
     34      -7.9314      1.00000
     35      -7.2494      1.00000
     36      -7.1293      1.00000
     37      -6.8423      1.00000
     38      -6.8220      1.00000
     39      -6.7462      1.00000
     40      -6.7049      1.00000
     41      -2.4016      1.00000
     42      -2.2355      1.00000
     43      -1.5490      1.00000
     44      -1.4982      1.00000
     45      -0.4293      1.00000
     46      -0.3056      1.00000
     47      -0.1816      1.00000
     48      -0.1515      1.00000
     49       0.0489      1.00000
     50       0.1624      1.00000
     51       0.5365      1.00000
     52       0.6891      1.00000
     53       0.9994      1.00000
     54       1.0434      1.00000
     55       1.1143      1.00000
     56       1.1466      1.00000
     57       1.3783      1.00000
     58       1.3960      1.00000
     59       1.5909      1.00000
     60       1.7226      1.00000
     61       1.7950      1.00000
     62       1.8842      1.00000
     63       1.9429      1.00000
     64       1.9842      1.00000
     65       4.8057      0.00000
     66       4.8832      0.00000
     67       4.9133      0.00000
     68       5.0804      0.00000
     69       5.2370      0.00000
     70       5.2767      0.00000
     71       5.5891      0.00000
     72       5.5990      0.00000
     73       5.9658      0.00000
     74       6.0058      0.00000
     75       6.1527      0.00000
     76       6.2444      0.00000
     77       6.3624      0.00000
     78       6.4693      0.00000
     79       6.6727      0.00000
     80       6.7317      0.00000

 k-point    64 :      -0.1667    0.4000    0.3333
  band No.  band energies     occupation 
      1     -39.5386      1.00000
      2     -39.5383      1.00000
      3     -39.5333      1.00000
      4     -39.5330      1.00000
      5     -28.9995      1.00000
      6     -28.9986      1.00000
      7     -28.9929      1.00000
      8     -28.9922      1.00000
      9     -19.7202      1.00000
     10     -19.7189      1.00000
     11     -19.7143      1.00000
     12     -19.7125      1.00000
     13     -19.6981      1.00000
     14     -19.6954      1.00000
     15     -19.6808      1.00000
     16     -19.6795      1.00000
     17     -19.6499      1.00000
     18     -19.6489      1.00000
     19     -19.6148      1.00000
     20     -19.6136      1.00000
     21     -11.8034      1.00000
     22     -11.8020      1.00000
     23     -11.7922      1.00000
     24     -11.7904      1.00000
     25     -11.7688      1.00000
     26     -11.7654      1.00000
     27     -11.7223      1.00000
     28     -11.7185      1.00000
     29     -11.6798      1.00000
     30     -11.6736      1.00000
     31     -11.6536      1.00000
     32     -11.6512      1.00000
     33      -8.0647      1.00000
     34      -7.9631      1.00000
     35      -7.2407      1.00000
     36      -7.1154      1.00000
     37      -6.8385      1.00000
     38      -6.8284      1.00000
     39      -6.6993      1.00000
     40      -6.6745      1.00000
     41      -2.3967      1.00000
     42      -2.2332      1.00000
     43      -1.6030      1.00000
     44      -1.5340      1.00000
     45      -0.5311      1.00000
     46      -0.4633      1.00000
     47      -0.1622      1.00000
     48      -0.1096      1.00000
     49       0.0820      1.00000
     50       0.1865      1.00000
     51       0.5412      1.00000
     52       0.6937      1.00000
     53       1.0183      1.00000
     54       1.0827      1.00000
     55       1.1501      1.00000
     56       1.2170      1.00000
     57       1.3595      1.00000
     58       1.4352      1.00000
     59       1.6554      1.00000
     60       1.7631      1.00000
     61       1.8312      1.00000
     62       1.8547      1.00000
     63       1.9602      1.00000
     64       1.9864      1.00000
     65       4.7192      0.00000
     66       4.8126      0.00000
     67       5.0382      0.00000
     68       5.1000      0.00000
     69       5.3614      0.00000
     70       5.4452      0.00000
     71       5.5381      0.00000
     72       5.5711      0.00000
     73       5.9180      0.00000
     74       5.9338      0.00000
     75       6.1796      0.00000
     76       6.2031      0.00000
     77       6.4557      0.00000
     78       6.5568      0.00000
     79       6.6654      0.00000
     80       6.7075      0.00000

 k-point    65 :      -0.0000   -0.4000    0.3333
  band No.  band energies     occupation 
      1     -39.5387      1.00000
      2     -39.5383      1.00000
      3     -39.5333      1.00000
      4     -39.5330      1.00000
      5     -28.9995      1.00000
      6     -28.9986      1.00000
      7     -28.9929      1.00000
      8     -28.9921      1.00000
      9     -19.7203      1.00000
     10     -19.7187      1.00000
     11     -19.7145      1.00000
     12     -19.7124      1.00000
     13     -19.6980      1.00000
     14     -19.6954      1.00000
     15     -19.6808      1.00000
     16     -19.6794      1.00000
     17     -19.6499      1.00000
     18     -19.6490      1.00000
     19     -19.6148      1.00000
     20     -19.6136      1.00000
     21     -11.8025      1.00000
     22     -11.8005      1.00000
     23     -11.7925      1.00000
     24     -11.7907      1.00000
     25     -11.7685      1.00000
     26     -11.7662      1.00000
     27     -11.7217      1.00000
     28     -11.7185      1.00000
     29     -11.6804      1.00000
     30     -11.6735      1.00000
     31     -11.6540      1.00000
     32     -11.6509      1.00000
     33      -8.0657      1.00000
     34      -7.9709      1.00000
     35      -7.2573      1.00000
     36      -7.1351      1.00000
     37      -6.8311      1.00000
     38      -6.8174      1.00000
     39      -6.6781      1.00000
     40      -6.6679      1.00000
     41      -2.3773      1.00000
     42      -2.2120      1.00000
     43      -1.5860      1.00000
     44      -1.5221      1.00000
     45      -0.6098      1.00000
     46      -0.5815      1.00000
     47      -0.1374      1.00000
     48      -0.0807      1.00000
     49       0.0799      1.00000
     50       0.1951      1.00000
     51       0.5773      1.00000
     52       0.7342      1.00000
     53       0.9644      1.00000
     54       1.0301      1.00000
     55       1.1488      1.00000
     56       1.1971      1.00000
     57       1.4165      1.00000
     58       1.4830      1.00000
     59       1.6899      1.00000
     60       1.7675      1.00000
     61       1.8311      1.00000
     62       1.8782      1.00000
     63       1.9095      1.00000
     64       1.9536      1.00000
     65       4.7490      0.00000
     66       4.8074      0.00000
     67       5.1078      0.00000
     68       5.1614      0.00000
     69       5.3113      0.00000
     70       5.4044      0.00000
     71       5.6743      0.00000
     72       5.7079      0.00000
     73       5.8241      0.00000
     74       5.8894      0.00000
     75       6.1071      0.00000
     76       6.2200      0.00000
     77       6.4053      0.00000
     78       6.5563      0.00000
     79       6.5825      0.00000
     80       6.7102      0.00000

 k-point    66 :       0.1667   -0.4000    0.3333
  band No.  band energies     occupation 
      1     -39.5387      1.00000
      2     -39.5383      1.00000
      3     -39.5333      1.00000
      4     -39.5330      1.00000
      5     -28.9995      1.00000
      6     -28.9986      1.00000
      7     -28.9930      1.00000
      8     -28.9922      1.00000
      9     -19.7203      1.00000
     10     -19.7186      1.00000
     11     -19.7145      1.00000
     12     -19.7124      1.00000
     13     -19.6980      1.00000
     14     -19.6954      1.00000
     15     -19.6809      1.00000
     16     -19.6794      1.00000
     17     -19.6499      1.00000
     18     -19.6490      1.00000
     19     -19.6148      1.00000
     20     -19.6136      1.00000
     21     -11.8046      1.00000
     22     -11.8020      1.00000
     23     -11.7921      1.00000
     24     -11.7904      1.00000
     25     -11.7686      1.00000
     26     -11.7659      1.00000
     27     -11.7215      1.00000
     28     -11.7179      1.00000
     29     -11.6802      1.00000
     30     -11.6734      1.00000
     31     -11.6541      1.00000
     32     -11.6508      1.00000
     33      -8.0295      1.00000
     34      -7.9486      1.00000
     35      -7.2801      1.00000
     36      -7.1629      1.00000
     37      -6.8357      1.00000
     38      -6.8121      1.00000
     39      -6.6946      1.00000
     40      -6.6874      1.00000
     41      -2.3717      1.00000
     42      -2.1991      1.00000
     43      -1.4856      1.00000
     44      -1.4493      1.00000
     45      -0.6330      1.00000
     46      -0.5803      1.00000
     47      -0.1578      1.00000
     48      -0.0893      1.00000
     49       0.0641      1.00000
     50       0.1941      1.00000
     51       0.5409      1.00000
     52       0.6862      1.00000
     53       0.9484      1.00000
     54       1.0135      1.00000
     55       1.1700      1.00000
     56       1.2972      1.00000
     57       1.4207      1.00000
     58       1.4855      1.00000
     59       1.6347      1.00000
     60       1.6643      1.00000
     61       1.8029      1.00000
     62       1.8590      1.00000
     63       1.8929      1.00000
     64       1.9266      1.00000
     65       4.7225      0.00000
     66       4.8196      0.00000
     67       5.0121      0.00000
     68       5.1001      0.00000
     69       5.3114      0.00000
     70       5.4444      0.00000
     71       5.6259      0.00000
     72       5.7271      0.00000
     73       5.9401      0.00000
     74       5.9962      0.00000
     75       6.1067      0.00000
     76       6.2203      0.00000
     77       6.4234      0.00000
     78       6.4445      0.00000
     79       6.6899      0.00000
     80       6.7614      0.00000

 k-point    67 :       0.3333   -0.4000    0.3333
  band No.  band energies     occupation 
      1     -39.5386      1.00000
      2     -39.5383      1.00000
      3     -39.5333      1.00000
      4     -39.5330      1.00000
      5     -28.9994      1.00000
      6     -28.9986      1.00000
      7     -28.9930      1.00000
      8     -28.9922      1.00000
      9     -19.7203      1.00000
     10     -19.7186      1.00000
     11     -19.7145      1.00000
     12     -19.7124      1.00000
     13     -19.6980      1.00000
     14     -19.6954      1.00000
     15     -19.6809      1.00000
     16     -19.6795      1.00000
     17     -19.6498      1.00000
     18     -19.6490      1.00000
     19     -19.6148      1.00000
     20     -19.6136      1.00000
     21     -11.8070      1.00000
     22     -11.8043      1.00000
     23     -11.7921      1.00000
     24     -11.7902      1.00000
     25     -11.7683      1.00000
     26     -11.7655      1.00000
     27     -11.7217      1.00000
     28     -11.7177      1.00000
     29     -11.6798      1.00000
     30     -11.6731      1.00000
     31     -11.6541      1.00000
     32     -11.6507      1.00000
     33      -7.9886      1.00000
     34      -7.9157      1.00000
     35      -7.2925      1.00000
     36      -7.1763      1.00000
     37      -6.8531      1.00000
     38      -6.8179      1.00000
     39      -6.7312      1.00000
     40      -6.7034      1.00000
     41      -2.3840      1.00000
     42      -2.2110      1.00000
     43      -1.4290      1.00000
     44      -1.3719      1.00000
     45      -0.5381      1.00000
     46      -0.4717      1.00000
     47      -0.2106      1.00000
     48      -0.1220      1.00000
     49       0.0846      1.00000
     50       0.1702      1.00000
     51       0.5176      1.00000
     52       0.5998      1.00000
     53       0.9686      1.00000
     54       1.0488      1.00000
     55       1.1335      1.00000
     56       1.2390      1.00000
     57       1.4302      1.00000
     58       1.4695      1.00000
     59       1.5357      1.00000
     60       1.5916      1.00000
     61       1.7825      1.00000
     62       1.8592      1.00000
     63       1.9257      1.00000
     64       1.9389      1.00000
     65       4.6747      0.00000
     66       4.8449      0.00000
     67       4.9374      0.00000
     68       5.0725      0.00000
     69       5.2662      0.00000
     70       5.3759      0.00000
     71       5.4937      0.00000
     72       5.6455      0.00000
     73       6.0298      0.00000
     74       6.1274      0.00000
     75       6.2443      0.00000
     76       6.3416      0.00000
     77       6.4654      0.00000
     78       6.5573      0.00000
     79       6.6365      0.00000
     80       6.7347      0.00000

 k-point    68 :       0.5000   -0.4000    0.3333
  band No.  band energies     occupation 
      1     -39.5387      1.00000
      2     -39.5383      1.00000
      3     -39.5333      1.00000
      4     -39.5330      1.00000
      5     -28.9994      1.00000
      6     -28.9985      1.00000
      7     -28.9930      1.00000
      8     -28.9922      1.00000
      9     -19.7203      1.00000
     10     -19.7186      1.00000
     11     -19.7145      1.00000
     12     -19.7124      1.00000
     13     -19.6980      1.00000
     14     -19.6954      1.00000
     15     -19.6810      1.00000
     16     -19.6795      1.00000
     17     -19.6498      1.00000
     18     -19.6490      1.00000
     19     -19.6148      1.00000
     20     -19.6136      1.00000
     21     -11.8076      1.00000
     22     -11.8049      1.00000
     23     -11.7925      1.00000
     24     -11.7905      1.00000
     25     -11.7678      1.00000
     26     -11.7654      1.00000
     27     -11.7220      1.00000
     28     -11.7181      1.00000
     29     -11.6795      1.00000
     30     -11.6728      1.00000
     31     -11.6541      1.00000
     32     -11.6507      1.00000
     33      -7.9878      1.00000
     34      -7.9062      1.00000
     35      -7.2782      1.00000
     36      -7.1629      1.00000
     37      -6.8523      1.00000
     38      -6.8144      1.00000
     39      -6.7622      1.00000
     40      -6.7157      1.00000
     41      -2.3951      1.00000
     42      -2.2266      1.00000
     43      -1.4744      1.00000
     44      -1.4129      1.00000
     45      -0.3992      1.00000
     46      -0.3261      1.00000
     47      -0.2067      1.00000
     48      -0.1620      1.00000
     49       0.0637      1.00000
     50       0.1553      1.00000
     51       0.5697      1.00000
     52       0.6445      1.00000
     53       0.9815      1.00000
     54       1.0060      1.00000
     55       1.0379      1.00000
     56       1.1015      1.00000
     57       1.3997      1.00000
     58       1.4056      1.00000
     59       1.5621      1.00000
     60       1.6851      1.00000
     61       1.7839      1.00000
     62       1.8758      1.00000
     63       1.9469      1.00000
     64       1.9548      1.00000
     65       4.7693      0.00000
     66       4.8615      0.00000
     67       4.9700      0.00000
     68       5.1316      0.00000
     69       5.1721      0.00000
     70       5.1807      0.00000
     71       5.5095      0.00000
     72       5.6250      0.00000
     73       6.0347      0.00000
     74       6.0666      0.00000
     75       6.2499      0.00000
     76       6.3126      0.00000
     77       6.3707      0.00000
     78       6.5226      0.00000
     79       6.6799      0.00000
     80       6.7653      0.00000

 k-point    69 :      -0.3333   -0.4000    0.3333
  band No.  band energies     occupation 
      1     -39.5387      1.00000
      2     -39.5383      1.00000
      3     -39.5333      1.00000
      4     -39.5330      1.00000
      5     -28.9994      1.00000
      6     -28.9986      1.00000
      7     -28.9930      1.00000
      8     -28.9922      1.00000
      9     -19.7203      1.00000
     10     -19.7186      1.00000
     11     -19.7145      1.00000
     12     -19.7124      1.00000
     13     -19.6980      1.00000
     14     -19.6954      1.00000
     15     -19.6809      1.00000
     16     -19.6795      1.00000
     17     -19.6498      1.00000
     18     -19.6490      1.00000
     19     -19.6148      1.00000
     20     -19.6136      1.00000
     21     -11.8062      1.00000
     22     -11.8037      1.00000
     23     -11.7924      1.00000
     24     -11.7903      1.00000
     25     -11.7678      1.00000
     26     -11.7657      1.00000
     27     -11.7221      1.00000
     28     -11.7186      1.00000
     29     -11.6797      1.00000
     30     -11.6728      1.00000
     31     -11.6540      1.00000
     32     -11.6508      1.00000
     33      -8.0279      1.00000
     34      -7.9313      1.00000
     35      -7.2493      1.00000
     36      -7.1293      1.00000
     37      -6.8425      1.00000
     38      -6.8219      1.00000
     39      -6.7461      1.00000
     40      -6.7049      1.00000
     41      -2.4015      1.00000
     42      -2.2356      1.00000
     43      -1.5492      1.00000
     44      -1.4981      1.00000
     45      -0.4293      1.00000
     46      -0.3054      1.00000
     47      -0.1817      1.00000
     48      -0.1513      1.00000
     49       0.0485      1.00000
     50       0.1626      1.00000
     51       0.5365      1.00000
     52       0.6889      1.00000
     53       0.9993      1.00000
     54       1.0436      1.00000
     55       1.1139      1.00000
     56       1.1473      1.00000
     57       1.3784      1.00000
     58       1.3959      1.00000
     59       1.5909      1.00000
     60       1.7225      1.00000
     61       1.7946      1.00000
     62       1.8844      1.00000
     63       1.9432      1.00000
     64       1.9841      1.00000
     65       4.8051      0.00000
     66       4.8839      0.00000
     67       4.9137      0.00000
     68       5.0803      0.00000
     69       5.2366      0.00000
     70       5.2768      0.00000
     71       5.5899      0.00000
     72       5.5982      0.00000
     73       5.9657      0.00000
     74       6.0055      0.00000
     75       6.1534      0.00000
     76       6.2436      0.00000
     77       6.3624      0.00000
     78       6.4694      0.00000
     79       6.6724      0.00000
     80       6.7314      0.00000

 k-point    70 :      -0.1667   -0.4000    0.3333
  band No.  band energies     occupation 
      1     -39.5387      1.00000
      2     -39.5383      1.00000
      3     -39.5333      1.00000
      4     -39.5330      1.00000
      5     -28.9995      1.00000
      6     -28.9986      1.00000
      7     -28.9930      1.00000
      8     -28.9922      1.00000
      9     -19.7203      1.00000
     10     -19.7186      1.00000
     11     -19.7145      1.00000
     12     -19.7124      1.00000
     13     -19.6980      1.00000
     14     -19.6954      1.00000
     15     -19.6809      1.00000
     16     -19.6794      1.00000
     17     -19.6499      1.00000
     18     -19.6490      1.00000
     19     -19.6148      1.00000
     20     -19.6136      1.00000
     21     -11.8037      1.00000
     22     -11.8017      1.00000
     23     -11.7924      1.00000
     24     -11.7902      1.00000
     25     -11.7682      1.00000
     26     -11.7661      1.00000
     27     -11.7220      1.00000
     28     -11.7188      1.00000
     29     -11.6801      1.00000
     30     -11.6732      1.00000
     31     -11.6540      1.00000
     32     -11.6509      1.00000
     33      -8.0649      1.00000
     34      -7.9630      1.00000
     35      -7.2407      1.00000
     36      -7.1154      1.00000
     37      -6.8385      1.00000
     38      -6.8283      1.00000
     39      -6.6996      1.00000
     40      -6.6743      1.00000
     41      -2.3966      1.00000
     42      -2.2333      1.00000
     43      -1.6034      1.00000
     44      -1.5337      1.00000
     45      -0.5313      1.00000
     46      -0.4629      1.00000
     47      -0.1618      1.00000
     48      -0.1101      1.00000
     49       0.0820      1.00000
     50       0.1866      1.00000
     51       0.5410      1.00000
     52       0.6937      1.00000
     53       1.0180      1.00000
     54       1.0828      1.00000
     55       1.1507      1.00000
     56       1.2168      1.00000
     57       1.3596      1.00000
     58       1.4353      1.00000
     59       1.6550      1.00000
     60       1.7632      1.00000
     61       1.8312      1.00000
     62       1.8549      1.00000
     63       1.9603      1.00000
     64       1.9864      1.00000
     65       4.7197      0.00000
     66       4.8119      0.00000
     67       5.0387      0.00000
     68       5.0997      0.00000
     69       5.3619      0.00000
     70       5.4444      0.00000
     71       5.5382      0.00000
     72       5.5712      0.00000
     73       5.9179      0.00000
     74       5.9334      0.00000
     75       6.1792      0.00000
     76       6.2040      0.00000
     77       6.4559      0.00000
     78       6.5567      0.00000
     79       6.6602      0.00000
     80       6.6993      0.00000

 k-point    71 :      -0.0000   -0.2000    0.3333
  band No.  band energies     occupation 
      1     -39.5387      1.00000
      2     -39.5382      1.00000
      3     -39.5334      1.00000
      4     -39.5330      1.00000
      5     -28.9998      1.00000
      6     -28.9983      1.00000
      7     -28.9933      1.00000
      8     -28.9919      1.00000
      9     -19.7215      1.00000
     10     -19.7197      1.00000
     11     -19.7128      1.00000
     12     -19.7101      1.00000
     13     -19.7011      1.00000
     14     -19.6938      1.00000
     15     -19.6820      1.00000
     16     -19.6784      1.00000
     17     -19.6506      1.00000
     18     -19.6483      1.00000
     19     -19.6158      1.00000
     20     -19.6126      1.00000
     21     -11.8019      1.00000
     22     -11.7979      1.00000
     23     -11.7936      1.00000
     24     -11.7893      1.00000
     25     -11.7732      1.00000
     26     -11.7690      1.00000
     27     -11.7162      1.00000
     28     -11.7103      1.00000
     29     -11.6915      1.00000
     30     -11.6743      1.00000
     31     -11.6540      1.00000
     32     -11.6483      1.00000
     33      -8.1389      1.00000
     34      -7.8900      1.00000
     35      -7.3486      1.00000
     36      -7.0150      1.00000
     37      -6.8625      1.00000
     38      -6.8170      1.00000
     39      -6.6831      1.00000
     40      -6.6531      1.00000
     41      -2.5140      1.00000
     42      -2.0579      1.00000
     43      -1.6801      1.00000
     44      -1.4959      1.00000
     45      -0.7099      1.00000
     46      -0.6803      1.00000
     47      -0.2025      1.00000
     48       0.0103      1.00000
     49       0.1900      1.00000
     50       0.3697      1.00000
     51       0.5434      1.00000
     52       0.8111      1.00000
     53       0.9275      1.00000
     54       0.9449      1.00000
     55       1.1815      1.00000
     56       1.2493      1.00000
     57       1.3875      1.00000
     58       1.5309      1.00000
     59       1.6626      1.00000
     60       1.7294      1.00000
     61       1.8245      1.00000
     62       1.8983      1.00000
     63       1.9413      1.00000
     64       2.0205      1.00000
     65       4.6518      0.00000
     66       4.7309      0.00000
     67       5.0602      0.00000
     68       5.1123      0.00000
     69       5.3539      0.00000
     70       5.5882      0.00000
     71       5.6108      0.00000
     72       5.7503      0.00000
     73       5.8486      0.00000
     74       5.9656      0.00000
     75       6.0335      0.00000
     76       6.2028      0.00000
     77       6.3141      0.00000
     78       6.4253      0.00000
     79       6.5774      0.00000
     80       6.6540      0.00000

 k-point    72 :       0.1667   -0.2000    0.3333
  band No.  band energies     occupation 
      1     -39.5387      1.00000
      2     -39.5382      1.00000
      3     -39.5334      1.00000
      4     -39.5330      1.00000
      5     -28.9997      1.00000
      6     -28.9982      1.00000
      7     -28.9933      1.00000
      8     -28.9919      1.00000
      9     -19.7215      1.00000
     10     -19.7197      1.00000
     11     -19.7128      1.00000
     12     -19.7101      1.00000
     13     -19.7011      1.00000
     14     -19.6938      1.00000
     15     -19.6820      1.00000
     16     -19.6784      1.00000
     17     -19.6506      1.00000
     18     -19.6483      1.00000
     19     -19.6158      1.00000
     20     -19.6126      1.00000
     21     -11.8044      1.00000
     22     -11.7980      1.00000
     23     -11.7935      1.00000
     24     -11.7895      1.00000
     25     -11.7732      1.00000
     26     -11.7685      1.00000
     27     -11.7164      1.00000
     28     -11.7098      1.00000
     29     -11.6914      1.00000
     30     -11.6744      1.00000
     31     -11.6542      1.00000
     32     -11.6479      1.00000
     33      -8.0948      1.00000
     34      -7.8843      1.00000
     35      -7.3633      1.00000
     36      -7.0405      1.00000
     37      -6.8733      1.00000
     38      -6.7976      1.00000
     39      -6.7009      1.00000
     40      -6.6810      1.00000
     41      -2.5112      1.00000
     42      -2.0312      1.00000
     43      -1.5849      1.00000
     44      -1.4554      1.00000
     45      -0.7380      1.00000
     46      -0.6594      1.00000
     47      -0.1391      1.00000
     48      -0.0507      1.00000
     49       0.1830      1.00000
     50       0.3202      1.00000
     51       0.5404      1.00000
     52       0.7678      1.00000
     53       0.8659      1.00000
     54       1.0447      1.00000
     55       1.1235      1.00000
     56       1.3168      1.00000
     57       1.4001      1.00000
     58       1.5517      1.00000
     59       1.5977      1.00000
     60       1.6696      1.00000
     61       1.8269      1.00000
     62       1.8615      1.00000
     63       1.8761      1.00000
     64       1.9754      1.00000
     65       4.5875      0.00000
     66       4.7218      0.00000
     67       5.0725      0.00000
     68       5.1464      0.00000
     69       5.3065      0.00000
     70       5.5776      0.00000
     71       5.5955      0.00000
     72       5.7915      0.00000
     73       5.8894      0.00000
     74       5.9734      0.00000
     75       6.0609      0.00000
     76       6.2551      0.00000
     77       6.3350      0.00000
     78       6.4992      0.00000
     79       6.6386      0.00000
     80       6.7288      0.00000

 k-point    73 :       0.3333   -0.2000    0.3333
  band No.  band energies     occupation 
      1     -39.5387      1.00000
      2     -39.5382      1.00000
      3     -39.5334      1.00000
      4     -39.5330      1.00000
      5     -28.9997      1.00000
      6     -28.9982      1.00000
      7     -28.9934      1.00000
      8     -28.9919      1.00000
      9     -19.7215      1.00000
     10     -19.7197      1.00000
     11     -19.7128      1.00000
     12     -19.7101      1.00000
     13     -19.7011      1.00000
     14     -19.6938      1.00000
     15     -19.6821      1.00000
     16     -19.6785      1.00000
     17     -19.6505      1.00000
     18     -19.6483      1.00000
     19     -19.6158      1.00000
     20     -19.6126      1.00000
     21     -11.8069      1.00000
     22     -11.7999      1.00000
     23     -11.7941      1.00000
     24     -11.7893      1.00000
     25     -11.7728      1.00000
     26     -11.7682      1.00000
     27     -11.7165      1.00000
     28     -11.7090      1.00000
     29     -11.6911      1.00000
     30     -11.6746      1.00000
     31     -11.6540      1.00000
     32     -11.6476      1.00000
     33      -8.0484      1.00000
     34      -7.8593      1.00000
     35      -7.3755      1.00000
     36      -7.0560      1.00000
     37      -6.8897      1.00000
     38      -6.8021      1.00000
     39      -6.7418      1.00000
     40      -6.6895      1.00000
     41      -2.5241      1.00000
     42      -2.0408      1.00000
     43      -1.5743      1.00000
     44      -1.3794      1.00000
     45      -0.6209      1.00000
     46      -0.5512      1.00000
     47      -0.1002      1.00000
     48      -0.0770      1.00000
     49       0.1480      1.00000
     50       0.2533      1.00000
     51       0.5668      1.00000
     52       0.7482      1.00000
     53       0.7992      1.00000
     54       1.0459      1.00000
     55       1.1044      1.00000
     56       1.2575      1.00000
     57       1.4078      1.00000
     58       1.4574      1.00000
     59       1.6020      1.00000
     60       1.6654      1.00000
     61       1.7311      1.00000
     62       1.8833      1.00000
     63       1.9012      1.00000
     64       1.9428      1.00000
     65       4.5172      0.00000
     66       4.7649      0.00000
     67       4.9391      0.00000
     68       5.2676      0.00000
     69       5.3298      0.00000
     70       5.4196      0.00000
     71       5.5061      0.00000
     72       5.7234      0.00000
     73       5.8863      0.00000
     74       6.1443      0.00000
     75       6.1622      0.00000
     76       6.3224      0.00000
     77       6.4023      0.00000
     78       6.6114      0.00000
     79       6.6576      0.00000
     80       6.8175      0.00000

 k-point    74 :       0.5000   -0.2000    0.3333
  band No.  band energies     occupation 
      1     -39.5387      1.00000
      2     -39.5382      1.00000
      3     -39.5334      1.00000
      4     -39.5330      1.00000
      5     -28.9997      1.00000
      6     -28.9981      1.00000
      7     -28.9934      1.00000
      8     -28.9920      1.00000
      9     -19.7215      1.00000
     10     -19.7197      1.00000
     11     -19.7128      1.00000
     12     -19.7101      1.00000
     13     -19.7011      1.00000
     14     -19.6938      1.00000
     15     -19.6821      1.00000
     16     -19.6785      1.00000
     17     -19.6505      1.00000
     18     -19.6483      1.00000
     19     -19.6159      1.00000
     20     -19.6126      1.00000
     21     -11.8076      1.00000
     22     -11.8007      1.00000
     23     -11.7945      1.00000
     24     -11.7892      1.00000
     25     -11.7724      1.00000
     26     -11.7684      1.00000
     27     -11.7164      1.00000
     28     -11.7089      1.00000
     29     -11.6910      1.00000
     30     -11.6747      1.00000
     31     -11.6537      1.00000
     32     -11.6477      1.00000
     33      -8.0522      1.00000
     34      -7.8386      1.00000
     35      -7.3638      1.00000
     36      -7.0471      1.00000
     37      -6.8912      1.00000
     38      -6.8420      1.00000
     39      -6.7514      1.00000
     40      -6.6758      1.00000
     41      -2.5352      1.00000
     42      -2.0689      1.00000
     43      -1.6142      1.00000
     44      -1.4186      1.00000
     45      -0.4991      1.00000
     46      -0.4321      1.00000
     47      -0.1633      1.00000
     48      -0.0337      1.00000
     49       0.1767      1.00000
     50       0.2968      1.00000
     51       0.6297      1.00000
     52       0.6870      1.00000
     53       0.8299      1.00000
     54       0.9889      1.00000
     55       1.0577      1.00000
     56       1.0969      1.00000
     57       1.3812      1.00000
     58       1.4210      1.00000
     59       1.5555      1.00000
     60       1.6803      1.00000
     61       1.7529      1.00000
     62       1.9224      1.00000
     63       1.9535      1.00000
     64       1.9940      1.00000
     65       4.5836      0.00000
     66       4.7382      0.00000
     67       4.9589      0.00000
     68       5.1992      0.00000
     69       5.2543      0.00000
     70       5.3405      0.00000
     71       5.6084      0.00000
     72       5.7361      0.00000
     73       5.9643      0.00000
     74       6.0485      0.00000
     75       6.1036      0.00000
     76       6.2965      0.00000
     77       6.4121      0.00000
     78       6.6219      0.00000
     79       6.7120      0.00000
     80       6.7867      0.00000

 k-point    75 :      -0.3333   -0.2000    0.3333
  band No.  band energies     occupation 
      1     -39.5387      1.00000
      2     -39.5382      1.00000
      3     -39.5334      1.00000
      4     -39.5330      1.00000
      5     -28.9997      1.00000
      6     -28.9982      1.00000
      7     -28.9934      1.00000
      8     -28.9919      1.00000
      9     -19.7215      1.00000
     10     -19.7197      1.00000
     11     -19.7129      1.00000
     12     -19.7101      1.00000
     13     -19.7011      1.00000
     14     -19.6938      1.00000
     15     -19.6821      1.00000
     16     -19.6785      1.00000
     17     -19.6506      1.00000
     18     -19.6483      1.00000
     19     -19.6159      1.00000
     20     -19.6126      1.00000
     21     -11.8062      1.00000
     22     -11.7999      1.00000
     23     -11.7942      1.00000
     24     -11.7887      1.00000
     25     -11.7727      1.00000
     26     -11.7690      1.00000
     27     -11.7162      1.00000
     28     -11.7094      1.00000
     29     -11.6911      1.00000
     30     -11.6746      1.00000
     31     -11.6536      1.00000
     32     -11.6481      1.00000
     33      -8.1010      1.00000
     34      -7.8453      1.00000
     35      -7.3441      1.00000
     36      -7.0152      1.00000
     37      -6.8743      1.00000
     38      -6.8595      1.00000
     39      -6.7385      1.00000
     40      -6.6578      1.00000
     41      -2.5415      1.00000
     42      -2.0859      1.00000
     43      -1.6590      1.00000
     44      -1.4984      1.00000
     45      -0.5651      1.00000
     46      -0.4014      1.00000
     47      -0.2112      1.00000
     48       0.0089      1.00000
     49       0.1536      1.00000
     50       0.3630      1.00000
     51       0.5567      1.00000
     52       0.8133      1.00000
     53       0.8842      1.00000
     54       1.0155      1.00000
     55       1.0334      1.00000
     56       1.1144      1.00000
     57       1.3963      1.00000
     58       1.4623      1.00000
     59       1.5137      1.00000
     60       1.7070      1.00000
     61       1.7735      1.00000
     62       1.9211      1.00000
     63       1.9691      1.00000
     64       2.0595      1.00000
     65       4.6678      0.00000
     66       4.7712      0.00000
     67       4.8922      0.00000
     68       5.1370      0.00000
     69       5.2329      0.00000
     70       5.3706      0.00000
     71       5.7471      0.00000
     72       5.7727      0.00000
     73       5.8598      0.00000
     74       5.9559      0.00000
     75       6.1147      0.00000
     76       6.2207      0.00000
     77       6.3998      0.00000
     78       6.5315      0.00000
     79       6.6760      0.00000
     80       6.6871      0.00000

 k-point    76 :      -0.1667   -0.2000    0.3333
  band No.  band energies     occupation 
      1     -39.5387      1.00000
      2     -39.5382      1.00000
      3     -39.5334      1.00000
      4     -39.5330      1.00000
      5     -28.9997      1.00000
      6     -28.9982      1.00000
      7     -28.9933      1.00000
      8     -28.9919      1.00000
      9     -19.7215      1.00000
     10     -19.7197      1.00000
     11     -19.7128      1.00000
     12     -19.7101      1.00000
     13     -19.7011      1.00000
     14     -19.6938      1.00000
     15     -19.6820      1.00000
     16     -19.6784      1.00000
     17     -19.6506      1.00000
     18     -19.6483      1.00000
     19     -19.6158      1.00000
     20     -19.6126      1.00000
     21     -11.8032      1.00000
     22     -11.7986      1.00000
     23     -11.7940      1.00000
     24     -11.7884      1.00000
     25     -11.7732      1.00000
     26     -11.7692      1.00000
     27     -11.7162      1.00000
     28     -11.7101      1.00000
     29     -11.6914      1.00000
     30     -11.6744      1.00000
     31     -11.6537      1.00000
     32     -11.6484      1.00000
     33      -8.1415      1.00000
     34      -7.8715      1.00000
     35      -7.3404      1.00000
     36      -7.0015      1.00000
     37      -6.8607      1.00000
     38      -6.8417      1.00000
     39      -6.7054      1.00000
     40      -6.6455      1.00000
     41      -2.5337      1.00000
     42      -2.0836      1.00000
     43      -1.7088      1.00000
     44      -1.5070      1.00000
     45      -0.6505      1.00000
     46      -0.5506      1.00000
     47      -0.2246      1.00000
     48       0.0180      1.00000
     49       0.1642      1.00000
     50       0.3645      1.00000
     51       0.5561      1.00000
     52       0.8532      1.00000
     53       0.8786      1.00000
     54       0.9758      1.00000
     55       1.1900      1.00000
     56       1.2151      1.00000
     57       1.3490      1.00000
     58       1.4759      1.00000
     59       1.6291      1.00000
     60       1.7959      1.00000
     61       1.8394      1.00000
     62       1.8669      1.00000
     63       1.9368      1.00000
     64       2.0500      1.00000
     65       4.6407      0.00000
     66       4.7581      0.00000
     67       5.0136      0.00000
     68       5.1287      0.00000
     69       5.2980      0.00000
     70       5.4999      0.00000
     71       5.5936      0.00000
     72       5.6750      0.00000
     73       5.8698      0.00000
     74       5.9095      0.00000
     75       6.1885      0.00000
     76       6.2339      0.00000
     77       6.3481      0.00000
     78       6.5491      0.00000
     79       6.6157      0.00000
     80       6.6880      0.00000

 k-point    77 :      -0.0000   -0.0000    0.5000
  band No.  band energies     occupation 
      1     -39.5386      1.00000
      2     -39.5383      1.00000
      3     -39.5333      1.00000
      4     -39.5331      1.00000
      5     -28.9993      1.00000
      6     -28.9986      1.00000
      7     -28.9929      1.00000
      8     -28.9923      1.00000
      9     -19.7221      1.00000
     10     -19.7219      1.00000
     11     -19.7100      1.00000
     12     -19.7099      1.00000
     13     -19.6978      1.00000
     14     -19.6976      1.00000
     15     -19.6804      1.00000
     16     -19.6802      1.00000
     17     -19.6496      1.00000
     18     -19.6493      1.00000
     19     -19.6143      1.00000
     20     -19.6139      1.00000
     21     -11.7975      1.00000
     22     -11.7971      1.00000
     23     -11.7929      1.00000
     24     -11.7924      1.00000
     25     -11.7780      1.00000
     26     -11.7775      1.00000
     27     -11.7057      1.00000
     28     -11.7054      1.00000
     29     -11.6907      1.00000
     30     -11.6905      1.00000
     31     -11.6486      1.00000
     32     -11.6484      1.00000
     33      -7.9945      1.00000
     34      -7.9936      1.00000
     35      -7.1752      1.00000
     36      -7.1751      1.00000
     37      -6.8884      1.00000
     38      -6.8884      1.00000
     39      -6.6653      1.00000
     40      -6.6643      1.00000
     41      -2.1209      1.00000
     42      -2.1206      1.00000
     43      -1.6969      1.00000
     44      -1.6963      1.00000
     45      -0.7621      1.00000
     46      -0.7616      1.00000
     47      -0.0149      1.00000
     48      -0.0148      1.00000
     49       0.3943      1.00000
     50       0.3946      1.00000
     51       0.5863      1.00000
     52       0.5867      1.00000
     53       0.8857      1.00000
     54       0.8858      1.00000
     55       1.1624      1.00000
     56       1.1624      1.00000
     57       1.4110      1.00000
     58       1.4112      1.00000
     59       1.6551      1.00000
     60       1.6552      1.00000
     61       1.8578      1.00000
     62       1.8580      1.00000
     63       2.0222      1.00000
     64       2.0222      1.00000
     65       4.6877      0.00000
     66       4.6890      0.00000
     67       5.2063      0.00000
     68       5.2070      0.00000
     69       5.2844      0.00000
     70       5.2851      0.00000
     71       5.7217      0.00000
     72       5.7224      0.00000
     73       5.8837      0.00000
     74       5.8838      0.00000
     75       6.0945      0.00000
     76       6.0945      0.00000
     77       6.3876      0.00000
     78       6.3886      0.00000
     79       6.7375      0.00000
     80       6.7409      0.00000

 k-point    78 :       0.1667    0.0000    0.5000
  band No.  band energies     occupation 
      1     -39.5386      1.00000
      2     -39.5383      1.00000
      3     -39.5333      1.00000
      4     -39.5331      1.00000
      5     -28.9993      1.00000
      6     -28.9986      1.00000
      7     -28.9930      1.00000
      8     -28.9923      1.00000
      9     -19.7221      1.00000
     10     -19.7219      1.00000
     11     -19.7100      1.00000
     12     -19.7099      1.00000
     13     -19.6978      1.00000
     14     -19.6976      1.00000
     15     -19.6805      1.00000
     16     -19.6802      1.00000
     17     -19.6496      1.00000
     18     -19.6493      1.00000
     19     -19.6143      1.00000
     20     -19.6139      1.00000
     21     -11.7996      1.00000
     22     -11.7981      1.00000
     23     -11.7928      1.00000
     24     -11.7915      1.00000
     25     -11.7784      1.00000
     26     -11.7769      1.00000
     27     -11.7051      1.00000
     28     -11.7049      1.00000
     29     -11.6912      1.00000
     30     -11.6907      1.00000
     31     -11.6487      1.00000
     32     -11.6480      1.00000
     33      -8.0040      1.00000
     34      -7.9545      1.00000
     35      -7.1868      1.00000
     36      -7.1710      1.00000
     37      -6.9266      1.00000
     38      -6.8523      1.00000
     39      -6.6871      1.00000
     40      -6.6713      1.00000
     41      -2.1490      1.00000
     42      -2.1300      1.00000
     43      -1.6948      1.00000
     44      -1.6749      1.00000
     45      -0.7135      1.00000
     46      -0.6760      1.00000
     47      -0.0543      1.00000
     48       0.0200      1.00000
     49       0.3677      1.00000
     50       0.3756      1.00000
     51       0.5513      1.00000
     52       0.6123      1.00000
     53       0.8483      1.00000
     54       0.9568      1.00000
     55       1.1456      1.00000
     56       1.2280      1.00000
     57       1.2564      1.00000
     58       1.4148      1.00000
     59       1.6832      1.00000
     60       1.6914      1.00000
     61       1.8486      1.00000
     62       1.8912      1.00000
     63       1.9443      1.00000
     64       1.9753      1.00000
     65       4.6777      0.00000
     66       4.7022      0.00000
     67       5.1222      0.00000
     68       5.2007      0.00000
     69       5.2330      0.00000
     70       5.3662      0.00000
     71       5.6571      0.00000
     72       5.7122      0.00000
     73       5.8699      0.00000
     74       5.9428      0.00000
     75       6.0437      0.00000
     76       6.1460      0.00000
     77       6.3270      0.00000
     78       6.5871      0.00000
     79       6.7402      0.00000
     80       6.8791      0.00000

 k-point    79 :       0.3333   -0.0000    0.5000
  band No.  band energies     occupation 
      1     -39.5386      1.00000
      2     -39.5383      1.00000
      3     -39.5333      1.00000
      4     -39.5331      1.00000
      5     -28.9992      1.00000
      6     -28.9985      1.00000
      7     -28.9930      1.00000
      8     -28.9924      1.00000
      9     -19.7220      1.00000
     10     -19.7219      1.00000
     11     -19.7100      1.00000
     12     -19.7099      1.00000
     13     -19.6978      1.00000
     14     -19.6976      1.00000
     15     -19.6805      1.00000
     16     -19.6802      1.00000
     17     -19.6496      1.00000
     18     -19.6493      1.00000
     19     -19.6143      1.00000
     20     -19.6139      1.00000
     21     -11.8016      1.00000
     22     -11.8007      1.00000
     23     -11.7926      1.00000
     24     -11.7918      1.00000
     25     -11.7779      1.00000
     26     -11.7765      1.00000
     27     -11.7041      1.00000
     28     -11.7038      1.00000
     29     -11.6920      1.00000
     30     -11.6915      1.00000
     31     -11.6484      1.00000
     32     -11.6477      1.00000
     33      -7.9765      1.00000
     34      -7.9229      1.00000
     35      -7.1900      1.00000
     36      -7.1705      1.00000
     37      -6.9517      1.00000
     38      -6.8707      1.00000
     39      -6.7056      1.00000
     40      -6.6830      1.00000
     41      -2.1625      1.00000
     42      -2.1571      1.00000
     43      -1.7093      1.00000
     44      -1.6761      1.00000
     45      -0.5565      1.00000
     46      -0.5100      1.00000
     47      -0.0382      1.00000
     48       0.0117      1.00000
     49       0.3672      1.00000
     50       0.3785      1.00000
     51       0.5650      1.00000
     52       0.5975      1.00000
     53       0.8321      1.00000
     54       0.9151      1.00000
     55       1.0154      1.00000
     56       1.0849      1.00000
     57       1.3751      1.00000
     58       1.3897      1.00000
     59       1.5674      1.00000
     60       1.6540      1.00000
     61       1.8215      1.00000
     62       1.9300      1.00000
     63       1.9670      1.00000
     64       1.9816      1.00000
     65       4.6210      0.00000
     66       4.8522      0.00000
     67       4.8764      0.00000
     68       5.1293      0.00000
     69       5.1320      0.00000
     70       5.5231      0.00000
     71       5.6492      0.00000
     72       5.7970      0.00000
     73       5.8426      0.00000
     74       6.0662      0.00000
     75       6.1773      0.00000
     76       6.2545      0.00000
     77       6.2887      0.00000
     78       6.3875      0.00000
     79       6.6474      0.00000
     80       6.9209      0.00000

 k-point    80 :       0.5000    0.0000    0.5000
  band No.  band energies     occupation 
      1     -39.5386      1.00000
      2     -39.5383      1.00000
      3     -39.5333      1.00000
      4     -39.5331      1.00000
      5     -28.9992      1.00000
      6     -28.9985      1.00000
      7     -28.9931      1.00000
      8     -28.9924      1.00000
      9     -19.7220      1.00000
     10     -19.7219      1.00000
     11     -19.7100      1.00000
     12     -19.7099      1.00000
     13     -19.6978      1.00000
     14     -19.6976      1.00000
     15     -19.6805      1.00000
     16     -19.6803      1.00000
     17     -19.6495      1.00000
     18     -19.6493      1.00000
     19     -19.6143      1.00000
     20     -19.6140      1.00000
     21     -11.8024      1.00000
     22     -11.8019      1.00000
     23     -11.7929      1.00000
     24     -11.7921      1.00000
     25     -11.7771      1.00000
     26     -11.7767      1.00000
     27     -11.7036      1.00000
     28     -11.7033      1.00000
     29     -11.6923      1.00000
     30     -11.6921      1.00000
     31     -11.6480      1.00000
     32     -11.6478      1.00000
     33      -7.9358      1.00000
     34      -7.9348      1.00000
     35      -7.1763      1.00000
     36      -7.1762      1.00000
     37      -6.9347      1.00000
     38      -6.9344      1.00000
     39      -6.6939      1.00000
     40      -6.6933      1.00000
     41      -2.1641      1.00000
     42      -2.1638      1.00000
     43      -1.7072      1.00000
     44      -1.7068      1.00000
     45      -0.4448      1.00000
     46      -0.4447      1.00000
     47      -0.0028      1.00000
     48      -0.0027      1.00000
     49       0.4280      1.00000
     50       0.4282      1.00000
     51       0.6204      1.00000
     52       0.6206      1.00000
     53       0.7138      1.00000
     54       0.7139      1.00000
     55       1.0272      1.00000
     56       1.0277      1.00000
     57       1.3566      1.00000
     58       1.3568      1.00000
     59       1.5816      1.00000
     60       1.5820      1.00000
     61       1.8801      1.00000
     62       1.8803      1.00000
     63       2.0156      1.00000
     64       2.0159      1.00000
     65       4.6587      0.00000
     66       4.6589      0.00000
     67       5.0581      0.00000
     68       5.0582      0.00000
     69       5.2496      0.00000
     70       5.2497      0.00000
     71       5.8759      0.00000
     72       5.8762      0.00000
     73       5.9811      0.00000
     74       5.9816      0.00000
     75       6.1266      0.00000
     76       6.1266      0.00000
     77       6.4257      0.00000
     78       6.4263      0.00000
     79       6.5447      0.00000
     80       6.5448      0.00000

 k-point    81 :      -0.0000    0.2000    0.5000
  band No.  band energies     occupation 
      1     -39.5386      1.00000
      2     -39.5383      1.00000
      3     -39.5333      1.00000
      4     -39.5331      1.00000
      5     -28.9993      1.00000
      6     -28.9986      1.00000
      7     -28.9929      1.00000
      8     -28.9923      1.00000
      9     -19.7214      1.00000
     10     -19.7212      1.00000
     11     -19.7114      1.00000
     12     -19.7113      1.00000
     13     -19.6970      1.00000
     14     -19.6968      1.00000
     15     -19.6806      1.00000
     16     -19.6803      1.00000
     17     -19.6495      1.00000
     18     -19.6492      1.00000
     19     -19.6143      1.00000
     20     -19.6140      1.00000
     21     -11.7992      1.00000
     22     -11.7987      1.00000
     23     -11.7933      1.00000
     24     -11.7927      1.00000
     25     -11.7745      1.00000
     26     -11.7739      1.00000
     27     -11.7134      1.00000
     28     -11.7131      1.00000
     29     -11.6833      1.00000
     30     -11.6830      1.00000
     31     -11.6499      1.00000
     32     -11.6497      1.00000
     33      -7.9850      1.00000
     34      -7.9840      1.00000
     35      -7.1913      1.00000
     36      -7.1912      1.00000
     37      -6.8856      1.00000
     38      -6.8855      1.00000
     39      -6.6662      1.00000
     40      -6.6651      1.00000
     41      -2.1074      1.00000
     42      -2.1071      1.00000
     43      -1.6797      1.00000
     44      -1.6791      1.00000
     45      -0.7238      1.00000
     46      -0.7232      1.00000
     47      -0.0336      1.00000
     48      -0.0335      1.00000
     49       0.2592      1.00000
     50       0.2594      1.00000
     51       0.6403      1.00000
     52       0.6406      1.00000
     53       0.9069      1.00000
     54       0.9071      1.00000
     55       1.1275      1.00000
     56       1.1277      1.00000
     57       1.4795      1.00000
     58       1.4796      1.00000
     59       1.6123      1.00000
     60       1.6127      1.00000
     61       1.8769      1.00000
     62       1.8769      1.00000
     63       1.9932      1.00000
     64       1.9933      1.00000
     65       4.7137      0.00000
     66       4.7150      0.00000
     67       5.1394      0.00000
     68       5.1398      0.00000
     69       5.3919      0.00000
     70       5.3925      0.00000
     71       5.6395      0.00000
     72       5.6399      0.00000
     73       5.9395      0.00000
     74       5.9406      0.00000
     75       6.0341      0.00000
     76       6.0343      0.00000
     77       6.4814      0.00000
     78       6.4823      0.00000
     79       6.6712      0.00000
     80       6.6722      0.00000

 k-point    82 :       0.1667    0.2000    0.5000
  band No.  band energies     occupation 
      1     -39.5386      1.00000
      2     -39.5383      1.00000
      3     -39.5333      1.00000
      4     -39.5331      1.00000
      5     -28.9993      1.00000
      6     -28.9986      1.00000
      7     -28.9930      1.00000
      8     -28.9923      1.00000
      9     -19.7213      1.00000
     10     -19.7212      1.00000
     11     -19.7114      1.00000
     12     -19.7113      1.00000
     13     -19.6970      1.00000
     14     -19.6968      1.00000
     15     -19.6807      1.00000
     16     -19.6804      1.00000
     17     -19.6495      1.00000
     18     -19.6492      1.00000
     19     -19.6143      1.00000
     20     -19.6140      1.00000
     21     -11.8010      1.00000
     22     -11.8001      1.00000
     23     -11.7929      1.00000
     24     -11.7920      1.00000
     25     -11.7751      1.00000
     26     -11.7732      1.00000
     27     -11.7138      1.00000
     28     -11.7124      1.00000
     29     -11.6835      1.00000
     30     -11.6829      1.00000
     31     -11.6500      1.00000
     32     -11.6493      1.00000
     33      -7.9908      1.00000
     34      -7.9495      1.00000
     35      -7.1962      1.00000
     36      -7.1897      1.00000
     37      -6.9149      1.00000
     38      -6.8604      1.00000
     39      -6.6916      1.00000
     40      -6.6700      1.00000
     41      -2.1336      1.00000
     42      -2.1171      1.00000
     43      -1.6719      1.00000
     44      -1.6564      1.00000
     45      -0.6764      1.00000
     46      -0.6416      1.00000
     47      -0.0802      1.00000
     48       0.0011      1.00000
     49       0.2277      1.00000
     50       0.2511      1.00000
     51       0.5765      1.00000
     52       0.7159      1.00000
     53       0.8568      1.00000
     54       0.9781      1.00000
     55       1.0495      1.00000
     56       1.2064      1.00000
     57       1.3779      1.00000
     58       1.4558      1.00000
     59       1.6146      1.00000
     60       1.6655      1.00000
     61       1.8621      1.00000
     62       1.9095      1.00000
     63       1.9314      1.00000
     64       1.9682      1.00000
     65       4.6804      0.00000
     66       4.7516      0.00000
     67       5.0257      0.00000
     68       5.2123      0.00000
     69       5.3287      0.00000
     70       5.3583      0.00000
     71       5.5612      0.00000
     72       5.6969      0.00000
     73       5.8937      0.00000
     74       5.9593      0.00000
     75       6.0518      0.00000
     76       6.1785      0.00000
     77       6.4582      0.00000
     78       6.5293      0.00000
     79       6.6668      0.00000
     80       6.8400      0.00000

 k-point    83 :       0.3333    0.2000    0.5000
  band No.  band energies     occupation 
      1     -39.5386      1.00000
      2     -39.5383      1.00000
      3     -39.5333      1.00000
      4     -39.5331      1.00000
      5     -28.9992      1.00000
      6     -28.9985      1.00000
      7     -28.9930      1.00000
      8     -28.9924      1.00000
      9     -19.7213      1.00000
     10     -19.7212      1.00000
     11     -19.7114      1.00000
     12     -19.7113      1.00000
     13     -19.6970      1.00000
     14     -19.6968      1.00000
     15     -19.6807      1.00000
     16     -19.6804      1.00000
     17     -19.6495      1.00000
     18     -19.6492      1.00000
     19     -19.6143      1.00000
     20     -19.6140      1.00000
     21     -11.8031      1.00000
     22     -11.8026      1.00000
     23     -11.7927      1.00000
     24     -11.7920      1.00000
     25     -11.7747      1.00000
     26     -11.7729      1.00000
     27     -11.7135      1.00000
     28     -11.7122      1.00000
     29     -11.6835      1.00000
     30     -11.6830      1.00000
     31     -11.6498      1.00000
     32     -11.6491      1.00000
     33      -7.9634      1.00000
     34      -7.9186      1.00000
     35      -7.2004      1.00000
     36      -7.1889      1.00000
     37      -6.9347      1.00000
     38      -6.8639      1.00000
     39      -6.7246      1.00000
     40      -6.6867      1.00000
     41      -2.1466      1.00000
     42      -2.1370      1.00000
     43      -1.6840      1.00000
     44      -1.6562      1.00000
     45      -0.5185      1.00000
     46      -0.4761      1.00000
     47      -0.0733      1.00000
     48      -0.0215      1.00000
     49       0.2211      1.00000
     50       0.2402      1.00000
     51       0.5919      1.00000
     52       0.7144      1.00000
     53       0.8247      1.00000
     54       0.9829      1.00000
     55       1.0116      1.00000
     56       1.0493      1.00000
     57       1.3427      1.00000
     58       1.4166      1.00000
     59       1.5676      1.00000
     60       1.6892      1.00000
     61       1.8448      1.00000
     62       1.8835      1.00000
     63       1.9412      1.00000
     64       1.9945      1.00000
     65       4.6619      0.00000
     66       4.8607      0.00000
     67       4.8930      0.00000
     68       5.0715      0.00000
     69       5.1805      0.00000
     70       5.4697      0.00000
     71       5.5697      0.00000
     72       5.7571      0.00000
     73       5.8972      0.00000
     74       6.0591      0.00000
     75       6.2005      0.00000
     76       6.2539      0.00000
     77       6.3304      0.00000
     78       6.4844      0.00000
     79       6.5885      0.00000
     80       6.7201      0.00000

 k-point    84 :       0.5000    0.2000    0.5000
  band No.  band energies     occupation 
      1     -39.5386      1.00000
      2     -39.5383      1.00000
      3     -39.5333      1.00000
      4     -39.5331      1.00000
      5     -28.9992      1.00000
      6     -28.9985      1.00000
      7     -28.9931      1.00000
      8     -28.9924      1.00000
      9     -19.7213      1.00000
     10     -19.7212      1.00000
     11     -19.7114      1.00000
     12     -19.7113      1.00000
     13     -19.6970      1.00000
     14     -19.6968      1.00000
     15     -19.6807      1.00000
     16     -19.6805      1.00000
     17     -19.6495      1.00000
     18     -19.6492      1.00000
     19     -19.6143      1.00000
     20     -19.6140      1.00000
     21     -11.8040      1.00000
     22     -11.8035      1.00000
     23     -11.7930      1.00000
     24     -11.7923      1.00000
     25     -11.7738      1.00000
     26     -11.7733      1.00000
     27     -11.7128      1.00000
     28     -11.7126      1.00000
     29     -11.6834      1.00000
     30     -11.6831      1.00000
     31     -11.6494      1.00000
     32     -11.6492      1.00000
     33      -7.9268      1.00000
     34      -7.9258      1.00000
     35      -7.1943      1.00000
     36      -7.1942      1.00000
     37      -6.9136      1.00000
     38      -6.9134      1.00000
     39      -6.7114      1.00000
     40      -6.7107      1.00000
     41      -2.1430      1.00000
     42      -2.1426      1.00000
     43      -1.6862      1.00000
     44      -1.6857      1.00000
     45      -0.4071      1.00000
     46      -0.4070      1.00000
     47      -0.0413      1.00000
     48      -0.0410      1.00000
     49       0.2557      1.00000
     50       0.2559      1.00000
     51       0.6734      1.00000
     52       0.6736      1.00000
     53       0.7896      1.00000
     54       0.7896      1.00000
     55       1.0278      1.00000
     56       1.0285      1.00000
     57       1.3081      1.00000
     58       1.3084      1.00000
     59       1.6551      1.00000
     60       1.6554      1.00000
     61       1.8553      1.00000
     62       1.8556      1.00000
     63       1.9955      1.00000
     64       1.9956      1.00000
     65       4.7129      0.00000
     66       4.7131      0.00000
     67       5.0478      0.00000
     68       5.0482      0.00000
     69       5.2087      0.00000
     70       5.2089      0.00000
     71       5.8123      0.00000
     72       5.8129      0.00000
     73       5.9751      0.00000
     74       5.9752      0.00000
     75       6.1479      0.00000
     76       6.1483      0.00000
     77       6.4322      0.00000
     78       6.4331      0.00000
     79       6.6429      0.00000
     80       6.6439      0.00000

 k-point    85 :      -0.3333    0.2000    0.5000
  band No.  band energies     occupation 
      1     -39.5386      1.00000
      2     -39.5383      1.00000
      3     -39.5333      1.00000
      4     -39.5331      1.00000
      5     -28.9992      1.00000
      6     -28.9985      1.00000
      7     -28.9930      1.00000
      8     -28.9924      1.00000
      9     -19.7213      1.00000
     10     -19.7212      1.00000
     11     -19.7114      1.00000
     12     -19.7113      1.00000
     13     -19.6970      1.00000
     14     -19.6968      1.00000
     15     -19.6807      1.00000
     16     -19.6804      1.00000
     17     -19.6495      1.00000
     18     -19.6492      1.00000
     19     -19.6143      1.00000
     20     -19.6140      1.00000
     21     -11.8033      1.00000
     22     -11.8024      1.00000
     23     -11.7928      1.00000
     24     -11.7919      1.00000
     25     -11.7745      1.00000
     26     -11.7731      1.00000
     27     -11.7133      1.00000
     28     -11.7124      1.00000
     29     -11.6836      1.00000
     30     -11.6829      1.00000
     31     -11.6498      1.00000
     32     -11.6491      1.00000
     33      -7.9633      1.00000
     34      -7.9187      1.00000
     35      -7.2003      1.00000
     36      -7.1890      1.00000
     37      -6.9348      1.00000
     38      -6.8640      1.00000
     39      -6.7240      1.00000
     40      -6.6872      1.00000
     41      -2.1463      1.00000
     42      -2.1374      1.00000
     43      -1.6840      1.00000
     44      -1.6562      1.00000
     45      -0.5185      1.00000
     46      -0.4760      1.00000
     47      -0.0734      1.00000
     48      -0.0213      1.00000
     49       0.2210      1.00000
     50       0.2404      1.00000
     51       0.5918      1.00000
     52       0.7144      1.00000
     53       0.8246      1.00000
     54       0.9831      1.00000
     55       1.0119      1.00000
     56       1.0488      1.00000
     57       1.3433      1.00000
     58       1.4165      1.00000
     59       1.5673      1.00000
     60       1.6893      1.00000
     61       1.8446      1.00000
     62       1.8834      1.00000
     63       1.9413      1.00000
     64       1.9945      1.00000
     65       4.6618      0.00000
     66       4.8605      0.00000
     67       4.8929      0.00000
     68       5.0712      0.00000
     69       5.1809      0.00000
     70       5.4696      0.00000
     71       5.5700      0.00000
     72       5.7573      0.00000
     73       5.8976      0.00000
     74       6.0593      0.00000
     75       6.2006      0.00000
     76       6.2535      0.00000
     77       6.3307      0.00000
     78       6.4841      0.00000
     79       6.5880      0.00000
     80       6.7200      0.00000

 k-point    86 :      -0.1667    0.2000    0.5000
  band No.  band energies     occupation 
      1     -39.5386      1.00000
      2     -39.5383      1.00000
      3     -39.5333      1.00000
      4     -39.5331      1.00000
      5     -28.9993      1.00000
      6     -28.9986      1.00000
      7     -28.9930      1.00000
      8     -28.9923      1.00000
      9     -19.7213      1.00000
     10     -19.7212      1.00000
     11     -19.7114      1.00000
     12     -19.7113      1.00000
     13     -19.6970      1.00000
     14     -19.6968      1.00000
     15     -19.6806      1.00000
     16     -19.6804      1.00000
     17     -19.6495      1.00000
     18     -19.6492      1.00000
     19     -19.6143      1.00000
     20     -19.6140      1.00000
     21     -11.8012      1.00000
     22     -11.7998      1.00000
     23     -11.7930      1.00000
     24     -11.7920      1.00000
     25     -11.7749      1.00000
     26     -11.7734      1.00000
     27     -11.7136      1.00000
     28     -11.7126      1.00000
     29     -11.6835      1.00000
     30     -11.6828      1.00000
     31     -11.6500      1.00000
     32     -11.6493      1.00000
     33      -7.9907      1.00000
     34      -7.9496      1.00000
     35      -7.1961      1.00000
     36      -7.1897      1.00000
     37      -6.9148      1.00000
     38      -6.8606      1.00000
     39      -6.6910      1.00000
     40      -6.6705      1.00000
     41      -2.1333      1.00000
     42      -2.1175      1.00000
     43      -1.6719      1.00000
     44      -1.6563      1.00000
     45      -0.6764      1.00000
     46      -0.6416      1.00000
     47      -0.0803      1.00000
     48       0.0012      1.00000
     49       0.2280      1.00000
     50       0.2510      1.00000
     51       0.5766      1.00000
     52       0.7159      1.00000
     53       0.8566      1.00000
     54       0.9782      1.00000
     55       1.0493      1.00000
     56       1.2063      1.00000
     57       1.3778      1.00000
     58       1.4564      1.00000
     59       1.6143      1.00000
     60       1.6653      1.00000
     61       1.8622      1.00000
     62       1.9094      1.00000
     63       1.9316      1.00000
     64       1.9680      1.00000
     65       4.6794      0.00000
     66       4.7523      0.00000
     67       5.0255      0.00000
     68       5.2122      0.00000
     69       5.3289      0.00000
     70       5.3585      0.00000
     71       5.5615      0.00000
     72       5.6971      0.00000
     73       5.8938      0.00000
     74       5.9599      0.00000
     75       6.0510      0.00000
     76       6.1784      0.00000
     77       6.4587      0.00000
     78       6.5296      0.00000
     79       6.6654      0.00000
     80       6.8190      0.00000

 k-point    87 :      -0.0000    0.4000    0.5000
  band No.  band energies     occupation 
      1     -39.5386      1.00000
      2     -39.5383      1.00000
      3     -39.5333      1.00000
      4     -39.5331      1.00000
      5     -28.9993      1.00000
      6     -28.9986      1.00000
      7     -28.9929      1.00000
      8     -28.9923      1.00000
      9     -19.7197      1.00000
     10     -19.7195      1.00000
     11     -19.7140      1.00000
     12     -19.7138      1.00000
     13     -19.6959      1.00000
     14     -19.6957      1.00000
     15     -19.6809      1.00000
     16     -19.6807      1.00000
     17     -19.6494      1.00000
     18     -19.6491      1.00000
     19     -19.6143      1.00000
     20     -19.6140      1.00000
     21     -11.8015      1.00000
     22     -11.8010      1.00000
     23     -11.7937      1.00000
     24     -11.7929      1.00000
     25     -11.7691      1.00000
     26     -11.7685      1.00000
     27     -11.7221      1.00000
     28     -11.7218      1.00000
     29     -11.6750      1.00000
     30     -11.6746      1.00000
     31     -11.6527      1.00000
     32     -11.6524      1.00000
     33      -7.9687      1.00000
     34      -7.9677      1.00000
     35      -7.2184      1.00000
     36      -7.2182      1.00000
     37      -6.8793      1.00000
     38      -6.8791      1.00000
     39      -6.6689      1.00000
     40      -6.6678      1.00000
     41      -2.0845      1.00000
     42      -2.0840      1.00000
     43      -1.6531      1.00000
     44      -1.6525      1.00000
     45      -0.6426      1.00000
     46      -0.6420      1.00000
     47      -0.0527      1.00000
     48      -0.0524      1.00000
     49       0.0607      1.00000
     50       0.0611      1.00000
     51       0.6815      1.00000
     52       0.6819      1.00000
     53       0.9632      1.00000
     54       0.9635      1.00000
     55       1.0563      1.00000
     56       1.0565      1.00000
     57       1.5206      1.00000
     58       1.5208      1.00000
     59       1.6497      1.00000
     60       1.6503      1.00000
     61       1.8657      1.00000
     62       1.8659      1.00000
     63       1.9397      1.00000
     64       1.9399      1.00000
     65       4.7975      0.00000
     66       4.7988      0.00000
     67       5.0661      0.00000
     68       5.0667      0.00000
     69       5.4357      0.00000
     70       5.4368      0.00000
     71       5.5569      0.00000
     72       5.5572      0.00000
     73       5.8757      0.00000
     74       5.8758      0.00000
     75       6.2410      0.00000
     76       6.2413      0.00000
     77       6.3935      0.00000
     78       6.3945      0.00000
     79       6.5964      0.00000
     80       6.5969      0.00000

 k-point    88 :       0.1667    0.4000    0.5000
  band No.  band energies     occupation 
      1     -39.5386      1.00000
      2     -39.5383      1.00000
      3     -39.5333      1.00000
      4     -39.5331      1.00000
      5     -28.9993      1.00000
      6     -28.9986      1.00000
      7     -28.9930      1.00000
      8     -28.9923      1.00000
      9     -19.7197      1.00000
     10     -19.7195      1.00000
     11     -19.7140      1.00000
     12     -19.7138      1.00000
     13     -19.6959      1.00000
     14     -19.6957      1.00000
     15     -19.6810      1.00000
     16     -19.6807      1.00000
     17     -19.6494      1.00000
     18     -19.6491      1.00000
     19     -19.6143      1.00000
     20     -19.6140      1.00000
     21     -11.8030      1.00000
     22     -11.8026      1.00000
     23     -11.7930      1.00000
     24     -11.7923      1.00000
     25     -11.7693      1.00000
     26     -11.7680      1.00000
     27     -11.7225      1.00000
     28     -11.7215      1.00000
     29     -11.6749      1.00000
     30     -11.6744      1.00000
     31     -11.6528      1.00000
     32     -11.6523      1.00000
     33      -7.9632      1.00000
     34      -7.9464      1.00000
     35      -7.2169      1.00000
     36      -7.2155      1.00000
     37      -6.8929      1.00000
     38      -6.8744      1.00000
     39      -6.6907      1.00000
     40      -6.6782      1.00000
     41      -2.1050      1.00000
     42      -2.0978      1.00000
     43      -1.6339      1.00000
     44      -1.6284      1.00000
     45      -0.5909      1.00000
     46      -0.5716      1.00000
     47      -0.1077      1.00000
     48      -0.0116      1.00000
     49      -0.0019      1.00000
     50       0.0731      1.00000
     51       0.6612      1.00000
     52       0.7442      1.00000
     53       0.8526      1.00000
     54       0.9418      1.00000
     55       1.0893      1.00000
     56       1.1739      1.00000
     57       1.4468      1.00000
     58       1.4954      1.00000
     59       1.5781      1.00000
     60       1.6645      1.00000
     61       1.8523      1.00000
     62       1.8571      1.00000
     63       1.9543      1.00000
     64       1.9589      1.00000
     65       4.7567      0.00000
     66       4.8152      0.00000
     67       4.9410      0.00000
     68       5.0788      0.00000
     69       5.3944      0.00000
     70       5.4582      0.00000
     71       5.5053      0.00000
     72       5.5865      0.00000
     73       5.8919      0.00000
     74       5.9472      0.00000
     75       6.1838      0.00000
     76       6.3047      0.00000
     77       6.4688      0.00000
     78       6.5113      0.00000
     79       6.5442      0.00000
     80       6.6710      0.00000

 k-point    89 :       0.3333    0.4000    0.5000
  band No.  band energies     occupation 
      1     -39.5386      1.00000
      2     -39.5383      1.00000
      3     -39.5333      1.00000
      4     -39.5331      1.00000
      5     -28.9992      1.00000
      6     -28.9985      1.00000
      7     -28.9930      1.00000
      8     -28.9924      1.00000
      9     -19.7197      1.00000
     10     -19.7195      1.00000
     11     -19.7140      1.00000
     12     -19.7138      1.00000
     13     -19.6958      1.00000
     14     -19.6956      1.00000
     15     -19.6810      1.00000
     16     -19.6808      1.00000
     17     -19.6493      1.00000
     18     -19.6490      1.00000
     19     -19.6143      1.00000
     20     -19.6140      1.00000
     21     -11.8052      1.00000
     22     -11.8048      1.00000
     23     -11.7929      1.00000
     24     -11.7922      1.00000
     25     -11.7689      1.00000
     26     -11.7676      1.00000
     27     -11.7227      1.00000
     28     -11.7217      1.00000
     29     -11.6746      1.00000
     30     -11.6740      1.00000
     31     -11.6527      1.00000
     32     -11.6522      1.00000
     33      -7.9354      1.00000
     34      -7.9173      1.00000
     35      -7.2202      1.00000
     36      -7.2159      1.00000
     37      -6.8970      1.00000
     38      -6.8632      1.00000
     39      -6.7376      1.00000
     40      -6.7116      1.00000
     41      -2.1145      1.00000
     42      -2.1086      1.00000
     43      -1.6389      1.00000
     44      -1.6276      1.00000
     45      -0.4216      1.00000
     46      -0.3960      1.00000
     47      -0.1267      1.00000
     48      -0.0788      1.00000
     49       0.0107      1.00000
     50       0.0399      1.00000
     51       0.7059      1.00000
     52       0.7710      1.00000
     53       0.7998      1.00000
     54       0.8830      1.00000
     55       1.0772      1.00000
     56       1.0985      1.00000
     57       1.3700      1.00000
     58       1.4008      1.00000
     59       1.5961      1.00000
     60       1.6611      1.00000
     61       1.8565      1.00000
     62       1.8899      1.00000
     63       1.9151      1.00000
     64       1.9753      1.00000
     65       4.7759      0.00000
     66       4.8633      0.00000
     67       4.9077      0.00000
     68       4.9766      0.00000
     69       5.2578      0.00000
     70       5.3477      0.00000
     71       5.5366      0.00000
     72       5.6446      0.00000
     73       5.9844      0.00000
     74       6.0694      0.00000
     75       6.2006      0.00000
     76       6.2441      0.00000
     77       6.3793      0.00000
     78       6.4963      0.00000
     79       6.6186      0.00000
     80       6.7251      0.00000

 k-point    90 :       0.5000    0.4000    0.5000
  band No.  band energies     occupation 
      1     -39.5386      1.00000
      2     -39.5383      1.00000
      3     -39.5333      1.00000
      4     -39.5331      1.00000
      5     -28.9992      1.00000
      6     -28.9985      1.00000
      7     -28.9931      1.00000
      8     -28.9924      1.00000
      9     -19.7197      1.00000
     10     -19.7195      1.00000
     11     -19.7140      1.00000
     12     -19.7138      1.00000
     13     -19.6958      1.00000
     14     -19.6956      1.00000
     15     -19.6811      1.00000
     16     -19.6808      1.00000
     17     -19.6493      1.00000
     18     -19.6490      1.00000
     19     -19.6143      1.00000
     20     -19.6140      1.00000
     21     -11.8061      1.00000
     22     -11.8056      1.00000
     23     -11.7932      1.00000
     24     -11.7924      1.00000
     25     -11.7683      1.00000
     26     -11.7677      1.00000
     27     -11.7224      1.00000
     28     -11.7220      1.00000
     29     -11.6743      1.00000
     30     -11.6739      1.00000
     31     -11.6525      1.00000
     32     -11.6522      1.00000
     33      -7.9116      1.00000
     34      -7.9106      1.00000
     35      -7.2228      1.00000
     36      -7.2226      1.00000
     37      -6.8703      1.00000
     38      -6.8702      1.00000
     39      -6.7504      1.00000
     40      -6.7495      1.00000
     41      -2.1072      1.00000
     42      -2.1067      1.00000
     43      -1.6519      1.00000
     44      -1.6514      1.00000
     45      -0.3032      1.00000
     46      -0.3029      1.00000
     47      -0.1026      1.00000
     48      -0.1021      1.00000
     49       0.0194      1.00000
     50       0.0199      1.00000
     51       0.7417      1.00000
     52       0.7420      1.00000
     53       0.8354      1.00000
     54       0.8359      1.00000
     55       0.9872      1.00000
     56       0.9878      1.00000
     57       1.3521      1.00000
     58       1.3524      1.00000
     59       1.6594      1.00000
     60       1.6596      1.00000
     61       1.8732      1.00000
     62       1.8734      1.00000
     63       1.9450      1.00000
     64       1.9452      1.00000
     65       4.8417      0.00000
     66       4.8419      0.00000
     67       5.0008      0.00000
     68       5.0011      0.00000
     69       5.1514      0.00000
     70       5.1516      0.00000
     71       5.6582      0.00000
     72       5.6590      0.00000
     73       6.0507      0.00000
     74       6.0510      0.00000
     75       6.1286      0.00000
     76       6.1288      0.00000
     77       6.5260      0.00000
     78       6.5270      0.00000
     79       6.6436      0.00000
     80       6.6446      0.00000

 k-point    91 :      -0.3333    0.4000    0.5000
  band No.  band energies     occupation 
      1     -39.5386      1.00000
      2     -39.5383      1.00000
      3     -39.5333      1.00000
      4     -39.5331      1.00000
      5     -28.9992      1.00000
      6     -28.9985      1.00000
      7     -28.9930      1.00000
      8     -28.9924      1.00000
      9     -19.7197      1.00000
     10     -19.7195      1.00000
     11     -19.7140      1.00000
     12     -19.7138      1.00000
     13     -19.6958      1.00000
     14     -19.6956      1.00000
     15     -19.6810      1.00000
     16     -19.6808      1.00000
     17     -19.6493      1.00000
     18     -19.6490      1.00000
     19     -19.6143      1.00000
     20     -19.6140      1.00000
     21     -11.8053      1.00000
     22     -11.8047      1.00000
     23     -11.7930      1.00000
     24     -11.7922      1.00000
     25     -11.7687      1.00000
     26     -11.7679      1.00000
     27     -11.7224      1.00000
     28     -11.7219      1.00000
     29     -11.6745      1.00000
     30     -11.6741      1.00000
     31     -11.6526      1.00000
     32     -11.6522      1.00000
     33      -7.9352      1.00000
     34      -7.9175      1.00000
     35      -7.2200      1.00000
     36      -7.2161      1.00000
     37      -6.8970      1.00000
     38      -6.8633      1.00000
     39      -6.7369      1.00000
     40      -6.7122      1.00000
     41      -2.1141      1.00000
     42      -2.1091      1.00000
     43      -1.6388      1.00000
     44      -1.6276      1.00000
     45      -0.4217      1.00000
     46      -0.3959      1.00000
     47      -0.1269      1.00000
     48      -0.0785      1.00000
     49       0.0105      1.00000
     50       0.0401      1.00000
     51       0.7057      1.00000
     52       0.7709      1.00000
     53       0.8001      1.00000
     54       0.8831      1.00000
     55       1.0772      1.00000
     56       1.0984      1.00000
     57       1.3698      1.00000
     58       1.4012      1.00000
     59       1.5960      1.00000
     60       1.6610      1.00000
     61       1.8563      1.00000
     62       1.8900      1.00000
     63       1.9152      1.00000
     64       1.9753      1.00000
     65       4.7759      0.00000
     66       4.8632      0.00000
     67       4.9076      0.00000
     68       4.9762      0.00000
     69       5.2582      0.00000
     70       5.3476      0.00000
     71       5.5371      0.00000
     72       5.6446      0.00000
     73       5.9842      0.00000
     74       6.0697      0.00000
     75       6.2002      0.00000
     76       6.2444      0.00000
     77       6.3793      0.00000
     78       6.4960      0.00000
     79       6.6190      0.00000
     80       6.7246      0.00000

 k-point    92 :      -0.1667    0.4000    0.5000
  band No.  band energies     occupation 
      1     -39.5386      1.00000
      2     -39.5383      1.00000
      3     -39.5333      1.00000
      4     -39.5331      1.00000
      5     -28.9993      1.00000
      6     -28.9986      1.00000
      7     -28.9930      1.00000
      8     -28.9923      1.00000
      9     -19.7197      1.00000
     10     -19.7195      1.00000
     11     -19.7140      1.00000
     12     -19.7138      1.00000
     13     -19.6959      1.00000
     14     -19.6957      1.00000
     15     -19.6810      1.00000
     16     -19.6807      1.00000
     17     -19.6494      1.00000
     18     -19.6491      1.00000
     19     -19.6143      1.00000
     20     -19.6140      1.00000
     21     -11.8032      1.00000
     22     -11.8024      1.00000
     23     -11.7931      1.00000
     24     -11.7923      1.00000
     25     -11.7691      1.00000
     26     -11.7683      1.00000
     27     -11.7223      1.00000
     28     -11.7218      1.00000
     29     -11.6749      1.00000
     30     -11.6744      1.00000
     31     -11.6527      1.00000
     32     -11.6523      1.00000
     33      -7.9631      1.00000
     34      -7.9466      1.00000
     35      -7.2170      1.00000
     36      -7.2153      1.00000
     37      -6.8927      1.00000
     38      -6.8745      1.00000
     39      -6.6901      1.00000
     40      -6.6788      1.00000
     41      -2.1045      1.00000
     42      -2.0983      1.00000
     43      -1.6339      1.00000
     44      -1.6283      1.00000
     45      -0.5909      1.00000
     46      -0.5716      1.00000
     47      -0.1079      1.00000
     48      -0.0115      1.00000
     49      -0.0018      1.00000
     50       0.0730      1.00000
     51       0.6612      1.00000
     52       0.7443      1.00000
     53       0.8524      1.00000
     54       0.9418      1.00000
     55       1.0892      1.00000
     56       1.1739      1.00000
     57       1.4468      1.00000
     58       1.4953      1.00000
     59       1.5787      1.00000
     60       1.6640      1.00000
     61       1.8525      1.00000
     62       1.8571      1.00000
     63       1.9542      1.00000
     64       1.9590      1.00000
     65       4.7559      0.00000
     66       4.8158      0.00000
     67       4.9410      0.00000
     68       5.0785      0.00000
     69       5.3945      0.00000
     70       5.4587      0.00000
     71       5.5055      0.00000
     72       5.5864      0.00000
     73       5.8921      0.00000
     74       5.9471      0.00000
     75       6.1834      0.00000
     76       6.3049      0.00000
     77       6.4686      0.00000
     78       6.5111      0.00000
     79       6.5447      0.00000
     80       6.6703      0.00000


--------------------------------------------------------------------------------------------------------


 soft charge-density along one line, spin component           1
         0         1         2         3         4         5         6         7         8         9
 total charge-density along one line
 
 soft charge-density along one line, spin component           2
         0         1         2         3         4         5         6         7         8         9
 total charge-density along one line
 
 pseudopotential strength for first ion, spin component:           1
-14.462  -0.301   0.000   0.001   0.001   0.000   0.001   0.001
 -0.301  -1.956   0.001   0.002   0.006   0.001   0.002   0.005
  0.000   0.001 -16.889   0.003  -0.000 -16.649   0.003  -0.000
  0.001   0.002   0.003 -16.890  -0.006   0.003 -16.650  -0.006
  0.001   0.006  -0.000  -0.006 -16.896  -0.000  -0.006 -16.655
  0.000   0.001 -16.649   0.003  -0.000 -16.402   0.003  -0.000
  0.001   0.002   0.003 -16.650  -0.006   0.003 -16.403  -0.005
  0.001   0.005  -0.000  -0.006 -16.655  -0.000  -0.005 -16.408
 -0.001   0.001   0.003  -0.000  -0.000   0.002  -0.000  -0.000
  0.003   0.000   0.002   0.000  -0.000   0.001   0.000  -0.000
  0.001   0.001  -0.000   0.003  -0.003  -0.000   0.002  -0.002
 -0.005  -0.000  -0.000   0.003   0.000  -0.000   0.003   0.000
 -0.003  -0.000  -0.001  -0.001   0.004  -0.001  -0.001   0.004
 pseudopotential strength for first ion, spin component:           2
-14.462  -0.301   0.000   0.001   0.001   0.000   0.001   0.001
 -0.301  -1.956   0.001   0.002   0.006   0.001   0.002   0.005
  0.000   0.001 -16.889   0.003  -0.000 -16.649   0.003  -0.000
  0.001   0.002   0.003 -16.890  -0.006   0.003 -16.650  -0.006
  0.001   0.006  -0.000  -0.006 -16.896  -0.000  -0.006 -16.655
  0.000   0.001 -16.649   0.003  -0.000 -16.402   0.003  -0.000
  0.001   0.002   0.003 -16.650  -0.006   0.003 -16.403  -0.005
  0.001   0.005  -0.000  -0.006 -16.655  -0.000  -0.005 -16.408
 -0.001   0.001   0.003  -0.000  -0.000   0.002  -0.000  -0.000
  0.003   0.000   0.002   0.000  -0.000   0.001   0.000  -0.000
  0.001   0.001  -0.000   0.003  -0.003  -0.000   0.002  -0.002
 -0.005  -0.000  -0.000   0.003   0.000  -0.000   0.003   0.000
 -0.003  -0.000  -0.001  -0.001   0.004  -0.001  -0.001   0.004
 total augmentation occupancy for first ion, spin component:           1
  2.012   0.043   0.008   0.031   0.086  -0.008  -0.031  -0.088   0.000  -0.002  -0.000   0.003   0.002
  0.043   0.368  -0.038  -0.069  -0.159   0.035   0.054   0.123  -0.009   0.007  -0.006  -0.017  -0.011
  0.008  -0.038   2.913   0.192  -0.213  -1.415  -0.151   0.191  -0.008   0.013  -0.011  -0.001   0.023
  0.031  -0.069   0.192   2.316  -0.487  -0.151  -0.880   0.404  -0.001  -0.017  -0.060   0.003   0.000
  0.086  -0.159  -0.213  -0.487   2.219   0.191   0.404  -0.832   0.031   0.000   0.045   0.021  -0.065
 -0.008   0.035  -1.415  -0.151   0.191   1.950   0.111  -0.169   0.003  -0.014   0.010   0.002  -0.020
 -0.031   0.054  -0.151  -0.880   0.404   0.111   1.474  -0.323   0.002   0.016   0.051  -0.009   0.000
 -0.088   0.123   0.191   0.404  -0.832  -0.169  -0.323   1.472  -0.028   0.000  -0.038  -0.021   0.053
  0.000  -0.009  -0.008  -0.001   0.031   0.003   0.002  -0.028   0.005  -0.000   0.001   0.001  -0.001
 -0.002   0.007   0.013  -0.017   0.000  -0.014   0.016   0.000  -0.000   0.005   0.001  -0.002   0.000
 -0.000  -0.006  -0.011  -0.060   0.045   0.010   0.051  -0.038   0.001   0.001   0.012  -0.001   0.003
  0.003  -0.017  -0.001   0.003   0.021   0.002  -0.009  -0.021   0.001  -0.002  -0.001   0.006  -0.003
  0.002  -0.011   0.023   0.000  -0.065  -0.020   0.000   0.053  -0.001   0.000   0.003  -0.003   0.014
 total augmentation occupancy for first ion, spin component:           2
 -0.000  -0.000  -0.000   0.000   0.000   0.000  -0.000  -0.000   0.000  -0.000  -0.000  -0.000   0.000
 -0.000  -0.000   0.000   0.000   0.000   0.000   0.000  -0.000   0.000  -0.000   0.000   0.000   0.000
 -0.000   0.000   0.000   0.000  -0.000  -0.000  -0.000   0.000   0.000   0.000   0.000   0.000   0.000
  0.000   0.000   0.000   0.000  -0.000  -0.000  -0.000   0.000  -0.000  -0.000  -0.000   0.000   0.000
  0.000   0.000  -0.000  -0.000   0.000   0.000   0.000  -0.000   0.000   0.000   0.000   0.000  -0.000
  0.000   0.000  -0.000  -0.000   0.000   0.000   0.000  -0.000  -0.000  -0.000  -0.000  -0.000  -0.000
 -0.000   0.000  -0.000  -0.000   0.000   0.000   0.000  -0.000  -0.000   0.000   0.000  -0.000  -0.000
 -0.000  -0.000   0.000   0.000  -0.000  -0.000  -0.000   0.000  -0.000  -0.000  -0.000  -0.000   0.000
  0.000   0.000   0.000  -0.000   0.000  -0.000  -0.000  -0.000   0.000  -0.000  -0.000   0.000   0.000
 -0.000  -0.000   0.000  -0.000   0.000  -0.000   0.000  -0.000  -0.000  -0.000   0.000   0.000  -0.000
 -0.000   0.000   0.000  -0.000   0.000  -0.000   0.000  -0.000  -0.000   0.000  -0.000  -0.000  -0.000
 -0.000   0.000   0.000   0.000   0.000  -0.000  -0.000  -0.000   0.000   0.000  -0.000  -0.000   0.000
  0.000   0.000   0.000   0.000  -0.000  -0.000  -0.000   0.000   0.000  -0.000  -0.000   0.000  -0.000


------------------------ aborting loop because EDIFF is reached ----------------------------------------


 


 total charge     
 
# of ion       s       p       d       tot
------------------------------------------
    1        1.965   5.658   0.034   7.657
    2        1.965   5.658   0.034   7.657
    3        1.965   5.658   0.034   7.657
    4        1.965   5.658   0.034   7.657
    5        2.045   5.857   0.258   8.160
    6        2.045   5.857   0.258   8.160
    7        2.045   5.857   0.258   8.160
    8        2.045   5.857   0.258   8.160
    9        0.384   0.371   0.000   0.755
   10        0.384   0.371   0.000   0.755
   11        0.384   0.371   0.000   0.755
   12        0.384   0.371   0.000   0.755
   13        1.008   1.570   0.000   2.578
   14        1.008   1.570   0.000   2.578
   15        1.008   1.570   0.000   2.578
   16        1.008   1.570   0.000   2.578
   17        1.007   1.565   0.000   2.572
   18        1.007   1.565   0.000   2.572
   19        1.007   1.565   0.000   2.572
   20        1.007   1.565   0.000   2.572
--------------------------------------------------
tot         25.633  60.085   1.167  86.884
 


 magnetization (x)
 
# of ion       s       p       d       tot
------------------------------------------
    1       -0.000   0.000  -0.000   0.000
    2       -0.000   0.000   0.000  -0.000
    3       -0.000  -0.000   0.000  -0.000
    4       -0.000   0.000  -0.000  -0.000
    5       -0.000   0.000  -0.000  -0.000
    6       -0.000  -0.000   0.000  -0.000
    7       -0.000   0.000   0.000  -0.000
    8       -0.000   0.000  -0.000  -0.000
    9        0.000   0.000   0.000   0.000
   10        0.000   0.000   0.000   0.000
   11       -0.000  -0.000   0.000  -0.000
   12       -0.000   0.000   0.000   0.000
   13       -0.000  -0.000   0.000  -0.000
   14       -0.000   0.000   0.000   0.000
   15       -0.000   0.000   0.000   0.000
   16       -0.000  -0.000   0.000  -0.000
   17       -0.000  -0.000   0.000  -0.000
   18       -0.000   0.000   0.000   0.000
   19       -0.000   0.000   0.000  -0.000
   20       -0.000  -0.000   0.000  -0.000
--------------------------------------------------
tot         -0.000   0.000   0.000  -0.000
 
    CHARGE:  cpu time    0.5740: real time    0.5741
    FORLOC:  cpu time    0.0024: real time    0.0024
    FORNL :  cpu time    2.5950: real time    2.5951
    STRESS:  cpu time   82.0337: real time   82.0385
    FORCOR:  cpu time    0.0808: real time    0.0815
    FORHAR:  cpu time    0.0053: real time    0.0056
    MIXING:  cpu time    0.0011: real time    0.0011
    OFIELD:  cpu time    0.0001: real time    0.0003

  FORCE on cell =-STRESS in cart. coord.  units (eV):
  Direction    XX          YY          ZZ          XY          YZ          ZX
  --------------------------------------------------------------------------------------
  Alpha Z   292.52070   292.52070   292.52070
  Ewald   -2027.14935 -1958.43420 -2050.80510     0.25386     0.03953    19.81865
  Hartree   736.72649   756.76370   731.96607     0.14713     0.05986    20.31035
  E(xc)    -510.40449  -510.52052  -510.29023     0.00069     0.00045    -0.10899
  Local    -140.59033  -222.62831  -114.95798    -0.40493    -0.10319   -37.39419
  n-local   140.36927   140.05908   140.46900    -0.00068    -0.00004     0.18698
  augment    68.91211    68.70314    68.54347     0.00161     0.00034     0.12734
  Kinetic  1439.67867  1433.61855  1442.60599     0.00567     0.01004    -2.92892
  Fock        0.00000     0.00000     0.00000     0.00000     0.00000     0.00000
  -------------------------------------------------------------------------------------
  Total       0.06306     0.08214     0.05192     0.00336     0.00699     0.01123
  in kB       0.19001     0.24750     0.15643     0.01012     0.02107     0.03384
  external pressure =        0.20 kB  Pullay stress =        0.00 kB


 VOLUME and BASIS-vectors are now :
 -----------------------------------------------------------------------------
  energy-cutoff  :      520.00
  volume of cell :      531.76
      direct lattice vectors                 reciprocal lattice vectors
     7.360720287  0.000608369 -0.954814318     0.138294810 -0.000007919  0.018798847
     0.000732647 10.530181214 -0.000953778    -0.000006745  0.094965129  0.000008513
    -0.949317675 -0.000693435  6.983710491     0.018907694  0.000011887  0.145760541

  length of vectors
     7.422390039 10.530181283  7.047937057     0.139566655  0.094965129  0.146981755


 FORCES acting on ions
    electron-ion (+dipol)            ewald-force                    non-local-force                 convergence-correction
 -----------------------------------------------------------------------------------------------
   0.357E+02 0.932E+01 0.557E+01   -.342E+02 -.919E+01 -.493E+01   -.153E+01 -.136E+00 -.634E+00   -.123E-01 0.134E-02 -.451E-02
   -.358E+02 0.952E+01 -.549E+01   0.343E+02 -.938E+01 0.486E+01   0.153E+01 -.137E+00 0.628E+00   0.123E-01 0.125E-02 0.451E-02
   -.358E+02 -.937E+01 -.559E+01   0.342E+02 0.923E+01 0.495E+01   0.153E+01 0.136E+00 0.635E+00   0.123E-01 -.127E-02 0.452E-02
   0.358E+02 -.950E+01 0.554E+01   -.343E+02 0.936E+01 -.491E+01   -.153E+01 0.137E+00 -.629E+00   -.123E-01 -.129E-02 -.452E-02
   -.478E+02 -.202E+01 0.197E+02   0.458E+02 0.294E+01 -.186E+02   0.204E+01 -.908E+00 -.109E+01   0.141E-01 -.494E-02 -.219E-02
   0.478E+02 -.192E+01 -.196E+02   -.457E+02 0.283E+01 0.185E+02   -.204E+01 -.904E+00 0.109E+01   -.141E-01 -.491E-02 0.216E-02
   0.478E+02 0.202E+01 -.197E+02   -.458E+02 -.293E+01 0.186E+02   -.204E+01 0.905E+00 0.109E+01   -.141E-01 0.488E-02 0.215E-02
   -.478E+02 0.192E+01 0.196E+02   0.457E+02 -.283E+01 -.185E+02   0.204E+01 0.907E+00 -.109E+01   0.141E-01 0.500E-02 -.219E-02
   0.409E+01 -.291E+01 -.472E+01   -.411E+01 0.351E+01 0.478E+01   0.197E-01 -.594E+00 -.614E-01   0.239E-02 -.115E-02 0.395E-03
   -.410E+01 -.285E+01 0.473E+01   0.412E+01 0.346E+01 -.479E+01   -.170E-01 -.598E+00 0.614E-01   -.239E-02 -.116E-02 -.395E-03
   -.410E+01 0.290E+01 0.472E+01   0.412E+01 -.351E+01 -.478E+01   -.198E-01 0.593E+00 0.622E-01   -.239E-02 0.116E-02 -.402E-03
   0.410E+01 0.286E+01 -.474E+01   -.411E+01 -.347E+01 0.480E+01   0.166E-01 0.597E+00 -.612E-01   0.239E-02 0.115E-02 0.395E-03
   -.630E+01 -.211E+02 -.159E+02   0.525E+01 0.221E+02 0.144E+02   0.101E+01 -.903E+00 0.135E+01   -.751E-02 0.172E-02 -.353E-02
   0.634E+01 -.212E+02 0.159E+02   -.529E+01 0.222E+02 -.144E+02   -.102E+01 -.903E+00 -.135E+01   0.752E-02 0.174E-02 0.353E-02
   0.629E+01 0.211E+02 0.159E+02   -.524E+01 -.221E+02 -.144E+02   -.101E+01 0.902E+00 -.135E+01   0.751E-02 -.173E-02 0.353E-02
   -.635E+01 0.212E+02 -.159E+02   0.530E+01 -.222E+02 0.144E+02   0.102E+01 0.902E+00 0.135E+01   -.751E-02 -.173E-02 -.352E-02
   -.133E+02 0.225E+02 -.109E+01   0.122E+02 -.222E+02 0.111E+01   0.103E+01 -.321E+00 -.291E-02   -.129E-01 -.230E-02 0.274E-03
   0.133E+02 0.226E+02 0.106E+01   -.122E+02 -.223E+02 -.108E+01   -.102E+01 -.324E+00 0.668E-02   0.129E-01 -.231E-02 -.292E-03
   0.133E+02 -.225E+02 0.110E+01   -.122E+02 0.222E+02 -.112E+01   -.103E+01 0.321E+00 0.205E-02   0.129E-01 0.231E-02 -.291E-03
   -.133E+02 -.226E+02 -.109E+01   0.122E+02 0.223E+02 0.111E+01   0.102E+01 0.324E+00 -.687E-02   -.129E-01 0.229E-02 0.291E-03
 -----------------------------------------------------------------------------------------------
   -.226E-02 0.812E-03 -.168E-02   -.657E-13 -.711E-14 -.289E-14   0.851E-04 -.222E-02 0.152E-02   0.650E-04 0.605E-04 -.772E-04
 
 
 POSITION                                       TOTAL-FORCE (eV/Angst)
 -----------------------------------------------------------------------------------
      2.30056      3.95817      0.06531        -0.004372     -0.002303     -0.003085
      4.58562      9.22371      2.47020         0.004821     -0.003631      0.001557
      4.11135      6.57161      5.96256         0.004861      0.002593      0.003877
      1.82703      1.30643      3.55825        -0.007076      0.002466     -0.003536
      5.82421      1.27647      4.82740        -0.002757     -0.002255      0.003460
      0.11304      6.54180      4.69273         0.004689     -0.004039     -0.005651
      0.58799      9.25361      1.20055         0.002132      0.002767     -0.003367
      6.29916      3.98828      1.33512        -0.004894      0.004373      0.005889
      3.87068      3.91599      3.55078         0.000279      0.002116     -0.004515
      2.06670      9.18102      5.96881         0.000922     -0.000147      0.003201
      2.54142      6.61420      2.47699         0.000003     -0.002103      0.004833
      4.34537      1.34911      0.05911        -0.000423     -0.000163     -0.002848
      1.65442      8.58175      3.67345         0.005109     -0.001103      0.001673
      4.28223      3.31626      5.84616        -0.005064     -0.000045     -0.000537
      4.75773      1.94845      2.35444        -0.004966      0.000735     -0.001559
      2.12974      7.21386      0.18166         0.005359      0.000020      0.000840
      1.56629      4.55737      3.24703         0.005352     -0.002077      0.001524
      4.37135      9.82224      6.27097        -0.003702     -0.003122     -0.000250
      4.84581      5.97277      2.78088        -0.004766      0.002274     -0.001796
      2.04068      0.70786     -0.24295         0.004493      0.003643      0.000290
 -----------------------------------------------------------------------------------
    total drift:                               -0.002115     -0.001348     -0.000239


--------------------------------------------------------------------------------------------------------



  FREE ENERGIE OF THE ION-ELECTRON SYSTEM (eV)
  ---------------------------------------------------
  free  energy   TOTEN  =      -204.08393266 eV

  energy  without entropy=     -204.08393266  energy(sigma->0) =     -204.08393266
 


--------------------------------------------------------------------------------------------------------


    POTLOK:  cpu time    0.9714: real time    0.9714


--------------------------------------------------------------------------------------------------------




--------------------------------------------------------------------------------------------------------


  
 reached required accuracy - stopping structural energy minimisation
     LOOP+:  cpu time  921.5952: real time  923.2071
    4ORBIT:  cpu time    0.0000: real time    0.0000
 


 total charge     
 
# of ion       s       p       d       tot
------------------------------------------
    1        1.965   5.658   0.034   7.657
    2        1.965   5.658   0.034   7.657
    3        1.965   5.658   0.034   7.657
    4        1.965   5.658   0.034   7.657
    5        2.045   5.857   0.258   8.160
    6        2.045   5.857   0.258   8.160
    7        2.045   5.857   0.258   8.160
    8        2.045   5.857   0.258   8.160
    9        0.384   0.371   0.000   0.755
   10        0.384   0.371   0.000   0.755
   11        0.384   0.371   0.000   0.755
   12        0.384   0.371   0.000   0.755
   13        1.008   1.570   0.000   2.578
   14        1.008   1.570   0.000   2.578
   15        1.008   1.570   0.000   2.578
   16        1.008   1.570   0.000   2.578
   17        1.007   1.565   0.000   2.572
   18        1.007   1.565   0.000   2.572
   19        1.007   1.565   0.000   2.572
   20        1.007   1.565   0.000   2.572
--------------------------------------------------
tot         25.633  60.085   1.167  86.884
 


 magnetization (x)
 
# of ion       s       p       d       tot
------------------------------------------
    1       -0.000   0.000  -0.000   0.000
    2       -0.000   0.000   0.000  -0.000
    3       -0.000  -0.000   0.000  -0.000
    4       -0.000   0.000  -0.000  -0.000
    5       -0.000   0.000  -0.000  -0.000
    6       -0.000  -0.000   0.000  -0.000
    7       -0.000   0.000   0.000  -0.000
    8       -0.000   0.000  -0.000  -0.000
    9        0.000   0.000   0.000   0.000
   10        0.000   0.000   0.000   0.000
   11       -0.000  -0.000   0.000  -0.000
   12       -0.000   0.000   0.000   0.000
   13       -0.000  -0.000   0.000  -0.000
   14       -0.000   0.000   0.000   0.000
   15       -0.000   0.000   0.000   0.000
   16       -0.000  -0.000   0.000  -0.000
   17       -0.000  -0.000   0.000  -0.000
   18       -0.000   0.000   0.000   0.000
   19       -0.000   0.000   0.000  -0.000
   20       -0.000  -0.000   0.000  -0.000
--------------------------------------------------
tot         -0.000   0.000   0.000  -0.000
 

 total amount of memory used by VASP MPI-rank0    97769. kBytes
=======================================================================

   base      :      30000. kBytes
   nonlr-proj:       3317. kBytes
   fftplans  :       1671. kBytes
   grid      :       6430. kBytes
   one-center:         62. kBytes
   wavefun   :      56289. kBytes
 
  
  
 General timing and accounting informations for this job:
 ========================================================
  
                  Total CPU time used (sec):      944.945
                            User time (sec):      930.365
                          System time (sec):       14.580
                         Elapsed time (sec):      947.604
  
                   Maximum memory used (kb):      174908.
                   Average memory used (kb):           0.
  
                          Minor page faults:        89152
                          Major page faults:            0
                 Voluntary context switches:         2030
