Na6 Al6 Zn6 N12                         
   1.00000000000000     
    -2.9280203092357890   -5.8168936606101278    0.1849235598695378
    -2.9276507075683860    5.8168913318624265    0.1905074546297239
     0.5375746379705751   -0.0053933767910368  -11.5086216733179647
   Al   Na   N    Zn
     6     6    12     6
Direct
  0.9383719067010013  0.6331671607798289  0.1926594491917075
  0.6336644648656063  0.9376095190869577  0.1926918821969279
  0.0613642407757584  0.3664394141660761  0.8072157694706352
  0.3660086794062620  0.0619413325043547  0.8072738505381807
  0.3489772147259240  0.3490136997101829  0.5742395591181524
  0.6506283687216196  0.6505603980197381  0.4259120755387936
  0.1943232157677082  0.5381908366063247  0.3243944869758340
  0.5389264550698060  0.1946028677750928  0.3244625456457023
  0.8053161207739862  0.4612160372486432  0.6757082577148354
  0.4609304564880598  0.8053177600575457  0.6756060844695754
  0.2339689671207466  0.2354653749781863  0.0739164256712638
  0.7719718671720037  0.7717876117403503  0.9263740781504534
  0.9305494636474009  0.6697951008302849  0.3643232299412691
  0.6699724897717064  0.9303445678947616  0.3643366845816017
  0.0690295354304545  0.3296707794280123  0.6356603746528499
  0.3296113293365969  0.0692003857133224  0.6356636382405385
  0.2749687894224644  0.7426130939228748  0.1580184571047464
  0.7437600849852841  0.2743103828352031  0.1580605497595765
  0.7242731413967577  0.2543906999275763  0.8417763454455254
  0.2535847834280681  0.7248230825765959  0.8417620695118675
  0.3278061003809977  0.3276877370565405  0.4105084015028060
  0.6718607487938472  0.6719045721033937  0.5896689158696599
  0.8493184844496117  0.8486223861239619  0.1486916873245529
  0.1518985878072890  0.1524972901041654  0.8512299138833049
  0.0352243766767940  0.0349343288570416  0.3135463405065190
  0.9646742180900156  0.9647837881875929  0.6864459923317349
  0.8443369605838994  0.1554512244097671  0.5000064423250801
  0.1554268180284077  0.8443087800278596  0.4999737715754543
  0.7405318937173128  0.2584191802286446 -0.0000914010710308
  0.2587202364646174  0.7409306070991337 -0.0000358781681179
 
  0.00000000E+00  0.00000000E+00  0.00000000E+00
  0.00000000E+00  0.00000000E+00  0.00000000E+00
  0.00000000E+00  0.00000000E+00  0.00000000E+00
  0.00000000E+00  0.00000000E+00  0.00000000E+00
  0.00000000E+00  0.00000000E+00  0.00000000E+00
  0.00000000E+00  0.00000000E+00  0.00000000E+00
  0.00000000E+00  0.00000000E+00  0.00000000E+00
  0.00000000E+00  0.00000000E+00  0.00000000E+00
  0.00000000E+00  0.00000000E+00  0.00000000E+00
  0.00000000E+00  0.00000000E+00  0.00000000E+00
  0.00000000E+00  0.00000000E+00  0.00000000E+00
  0.00000000E+00  0.00000000E+00  0.00000000E+00
  0.00000000E+00  0.00000000E+00  0.00000000E+00
  0.00000000E+00  0.00000000E+00  0.00000000E+00
  0.00000000E+00  0.00000000E+00  0.00000000E+00
  0.00000000E+00  0.00000000E+00  0.00000000E+00
  0.00000000E+00  0.00000000E+00  0.00000000E+00
  0.00000000E+00  0.00000000E+00  0.00000000E+00
  0.00000000E+00  0.00000000E+00  0.00000000E+00
  0.00000000E+00  0.00000000E+00  0.00000000E+00
  0.00000000E+00  0.00000000E+00  0.00000000E+00
  0.00000000E+00  0.00000000E+00  0.00000000E+00
  0.00000000E+00  0.00000000E+00  0.00000000E+00
  0.00000000E+00  0.00000000E+00  0.00000000E+00
  0.00000000E+00  0.00000000E+00  0.00000000E+00
  0.00000000E+00  0.00000000E+00  0.00000000E+00
  0.00000000E+00  0.00000000E+00  0.00000000E+00
  0.00000000E+00  0.00000000E+00  0.00000000E+00
  0.00000000E+00  0.00000000E+00  0.00000000E+00
  0.00000000E+00  0.00000000E+00  0.00000000E+00
