Na8 P4 Sr2                              
   1.00000000000000     
     5.2056423702982668   -0.0008791577743825   -0.0058184769456259
    -0.0008695156834689    5.2064297060068636   -0.0063504941242906
    -2.6200454061003997   -2.6220355810271281   15.9831784239223609
   Na   P    Sr
     8     4     2
Direct
  0.4320614420396029  0.6778808576450595  0.8551192586962750
  0.6751319985424573  0.4311733110978554  0.3552777404642156
  0.5708349833461067  0.3246713228550697  0.1451504746284361
  0.3219564679145648  0.5679101300816851  0.6448090073340027
  0.9765430543864699  0.2277433610599111  0.9580427499773367
  0.2276005790031226  0.9764541692558169  0.4580418274658243
  0.0235832179451275  0.7722868178405442  0.0419317524311453
  0.7719735956382184  0.0234065877028342  0.5419764356032700
  0.6785188073381663  0.9345195002869557  0.3616873296136765
  0.9349496870376356  0.6783701436091191  0.8616754122336066
  0.3204546642016414  0.0648507709956765  0.6381890325931754
  0.0669268997706731  0.3210641112967088  0.1381916890433636
  0.1221062818115345  0.8781472889402290  0.2499330359722629
  0.8773583210246859  0.1215216273325280  0.7499742539434012
 
  0.00000000E+00  0.00000000E+00  0.00000000E+00
  0.00000000E+00  0.00000000E+00  0.00000000E+00
  0.00000000E+00  0.00000000E+00  0.00000000E+00
  0.00000000E+00  0.00000000E+00  0.00000000E+00
  0.00000000E+00  0.00000000E+00  0.00000000E+00
  0.00000000E+00  0.00000000E+00  0.00000000E+00
  0.00000000E+00  0.00000000E+00  0.00000000E+00
  0.00000000E+00  0.00000000E+00  0.00000000E+00
  0.00000000E+00  0.00000000E+00  0.00000000E+00
  0.00000000E+00  0.00000000E+00  0.00000000E+00
  0.00000000E+00  0.00000000E+00  0.00000000E+00
  0.00000000E+00  0.00000000E+00  0.00000000E+00
  0.00000000E+00  0.00000000E+00  0.00000000E+00
  0.00000000E+00  0.00000000E+00  0.00000000E+00
