K8 N4 Ca2                               
   1.00000000000000     
     4.7448547397336949   -0.0035954457040785    0.3996229049755676
    -0.0040217817770109    4.7453696254485358    0.3890182040931001
    -0.5786350036969830   -0.6154266603523455   20.2523319473115926
   K    N    Ca
     8     4     2
Direct
  0.4246113817435551  0.6804630813221931  0.8260360160226458
  0.6808760936114147  0.4246815502520868  0.3257620753359167
  0.5753689509283424  0.3211974032737584  0.1740805234704817
  0.3208361645464501  0.5753022459562489  0.6744608317078570
  0.9243103033736904  0.2792929280048329  0.9239315917540978
  0.2838604301718965  0.9234964179496145  0.4250027533850840
  0.0754130422258305  0.7191179437922152  0.0775611898081575
  0.7157584854332946  0.0743609231576557  0.5782054927985613
  0.5563440742322318  0.9313307720158611  0.2871690791738121
  0.9306120811300485  0.5564813381796572  0.7871036931539812
  0.4450879803338688  0.0685025130452973  0.7112192758341076
  0.0681329195908868  0.4469612269126720  0.2106353409449640
  0.0768854766615617  0.9189830782972944  0.2494857531982735
  0.9219026160169346  0.0798285778406059  0.7493463834120598
 
  0.00000000E+00  0.00000000E+00  0.00000000E+00
  0.00000000E+00  0.00000000E+00  0.00000000E+00
  0.00000000E+00  0.00000000E+00  0.00000000E+00
  0.00000000E+00  0.00000000E+00  0.00000000E+00
  0.00000000E+00  0.00000000E+00  0.00000000E+00
  0.00000000E+00  0.00000000E+00  0.00000000E+00
  0.00000000E+00  0.00000000E+00  0.00000000E+00
  0.00000000E+00  0.00000000E+00  0.00000000E+00
  0.00000000E+00  0.00000000E+00  0.00000000E+00
  0.00000000E+00  0.00000000E+00  0.00000000E+00
  0.00000000E+00  0.00000000E+00  0.00000000E+00
  0.00000000E+00  0.00000000E+00  0.00000000E+00
  0.00000000E+00  0.00000000E+00  0.00000000E+00
  0.00000000E+00  0.00000000E+00  0.00000000E+00
