K6 Al6 Zn6 N12                          
   1.00000000000000     
    -2.9386541720732078   -6.3334174834934123    0.2408660206981910
    -2.9370587313336558    6.3328671018435241    0.2457060163840203
     0.8697999179884088   -0.0043815433981369  -11.7116926696820389
   Al   K    N    Zn
     6     6    12     6
Direct
  0.9265694359960105  0.6264095044040257  0.1906666202517673
  0.6266262088502280  0.9269173405034554  0.1906631056583002
  0.0734192642170378  0.3736001843553396  0.8093378245086255
  0.3733467844794870  0.0730526810140835  0.8093416226425556
  0.3622005244378094  0.3617673981052931  0.5780631674505105
  0.6378151338163563  0.6382247804208639  0.4220575980803979
  0.1619286062235398  0.5203979457272232  0.3327510899917075
  0.5193738394431041  0.1612408198085716  0.3334854428357198
  0.8383146219110813  0.4796010120442753  0.6670899800400443
  0.4808096968777189  0.8390539653228519  0.6664654656308482
  0.2732173771207029  0.2732252800456331  0.0903793745782199
  0.7264013521371245  0.7265211645366018  0.9095343206786410
  0.9112385428055785  0.6748735637842250  0.3616933137945800
  0.6750727081680912  0.9118403661299226  0.3616564326277601
  0.0887339216342536  0.3250892454477860  0.6383381833353875
  0.3249085755109071  0.0881062166904843  0.6383964776826725
  0.2680123114818576  0.7713800550361840  0.1567500282509385
  0.7712649085017473  0.2679723982548215  0.1568248217564799
  0.7319824983870540  0.2286808911129883  0.8432379600623696
  0.2287470729181277  0.7320106759986453  0.8431570063479322
  0.3123700213981124  0.3130959248753304  0.4166173721182522
  0.6876419096450131  0.6868709662488142  0.5834956627601943
  0.8055369059400319  0.8054680144447817  0.1524361832233307
  0.1944238413846839  0.1945111450528998  0.8475768267843222
  0.0108961584892910  0.0108692308888720  0.3133053178307639
  0.9890867331979146  0.9891060090528950  0.6867131842457106
  0.8704695304513494  0.1334390919260660  0.4994040776223685
  0.1296130612380314  0.8666847015991251  0.5005653560944655
  0.7588753717127206  0.2411037885654637  0.0000178196678837
  0.2411030816250331  0.7588856386024915 -0.0000216365527641
 
  0.00000000E+00  0.00000000E+00  0.00000000E+00
  0.00000000E+00  0.00000000E+00  0.00000000E+00
  0.00000000E+00  0.00000000E+00  0.00000000E+00
  0.00000000E+00  0.00000000E+00  0.00000000E+00
  0.00000000E+00  0.00000000E+00  0.00000000E+00
  0.00000000E+00  0.00000000E+00  0.00000000E+00
  0.00000000E+00  0.00000000E+00  0.00000000E+00
  0.00000000E+00  0.00000000E+00  0.00000000E+00
  0.00000000E+00  0.00000000E+00  0.00000000E+00
  0.00000000E+00  0.00000000E+00  0.00000000E+00
  0.00000000E+00  0.00000000E+00  0.00000000E+00
  0.00000000E+00  0.00000000E+00  0.00000000E+00
  0.00000000E+00  0.00000000E+00  0.00000000E+00
  0.00000000E+00  0.00000000E+00  0.00000000E+00
  0.00000000E+00  0.00000000E+00  0.00000000E+00
  0.00000000E+00  0.00000000E+00  0.00000000E+00
  0.00000000E+00  0.00000000E+00  0.00000000E+00
  0.00000000E+00  0.00000000E+00  0.00000000E+00
  0.00000000E+00  0.00000000E+00  0.00000000E+00
  0.00000000E+00  0.00000000E+00  0.00000000E+00
  0.00000000E+00  0.00000000E+00  0.00000000E+00
  0.00000000E+00  0.00000000E+00  0.00000000E+00
  0.00000000E+00  0.00000000E+00  0.00000000E+00
  0.00000000E+00  0.00000000E+00  0.00000000E+00
  0.00000000E+00  0.00000000E+00  0.00000000E+00
  0.00000000E+00  0.00000000E+00  0.00000000E+00
  0.00000000E+00  0.00000000E+00  0.00000000E+00
  0.00000000E+00  0.00000000E+00  0.00000000E+00
  0.00000000E+00  0.00000000E+00  0.00000000E+00
  0.00000000E+00  0.00000000E+00  0.00000000E+00
