Na6 Zn6 Ga6 N12                         
   1.00000000000000     
    -2.8377444250182169   -5.9174316675265262    0.3283386260187316
    -2.8377024771810966    5.9174160481835312    0.3284257065422795
     1.0607960075658105   -0.0000850076153348  -11.6730132644924502
   Ga   Na   N    Zn
     6     6    12     6
Direct
  0.8600768214052719  0.5541339681893136  0.1807516656492766
  0.5541265463526517  0.8600712529303517  0.1807549650756470
  0.1407559012319943  0.4460773276761292  0.8190321996964970
  0.4460870580715384  0.1407700776862392  0.8190281707603263
  0.3624791396742911  0.3624754255102586  0.5790568436660991
  0.6375645481399480  0.6375621137102959  0.4210552772901587
  0.1633479053087839  0.5112565311041716  0.3243587703919388
  0.5112598344972972  0.1633485239483693  0.3243622783443251
  0.8366894809429685  0.4887530233908152  0.6756325396496371
  0.4887471997648625  0.8366834708559685  0.6756296808453007
  0.2704955113965960  0.2705011356553027  0.0758997470824997
  0.7294712069549668  0.7294712084123731  0.9242605042130810
  0.9110037019739270  0.6415259138780797  0.3599922625615349
  0.6415335919645596  0.9110031223319583  0.3599877829459562
  0.0891391115791416  0.3585528845454666  0.6402872465261579
  0.3585502170494441  0.0891350067379382  0.6402904992654973
  0.1639731297617330  0.5881143999298242  0.1309925212326578
  0.5881152910168782  0.1639788957067833  0.1309962667066189
  0.8370937755212224  0.4131116878710136  0.8690526934604930
  0.4131076342487645  0.8370978406896704  0.8690495198034104
  0.2964006248564912  0.2963927459341540  0.4092433782983889
  0.7036171508179897  0.7036154998552254  0.5910430578728587
  0.7990540289742595  0.7990538153556502  0.1385648782936538
  0.2013330513984480  0.2013348729960082  0.8616408867111225
  0.9974705058192366  0.9974720513069267  0.3001449806362522
  0.0025003211370450  0.0025033948081019  0.6999933765584814
  0.8453608623693651  0.1546746209448441  0.5001373076478833
  0.1546710895955183  0.8453568566658149  0.5001418047351376
  0.7728998906292188  0.2230671697591570  0.9993084256624259
  0.2230748675455803  0.7729051616138152  0.9993104684167039
 
  0.00000000E+00  0.00000000E+00  0.00000000E+00
  0.00000000E+00  0.00000000E+00  0.00000000E+00
  0.00000000E+00  0.00000000E+00  0.00000000E+00
  0.00000000E+00  0.00000000E+00  0.00000000E+00
  0.00000000E+00  0.00000000E+00  0.00000000E+00
  0.00000000E+00  0.00000000E+00  0.00000000E+00
  0.00000000E+00  0.00000000E+00  0.00000000E+00
  0.00000000E+00  0.00000000E+00  0.00000000E+00
  0.00000000E+00  0.00000000E+00  0.00000000E+00
  0.00000000E+00  0.00000000E+00  0.00000000E+00
  0.00000000E+00  0.00000000E+00  0.00000000E+00
  0.00000000E+00  0.00000000E+00  0.00000000E+00
  0.00000000E+00  0.00000000E+00  0.00000000E+00
  0.00000000E+00  0.00000000E+00  0.00000000E+00
  0.00000000E+00  0.00000000E+00  0.00000000E+00
  0.00000000E+00  0.00000000E+00  0.00000000E+00
  0.00000000E+00  0.00000000E+00  0.00000000E+00
  0.00000000E+00  0.00000000E+00  0.00000000E+00
  0.00000000E+00  0.00000000E+00  0.00000000E+00
  0.00000000E+00  0.00000000E+00  0.00000000E+00
  0.00000000E+00  0.00000000E+00  0.00000000E+00
  0.00000000E+00  0.00000000E+00  0.00000000E+00
  0.00000000E+00  0.00000000E+00  0.00000000E+00
  0.00000000E+00  0.00000000E+00  0.00000000E+00
  0.00000000E+00  0.00000000E+00  0.00000000E+00
  0.00000000E+00  0.00000000E+00  0.00000000E+00
  0.00000000E+00  0.00000000E+00  0.00000000E+00
  0.00000000E+00  0.00000000E+00  0.00000000E+00
  0.00000000E+00  0.00000000E+00  0.00000000E+00
  0.00000000E+00  0.00000000E+00  0.00000000E+00
