Li4 Al4 Zn4 N8                          
   1.00000000000000     
     5.5221637918820026   -0.0000002549287489    0.1438812682832593
     0.0000009322140977    6.2031273433556882   -0.0000005157007870
     0.1867117933835774   -0.0000006828007659    5.9476760659503665
   Li   Zn   Al   N 
     4     4     4     8
Direct
  0.3405223801116863  0.4317482261463041  0.8876642989718831
  0.6594743579398651  0.9317474527089171  0.6123360982019311
  0.6594759898917669  0.5682520161705531  0.1123356936314116
  0.3405244238090134  0.0682523283745696  0.3876638590523429
  0.0988266509464114  0.1607717534894027  0.7498625243104415
  0.9011744615409618  0.6607731193208777  0.7501364251964234
  0.9011741637958657  0.8392267186940285  0.2501371897911325
  0.0988266153521126  0.3392280308984947  0.2498627646843353
  0.6610884549583229  0.3580886264240855  0.5353114817987552
  0.3389116961129101  0.8580882645082326  0.9646886422811676
  0.3389117146158636  0.6419118439194001  0.4646884709791007
  0.6610886592505814  0.1419114024745796  0.0353109589286647
  0.2120234749175988  0.8399151578545349  0.6758402957580829
  0.7879778340371417  0.3399133514492875  0.8241587422929347
  0.7879769388562451  0.1600866573208965  0.3241585823309873
  0.2120230291196341  0.6600849618774390  0.1758405844425259
  0.3151562265322386  0.3517176014355527  0.5521324479678205
  0.6848430241693690  0.8517177695748288  0.9478691490937702
  0.6848434233787009  0.6482822446091879  0.4478694576544031
  0.3151564806637104  0.1482824727488486  0.0521323326318782
 
  0.00000000E+00  0.00000000E+00  0.00000000E+00
  0.00000000E+00  0.00000000E+00  0.00000000E+00
  0.00000000E+00  0.00000000E+00  0.00000000E+00
  0.00000000E+00  0.00000000E+00  0.00000000E+00
  0.00000000E+00  0.00000000E+00  0.00000000E+00
  0.00000000E+00  0.00000000E+00  0.00000000E+00
  0.00000000E+00  0.00000000E+00  0.00000000E+00
  0.00000000E+00  0.00000000E+00  0.00000000E+00
  0.00000000E+00  0.00000000E+00  0.00000000E+00
  0.00000000E+00  0.00000000E+00  0.00000000E+00
  0.00000000E+00  0.00000000E+00  0.00000000E+00
  0.00000000E+00  0.00000000E+00  0.00000000E+00
  0.00000000E+00  0.00000000E+00  0.00000000E+00
  0.00000000E+00  0.00000000E+00  0.00000000E+00
  0.00000000E+00  0.00000000E+00  0.00000000E+00
  0.00000000E+00  0.00000000E+00  0.00000000E+00
  0.00000000E+00  0.00000000E+00  0.00000000E+00
  0.00000000E+00  0.00000000E+00  0.00000000E+00
  0.00000000E+00  0.00000000E+00  0.00000000E+00
  0.00000000E+00  0.00000000E+00  0.00000000E+00
