K4 Sr4 Al4 P8                           
   1.00000000000000     
     7.4295035076821385    0.0018633603897004   -0.5769520857168444
     0.0024460730360706   10.1173482282571783   -0.0012473194655742
    -0.5628908426048339   -0.0010029629293144    7.1271349884001012
   K    Sr   Al   P 
     4     4     4     8
Direct
  0.3892008514328486  0.3821973821259261  0.1000632901508538
  0.6107569709412166  0.8820919108934631  0.3998885833065332
  0.6108291803273135  0.6178087676709901  0.8999717841138213
  0.3892373659792215  0.1179179251487557  0.6001193090596966
  0.9460753650302782  0.0995787625528733  0.7640683235816642
  0.0539568396280929  0.5998942899165222  0.7358778534738565
  0.0539172314222396  0.9004001343275977  0.2359284947962174
  0.9460568929340240  0.4000948551894148  0.2641122898250408
  0.6229338058102665  0.3726524512018159  0.5697009989190778
  0.3770850083619836  0.8727003739828521  0.9303209834524865
  0.3770766760112969  0.6273521696590936  0.4302952543933451
  0.6228959836498847  0.1273080163794234  0.0696747188409468
  0.2646567341252741  0.8170869090826204  0.6057351387909538
  0.7352357214829376  0.3168967849227291  0.8942864053212967
  0.7353313347067877  0.1829166209812676  0.3942534408740665
  0.2647624060726041  0.6831064066037289  0.1057061119267855
  0.2973028967712510  0.4191248730086475  0.5463530214448505
  0.7026950970468009  0.9189930226125925  0.9535592248406605
  0.7027051853225624  0.5808709322679837  0.4536414102263966
  0.2972884529431233  0.0810074114717097  0.0464433626614499
 
  0.00000000E+00  0.00000000E+00  0.00000000E+00
  0.00000000E+00  0.00000000E+00  0.00000000E+00
  0.00000000E+00  0.00000000E+00  0.00000000E+00
  0.00000000E+00  0.00000000E+00  0.00000000E+00
  0.00000000E+00  0.00000000E+00  0.00000000E+00
  0.00000000E+00  0.00000000E+00  0.00000000E+00
  0.00000000E+00  0.00000000E+00  0.00000000E+00
  0.00000000E+00  0.00000000E+00  0.00000000E+00
  0.00000000E+00  0.00000000E+00  0.00000000E+00
  0.00000000E+00  0.00000000E+00  0.00000000E+00
  0.00000000E+00  0.00000000E+00  0.00000000E+00
  0.00000000E+00  0.00000000E+00  0.00000000E+00
  0.00000000E+00  0.00000000E+00  0.00000000E+00
  0.00000000E+00  0.00000000E+00  0.00000000E+00
  0.00000000E+00  0.00000000E+00  0.00000000E+00
  0.00000000E+00  0.00000000E+00  0.00000000E+00
  0.00000000E+00  0.00000000E+00  0.00000000E+00
  0.00000000E+00  0.00000000E+00  0.00000000E+00
  0.00000000E+00  0.00000000E+00  0.00000000E+00
  0.00000000E+00  0.00000000E+00  0.00000000E+00
