Li6 Mg6 Al6 P12                         
   1.00000000000000     
    -3.3310195345281000   -6.2579076158492359    0.1836746328630930
    -3.3438269521942119    6.2654784023531906    0.2096709759523222
     0.4966664027558097   -0.0291617282370205  -13.5398272167928599
   Al   Li   P    Mg
     6     6    12     6
Direct
  0.8374678886148594  0.5171752055437790  0.1740973617381431
  0.5160357121444840  0.8384977427992266  0.1750489642487306
  0.1622621474822951  0.4819826041406041  0.8260546503318681
  0.4835033747389376  0.1608235122391342  0.8250321129484315
  0.3913704788125345  0.3898541410849553  0.5832582617474490
  0.6096649601067954  0.6114594034551285  0.4170630434808645
  0.1893767438957610  0.5202848881887638  0.3128399717568903
  0.5213142445957816  0.1922199756134815  0.3131869954117241
  0.8115691687298784  0.4808619664688718  0.6874996784657001
  0.4791498671396396  0.8086295219322530  0.6869288714729817
  0.3417522572459340  0.3415396167431337  0.0703554599152141
  0.6576647221592005  0.6573487080396513  0.9294252872981218
  0.8881229944715516  0.5784805524809428  0.3529534232750864
  0.5751261345176889  0.8893009598547479  0.3545244729374816
  0.1121828054654609  0.4219162730959637  0.6471026016780506
  0.4254256578715012  0.1113315361191603  0.6453255709765233
  0.1501280528199082  0.5219684830720135  0.1247374570816679
  0.5206271515275342  0.1498423369861385  0.1254900941166626
  0.8494474067486987  0.4765152496875124  0.8757968386888938
  0.4785516109573061  0.8493436820719770  0.8748007748391549
  0.2514354496805449  0.2533872108586532  0.4141774244845634
  0.7491453618224219  0.7478342407698452  0.5857241002737500
  0.8064220254364884  0.8073114066186027  0.1092867988298754
  0.1931033350614800  0.1917276297213636  0.8906351484315376
  0.9516505513241651  0.9521505942589176  0.2863769226177332
  0.0486622129997010  0.0482838304608255  0.7132073760348739
  0.8524625401621407  0.1429826353967343  0.5017240450182038
  0.1492176467336100  0.8602900661232077  0.4969265154350578
  0.8249310409843630  0.1703924939702384  0.0004316047840956
  0.1722264557493340  0.8262635322041875  0.9999881716806482
 
  0.00000000E+00  0.00000000E+00  0.00000000E+00
  0.00000000E+00  0.00000000E+00  0.00000000E+00
  0.00000000E+00  0.00000000E+00  0.00000000E+00
  0.00000000E+00  0.00000000E+00  0.00000000E+00
  0.00000000E+00  0.00000000E+00  0.00000000E+00
  0.00000000E+00  0.00000000E+00  0.00000000E+00
  0.00000000E+00  0.00000000E+00  0.00000000E+00
  0.00000000E+00  0.00000000E+00  0.00000000E+00
  0.00000000E+00  0.00000000E+00  0.00000000E+00
  0.00000000E+00  0.00000000E+00  0.00000000E+00
  0.00000000E+00  0.00000000E+00  0.00000000E+00
  0.00000000E+00  0.00000000E+00  0.00000000E+00
  0.00000000E+00  0.00000000E+00  0.00000000E+00
  0.00000000E+00  0.00000000E+00  0.00000000E+00
  0.00000000E+00  0.00000000E+00  0.00000000E+00
  0.00000000E+00  0.00000000E+00  0.00000000E+00
  0.00000000E+00  0.00000000E+00  0.00000000E+00
  0.00000000E+00  0.00000000E+00  0.00000000E+00
  0.00000000E+00  0.00000000E+00  0.00000000E+00
  0.00000000E+00  0.00000000E+00  0.00000000E+00
  0.00000000E+00  0.00000000E+00  0.00000000E+00
  0.00000000E+00  0.00000000E+00  0.00000000E+00
  0.00000000E+00  0.00000000E+00  0.00000000E+00
  0.00000000E+00  0.00000000E+00  0.00000000E+00
  0.00000000E+00  0.00000000E+00  0.00000000E+00
  0.00000000E+00  0.00000000E+00  0.00000000E+00
  0.00000000E+00  0.00000000E+00  0.00000000E+00
  0.00000000E+00  0.00000000E+00  0.00000000E+00
  0.00000000E+00  0.00000000E+00  0.00000000E+00
  0.00000000E+00  0.00000000E+00  0.00000000E+00
