Li12 Zn3 P6                             
   1.00000000000000     
     4.3527054190421319    0.0001531590859335    0.0000299105461000
    -2.1762200700639864    3.7696299730141845   -0.0000306938117660
     0.0001673802598494   -0.0001016124332481   23.0234791468572908
   Li   Zn   P 
    12     3     6
Direct
  0.0000000503599664 -0.0000005182181076  0.7942712292404215
 -0.0000000192916165  0.0000004881509304  0.2057288562162462
  0.6666667284589050  0.3333326833191871  0.1268669333313612
  0.6666650294884796  0.3333354903135256  0.5394666183691487
  0.3333349943750135  0.6666645310797124  0.4605331256825249
  0.3333332668122932  0.6666672995114163  0.8731331586901930
 -0.0000010091871923  0.0000018342217807  0.5880912813097758
  0.0000010319160222 -0.0000018104034690  0.4119083874846226
  0.6666656593047661  0.3333351936586763  0.9211496255556825
  0.6666666267121361  0.3333325994410525  0.7459988584859187
  0.3333334065476037  0.6666673674140572  0.2540009447072115
  0.3333343279899805  0.6666647881256250  0.0788503924787075
 -0.0000001019602422  0.0000000077902400  0.0000003177484411
  0.6666627620072398  0.3333372280782294  0.3325488314596783
  0.3333371726138495  0.6666628529667042  0.6674510381045755
  0.0000026488051883  0.9999983178208943  0.9051391865382287
  0.9999973697874384  0.0000016716547796  0.0948612317185970
  0.6666691795670491  0.3333318668002926  0.2376898323341544
  0.6666637387679147  0.3333353034532965  0.4277196775592489
  0.3333363096918994  0.6666646988902658  0.5722801019840871
  0.3333308272333126  0.6666681059309246  0.7623103710011815
 
  0.00000000E+00  0.00000000E+00  0.00000000E+00
  0.00000000E+00  0.00000000E+00  0.00000000E+00
  0.00000000E+00  0.00000000E+00  0.00000000E+00
  0.00000000E+00  0.00000000E+00  0.00000000E+00
  0.00000000E+00  0.00000000E+00  0.00000000E+00
  0.00000000E+00  0.00000000E+00  0.00000000E+00
  0.00000000E+00  0.00000000E+00  0.00000000E+00
  0.00000000E+00  0.00000000E+00  0.00000000E+00
  0.00000000E+00  0.00000000E+00  0.00000000E+00
  0.00000000E+00  0.00000000E+00  0.00000000E+00
  0.00000000E+00  0.00000000E+00  0.00000000E+00
  0.00000000E+00  0.00000000E+00  0.00000000E+00
  0.00000000E+00  0.00000000E+00  0.00000000E+00
  0.00000000E+00  0.00000000E+00  0.00000000E+00
  0.00000000E+00  0.00000000E+00  0.00000000E+00
  0.00000000E+00  0.00000000E+00  0.00000000E+00
  0.00000000E+00  0.00000000E+00  0.00000000E+00
  0.00000000E+00  0.00000000E+00  0.00000000E+00
  0.00000000E+00  0.00000000E+00  0.00000000E+00
  0.00000000E+00  0.00000000E+00  0.00000000E+00
  0.00000000E+00  0.00000000E+00  0.00000000E+00
