Li12 Zn3 P6                             
   1.00000000000000     
     4.3496466122981134   -0.0000463865544656   -0.0000204363663536
    -2.1748634780405047    3.7668813485964741    0.0000201129037026
    -0.0000976138092974    0.0000542279027950   23.0333290569461688
   Li   Zn   P 
    12     3     6
Direct
 -0.0000015369580383  0.0000013805956671  0.7940899162855467
  0.0000015241325750 -0.0000013815556802  0.2059100171038116
  0.6666653853112328  0.3333343815358779  0.1270820738378461
  0.6666670856521270  0.3333330934976393  0.5394303718809588
  0.3333328794179836  0.6666669194665115  0.4605696073644070
  0.3333345806277970  0.6666656142575039  0.8729178780439647
  0.0000010193083698 -0.0000007793101442  0.5881843400723464
 -0.0000010540488387  0.0000007882589209  0.4118155707866818
  0.6666692752540143  0.3333309952730991  0.9213290810774249
  0.6666639481106493  0.3333358172142837  0.7456523124234853
  0.3333360285136408  0.6666641837279702  0.2543474423815927
  0.3333307073803013  0.6666689962926128  0.0786710612227738
  0.0000002157342775 -0.0000000144953206  0.0000001261480166
  0.6666673546624047  0.3333326642955721  0.3330427395407360
  0.3333326309828615  0.6666673375498451  0.6669574424280605
  0.0000008679043612 -0.0000005685288310  0.9050900464379126
 -0.0000008691445194  0.0000005610928679  0.0949101592917261
  0.6666675606687739  0.3333326776545059  0.2380881814922776
  0.6666668862570366  0.3333328470569867  0.4280625722755714
  0.3333330872282730  0.6666671612946163  0.5719373128895023
  0.3333324230047175  0.6666673248254963  0.7619117470153568
 
  0.00000000E+00  0.00000000E+00  0.00000000E+00
  0.00000000E+00  0.00000000E+00  0.00000000E+00
  0.00000000E+00  0.00000000E+00  0.00000000E+00
  0.00000000E+00  0.00000000E+00  0.00000000E+00
  0.00000000E+00  0.00000000E+00  0.00000000E+00
  0.00000000E+00  0.00000000E+00  0.00000000E+00
  0.00000000E+00  0.00000000E+00  0.00000000E+00
  0.00000000E+00  0.00000000E+00  0.00000000E+00
  0.00000000E+00  0.00000000E+00  0.00000000E+00
  0.00000000E+00  0.00000000E+00  0.00000000E+00
  0.00000000E+00  0.00000000E+00  0.00000000E+00
  0.00000000E+00  0.00000000E+00  0.00000000E+00
  0.00000000E+00  0.00000000E+00  0.00000000E+00
  0.00000000E+00  0.00000000E+00  0.00000000E+00
  0.00000000E+00  0.00000000E+00  0.00000000E+00
  0.00000000E+00  0.00000000E+00  0.00000000E+00
  0.00000000E+00  0.00000000E+00  0.00000000E+00
  0.00000000E+00  0.00000000E+00  0.00000000E+00
  0.00000000E+00  0.00000000E+00  0.00000000E+00
  0.00000000E+00  0.00000000E+00  0.00000000E+00
  0.00000000E+00  0.00000000E+00  0.00000000E+00
